! yapnr rf: line-osh-m-w0p40-l10-m-eq-em528, footprint re-simulated (optimization grid)
! spec sha256 481213eb7ef25ea973283babd221eab5491b15bb95854c30e81f7bd2606d49bb
! 2 ports renormalized to 50 ohm, e^(+jwt) convention
# GHz S RI R 50
3.000000000 -1.471264320e-02 -8.609535650e-03  4.844286968e-01 -8.596937865e-01  4.844286968e-01 -8.596937865e-01 -1.471264320e-02 -8.609535650e-03
3.025000000 -1.485203651e-02 -8.519872989e-03  4.768362306e-01 -8.639253808e-01  4.768362306e-01 -8.639253808e-01 -1.485203651e-02 -8.519872989e-03
3.050000000 -1.498980843e-02 -8.427679479e-03  4.692066906e-01 -8.680901000e-01  4.692066906e-01 -8.680901000e-01 -1.498980843e-02 -8.427679479e-03
3.075000000 -1.512575539e-02 -8.333228052e-03  4.615407042e-01 -8.721875992e-01  4.615407042e-01 -8.721875992e-01 -1.512575539e-02 -8.333228052e-03
3.100000000 -1.526023357e-02 -8.235815885e-03  4.538388456e-01 -8.762175572e-01  4.538388456e-01 -8.762175572e-01 -1.526023357e-02 -8.235815885e-03
3.125000000 -1.539281285e-02 -8.136163599e-03  4.461017251e-01 -8.801796593e-01  4.461017251e-01 -8.801796593e-01 -1.539281285e-02 -8.136163599e-03
3.150000000 -1.552379262e-02 -8.033559564e-03  4.383300270e-01 -8.840735447e-01  4.383300270e-01 -8.840735447e-01 -1.552379262e-02 -8.033559564e-03
3.175000000 -1.565281767e-02 -7.928695875e-03  4.305242752e-01 -8.878989559e-01  4.305242752e-01 -8.878989559e-01 -1.565281767e-02 -7.928695875e-03
3.200000000 -1.577994232e-02 -7.821320069e-03  4.226851881e-01 -8.916555370e-01  4.226851881e-01 -8.916555370e-01 -1.577994232e-02 -7.821320069e-03
3.225000000 -1.590502151e-02 -7.711758005e-03  4.148132718e-01 -8.953430461e-01  4.148132718e-01 -8.953430461e-01 -1.590502151e-02 -7.711758005e-03
3.250000000 -1.602798665e-02 -7.600092687e-03  4.069091704e-01 -8.989611787e-01  4.069091704e-01 -8.989611787e-01 -1.602798665e-02 -7.600092687e-03
3.275000000 -1.614880432e-02 -7.486391628e-03  3.989734468e-01 -9.025096729e-01  3.989734468e-01 -9.025096729e-01 -1.614880432e-02 -7.486391628e-03
3.300000000 -1.626747555e-02 -7.370648835e-03  3.910066787e-01 -9.059882637e-01  3.910066787e-01 -9.059882637e-01 -1.626747555e-02 -7.370648835e-03
3.325000000 -1.638395293e-02 -7.252926829e-03  3.830094784e-01 -9.093966767e-01  3.830094784e-01 -9.093966767e-01 -1.638395293e-02 -7.252926829e-03
3.350000000 -1.649830748e-02 -7.133028216e-03  3.749824484e-01 -9.127346450e-01  3.749824484e-01 -9.127346450e-01 -1.649830748e-02 -7.133028216e-03
3.375000000 -1.661047628e-02 -7.011042983e-03  3.669262078e-01 -9.160019033e-01  3.669262078e-01 -9.160019033e-01 -1.661047628e-02 -7.011042983e-03
3.400000000 -1.672046279e-02 -6.886876399e-03  3.588414162e-01 -9.191981754e-01  3.588414162e-01 -9.191981754e-01 -1.672046279e-02 -6.886876399e-03
3.425000000 -1.682823953e-02 -6.760532791e-03  3.507286988e-01 -9.223232067e-01  3.507286988e-01 -9.223232067e-01 -1.682823953e-02 -6.760532791e-03
3.450000000 -1.693369604e-02 -6.632216425e-03  3.425887059e-01 -9.253767415e-01  3.425887059e-01 -9.253767415e-01 -1.693369604e-02 -6.632216425e-03
3.475000000 -1.703682967e-02 -6.501862789e-03  3.344220951e-01 -9.283585266e-01  3.344220951e-01 -9.283585266e-01 -1.703682967e-02 -6.501862789e-03
3.500000000 -1.713752169e-02 -6.369775729e-03  3.262294373e-01 -9.312683498e-01  3.262294373e-01 -9.312683498e-01 -1.713752169e-02 -6.369775729e-03
3.525000000 -1.723574420e-02 -6.235953197e-03  3.180114449e-01 -9.341059528e-01  3.180114449e-01 -9.341059528e-01 -1.723574420e-02 -6.235953197e-03
3.550000000 -1.733145891e-02 -6.100515608e-03  3.097686538e-01 -9.368711460e-01  3.097686538e-01 -9.368711460e-01 -1.733145891e-02 -6.100515608e-03
3.575000000 -1.742463899e-02 -5.963502095e-03  3.015017162e-01 -9.395637049e-01  3.015017162e-01 -9.395637049e-01 -1.742463899e-02 -5.963502095e-03
3.600000000 -1.751526894e-02 -5.824918411e-03  2.932112485e-01 -9.421834232e-01  2.932112485e-01 -9.421834232e-01 -1.751526894e-02 -5.824918411e-03
3.625000000 -1.760338226e-02 -5.684628551e-03  2.848978825e-01 -9.447300949e-01  2.848978825e-01 -9.447300949e-01 -1.760338226e-02 -5.684628551e-03
3.650000000 -1.768888471e-02 -5.542855317e-03  2.765622766e-01 -9.472035149e-01  2.765622766e-01 -9.472035149e-01 -1.768888471e-02 -5.542855317e-03
3.675000000 -1.777188136e-02 -5.399190483e-03  2.682051061e-01 -9.496034761e-01  2.682051061e-01 -9.496034761e-01 -1.777188136e-02 -5.399190483e-03
3.700000000 -1.785219588e-02 -5.254176208e-03  2.598269839e-01 -9.519298021e-01  2.598269839e-01 -9.519298021e-01 -1.785219588e-02 -5.254176208e-03
3.725000000 -1.792992560e-02 -5.107374303e-03  2.514286800e-01 -9.541822738e-01  2.514286800e-01 -9.541822738e-01 -1.792992560e-02 -5.107374303e-03
3.750000000 -1.800492227e-02 -4.959317817e-03  2.430107211e-01 -9.563607501e-01  2.430107211e-01 -9.563607501e-01 -1.800492227e-02 -4.959317817e-03
3.775000000 -1.807719599e-02 -4.809897121e-03  2.345738851e-01 -9.584650261e-01  2.345738851e-01 -9.584650261e-01 -1.807719599e-02 -4.809897121e-03
3.800000000 -1.814669930e-02 -4.659305850e-03  2.261187071e-01 -9.604949660e-01  2.261187071e-01 -9.604949660e-01 -1.814669930e-02 -4.659305850e-03
3.825000000 -1.821340567e-02 -4.507627000e-03  2.176458873e-01 -9.624503974e-01  2.176458873e-01 -9.624503974e-01 -1.821340567e-02 -4.507627000e-03
3.850000000 -1.827730432e-02 -4.354893389e-03  2.091560323e-01 -9.643311755e-01  2.091560323e-01 -9.643311755e-01 -1.827730432e-02 -4.354893389e-03
3.875000000 -1.833840053e-02 -4.201067451e-03  2.006497889e-01 -9.661371508e-01  2.006497889e-01 -9.661371508e-01 -1.833840053e-02 -4.201067451e-03
3.900000000 -1.839666326e-02 -4.046254321e-03  1.921278124e-01 -9.678681783e-01  1.921278124e-01 -9.678681783e-01 -1.839666326e-02 -4.046254321e-03
3.925000000 -1.845212186e-02 -3.890273696e-03  1.835907738e-01 -9.695241145e-01  1.835907738e-01 -9.695241145e-01 -1.845212186e-02 -3.890273696e-03
3.950000000 -1.850472983e-02 -3.733309540e-03  1.750393263e-01 -9.711048271e-01  1.750393263e-01 -9.711048271e-01 -1.850472983e-02 -3.733309540e-03
3.975000000 -1.855449045e-02 -3.575293953e-03  1.664741738e-01 -9.726101800e-01  1.664741738e-01 -9.726101800e-01 -1.855449045e-02 -3.575293953e-03
4.000000000 -1.860137240e-02 -3.416355925e-03  1.578959634e-01 -9.740400544e-01  1.578959634e-01 -9.740400544e-01 -1.860137240e-02 -3.416355925e-03
4.025000000 -1.864536878e-02 -3.256490988e-03  1.493054411e-01 -9.753943218e-01  1.493054411e-01 -9.753943218e-01 -1.864536878e-02 -3.256490988e-03
4.050000000 -1.868643905e-02 -3.095921849e-03  1.407032009e-01 -9.766728853e-01  1.407032009e-01 -9.766728853e-01 -1.868643905e-02 -3.095921849e-03
4.075000000 -1.872456579e-02 -2.934747474e-03  1.320899115e-01 -9.778756411e-01  1.320899115e-01 -9.778756411e-01 -1.872456579e-02 -2.934747474e-03
4.100000000 -1.875974031e-02 -2.773021206e-03  1.234662528e-01 -9.790024902e-01  1.234662528e-01 -9.790024902e-01 -1.875974031e-02 -2.773021206e-03
4.125000000 -1.879195480e-02 -2.610783881e-03  1.148328484e-01 -9.800533472e-01  1.148328484e-01 -9.800533472e-01 -1.879195480e-02 -2.610783881e-03
4.150000000 -1.882120090e-02 -2.448085669e-03  1.061903751e-01 -9.810281250e-01  1.061903751e-01 -9.810281250e-01 -1.882120090e-02 -2.448085669e-03
4.175000000 -1.884747818e-02 -2.284920087e-03  9.753949025e-02 -9.819267454e-01  9.753949025e-02 -9.819267454e-01 -1.884747818e-02 -2.284920087e-03
4.200000000 -1.887078661e-02 -2.121239941e-03  8.888086976e-02 -9.827491338e-01  8.888086976e-02 -9.827491338e-01 -1.887078661e-02 -2.121239941e-03
4.225000000 -1.889111121e-02 -1.957205885e-03  8.021518598e-02 -9.834952227e-01  8.021518598e-02 -9.834952227e-01 -1.889111121e-02 -1.957205885e-03
4.250000000 -1.890846038e-02 -1.792699134e-03  7.154313903e-02 -9.841649480e-01  7.154313903e-02 -9.841649480e-01 -1.890846038e-02 -1.792699134e-03
4.275000000 -1.892282730e-02 -1.627817049e-03  6.286543023e-02 -9.847582527e-01  6.286543023e-02 -9.847582527e-01 -1.892282730e-02 -1.627817049e-03
4.300000000 -1.893420617e-02 -1.462676892e-03  5.418275030e-02 -9.852750875e-01  5.418275030e-02 -9.852750875e-01 -1.893420617e-02 -1.462676892e-03
4.325000000 -1.894258471e-02 -1.297456358e-03  4.549569063e-02 -9.857154142e-01  4.549569063e-02 -9.857154142e-01 -1.894258471e-02 -1.297456358e-03
4.350000000 -1.894797230e-02 -1.132194063e-03  3.680503133e-02 -9.860791897e-01  3.680503133e-02 -9.860791897e-01 -1.894797230e-02 -1.132194063e-03
4.375000000 -1.895036584e-02 -9.669578488e-04  2.811133350e-02 -9.863663872e-01  2.811133350e-02 -9.863663872e-01 -1.895036584e-02 -9.669578488e-04
4.400000000 -1.894976516e-02 -8.018454798e-04  1.941531858e-02 -9.865769784e-01  1.941531858e-02 -9.865769784e-01 -1.894976516e-02 -8.018454798e-04
4.425000000 -1.894618022e-02 -6.368651842e-04  1.071761431e-02 -9.867109429e-01  1.071761431e-02 -9.867109429e-01 -1.894618022e-02 -6.368651842e-04
4.450000000 -1.893960711e-02 -4.719727028e-04  2.018903428e-03 -9.867682650e-01  2.018903428e-03 -9.867682650e-01 -1.893960711e-02 -4.719727028e-04
4.475000000 -1.893005826e-02 -3.073016169e-04 -6.680148751e-03 -9.867489345e-01 -6.680148751e-03 -9.867489345e-01 -1.893005826e-02 -3.073016169e-04
4.500000000 -1.891753549e-02 -1.427730752e-04 -1.537885014e-02 -9.866529475e-01 -1.537885014e-02 -9.866529475e-01 -1.891753549e-02 -1.427730752e-04
4.525000000 -1.890204595e-02  2.160441373e-05 -2.407649953e-02 -9.864803066e-01 -2.407649953e-02 -9.864803066e-01 -1.890204595e-02  2.160441373e-05
4.550000000 -1.888360230e-02  1.857235178e-04 -3.277239662e-02 -9.862310214e-01 -3.277239662e-02 -9.862310214e-01 -1.888360230e-02  1.857235178e-04
4.575000000 -1.886221111e-02  3.494510485e-04 -4.146590865e-02 -9.859051060e-01 -4.146590865e-02 -9.859051060e-01 -1.886221111e-02  3.494510485e-04
4.600000000 -1.883788865e-02  5.127190329e-04 -5.015630669e-02 -9.855025835e-01 -5.015630669e-02 -9.855025835e-01 -1.883788865e-02  5.127190329e-04
4.625000000 -1.881064375e-02  6.754611106e-04 -5.884295068e-02 -9.850234800e-01 -5.884295068e-02 -9.850234800e-01 -1.881064375e-02  6.754611106e-04
4.650000000 -1.878048698e-02  8.375702891e-04 -6.752516987e-02 -9.844678288e-01 -6.752516987e-02 -9.844678288e-01 -1.878048698e-02  8.375702891e-04
4.675000000 -1.874743221e-02  9.990041188e-04 -7.620229825e-02 -9.838356686e-01 -7.620229825e-02 -9.838356686e-01 -1.874743221e-02  9.990041188e-04
4.700000000 -1.871148324e-02  1.159747891e-03 -8.487368438e-02 -9.831270429e-01 -8.487368438e-02 -9.831270429e-01 -1.871148324e-02  1.159747891e-03
4.725000000 -1.867265355e-02  1.319751203e-03 -9.353865368e-02 -9.823420027e-01 -9.353865368e-02 -9.823420027e-01 -1.867265355e-02  1.319751203e-03
4.750000000 -1.863096092e-02  1.478990346e-03 -1.021965392e-01 -9.814806043e-01 -1.021965392e-01 -9.814806043e-01 -1.863096092e-02  1.478990346e-03
4.775000000 -1.858639897e-02  1.637547739e-03 -1.108466416e-01 -9.805429136e-01 -1.108466416e-01 -9.805429136e-01 -1.858639897e-02  1.637547739e-03
4.800000000 -1.853900845e-02  1.795267854e-03 -1.194882926e-01 -9.795289991e-01 -1.194882926e-01 -9.795289991e-01 -1.853900845e-02  1.795267854e-03
4.825000000 -1.848880043e-02  1.952171857e-03 -1.281207906e-01 -9.784389400e-01 -1.281207906e-01 -9.784389400e-01 -1.848880043e-02  1.952171857e-03
4.850000000 -1.843580947e-02  2.108095575e-03 -1.367434934e-01 -9.772728136e-01 -1.367434934e-01 -9.772728136e-01 -1.843580947e-02  2.108095575e-03
4.875000000 -1.838006014e-02  2.263037308e-03 -1.453556664e-01 -9.760307162e-01 -1.453556664e-01 -9.760307162e-01 -1.838006014e-02  2.263037308e-03
4.900000000 -1.832157368e-02  2.416871919e-03 -1.539567219e-01 -9.747127289e-01 -1.539567219e-01 -9.747127289e-01 -1.832157368e-02  2.416871919e-03
4.925000000 -1.826038404e-02  2.569515422e-03 -1.625459290e-01 -9.733189595e-01 -1.625459290e-01 -9.733189595e-01 -1.826038404e-02  2.569515422e-03
4.950000000 -1.819650359e-02  2.720965381e-03 -1.711226961e-01 -9.718494998e-01 -1.711226961e-01 -9.718494998e-01 -1.819650359e-02  2.720965381e-03
4.975000000 -1.812994599e-02  2.871137627e-03 -1.796863300e-01 -9.703044635e-01 -1.796863300e-01 -9.703044635e-01 -1.812994599e-02  2.871137627e-03
5.000000000 -1.806074919e-02  3.020030170e-03 -1.882361946e-01 -9.686839595e-01 -1.882361946e-01 -9.686839595e-01 -1.806074919e-02  3.020030170e-03
5.025000000 -1.798889000e-02  3.167691042e-03 -1.967716076e-01 -9.669881124e-01 -1.967716076e-01 -9.669881124e-01 -1.798889000e-02  3.167691042e-03
5.050000000 -1.791444202e-02  3.313981833e-03 -2.052919226e-01 -9.652170441e-01 -2.052919226e-01 -9.652170441e-01 -1.791444202e-02  3.313981833e-03
5.075000000 -1.783738789e-02  3.459027666e-03 -2.137964157e-01 -9.633709004e-01 -2.137964157e-01 -9.633709004e-01 -1.783738789e-02  3.459027666e-03
5.100000000 -1.775779397e-02  3.602628424e-03 -2.222844806e-01 -9.614498075e-01 -2.222844806e-01 -9.614498075e-01 -1.775779397e-02  3.602628424e-03
5.125000000 -1.767568521e-02  3.744823526e-03 -2.307553633e-01 -9.594539316e-01 -2.307553633e-01 -9.594539316e-01 -1.767568521e-02  3.744823526e-03
5.150000000 -1.759109684e-02  3.885491081e-03 -2.392084838e-01 -9.573834054e-01 -2.392084838e-01 -9.573834054e-01 -1.759109684e-02  3.885491081e-03
5.175000000 -1.750407668e-02  4.024549626e-03 -2.476431208e-01 -9.552384011e-01 -2.476431208e-01 -9.552384011e-01 -1.750407668e-02  4.024549626e-03
5.200000000 -1.741464581e-02  4.161973393e-03 -2.560586734e-01 -9.530190680e-01 -2.560586734e-01 -9.530190680e-01 -1.741464581e-02  4.161973393e-03
5.225000000 -1.732283376e-02  4.297678476e-03 -2.644544799e-01 -9.507255764e-01 -2.644544799e-01 -9.507255764e-01 -1.732283376e-02  4.297678476e-03
5.250000000 -1.722867221e-02  4.431651990e-03 -2.728299034e-01 -9.483580960e-01 -2.728299034e-01 -9.483580960e-01 -1.722867221e-02  4.431651990e-03
5.275000000 -1.713215588e-02  4.563877856e-03 -2.811842957e-01 -9.459168062e-01 -2.811842957e-01 -9.459168062e-01 -1.713215588e-02  4.563877856e-03
5.300000000 -1.703334043e-02  4.694328399e-03 -2.895170149e-01 -9.434018897e-01 -2.895170149e-01 -9.434018897e-01 -1.703334043e-02  4.694328399e-03
5.325000000 -1.693224008e-02  4.823019957e-03 -2.978273931e-01 -9.408135438e-01 -2.978273931e-01 -9.408135438e-01 -1.693224008e-02  4.823019957e-03
5.350000000 -1.682889189e-02  4.949906482e-03 -3.061147851e-01 -9.381519653e-01 -3.061147851e-01 -9.381519653e-01 -1.682889189e-02  4.949906482e-03
5.375000000 -1.672335208e-02  5.074942293e-03 -3.143785221e-01 -9.354173646e-01 -3.143785221e-01 -9.354173646e-01 -1.672335208e-02  5.074942293e-03
5.400000000 -1.661565421e-02  5.198104422e-03 -3.226179491e-01 -9.326099546e-01 -3.226179491e-01 -9.326099546e-01 -1.661565421e-02  5.198104422e-03
5.425000000 -1.650586065e-02  5.319289892e-03 -3.308324400e-01 -9.297299442e-01 -3.308324400e-01 -9.297299442e-01 -1.650586065e-02  5.319289892e-03
5.450000000 -1.639401663e-02  5.438467171e-03 -3.390213234e-01 -9.267775648e-01 -3.390213234e-01 -9.267775648e-01 -1.639401663e-02  5.438467171e-03
5.475000000 -1.628015431e-02  5.555580565e-03 -3.471840187e-01 -9.237530212e-01 -3.471840187e-01 -9.237530212e-01 -1.628015431e-02  5.555580565e-03
5.500000000 -1.616432232e-02  5.670570447e-03 -3.553198635e-01 -9.206565533e-01 -3.553198635e-01 -9.206565533e-01 -1.616432232e-02  5.670570447e-03
5.525000000 -1.604653574e-02  5.783407470e-03 -3.634282513e-01 -9.174883869e-01 -3.634282513e-01 -9.174883869e-01 -1.604653574e-02  5.783407470e-03
5.550000000 -1.592681655e-02  5.894093845e-03 -3.715085628e-01 -9.142487580e-01 -3.715085628e-01 -9.142487580e-01 -1.592681655e-02  5.894093845e-03
5.575000000 -1.580522451e-02  6.002620336e-03 -3.795601683e-01 -9.109379121e-01 -3.795601683e-01 -9.109379121e-01 -1.580522451e-02  6.002620336e-03
5.600000000 -1.568173793e-02  6.109008738e-03 -3.875824240e-01 -9.075561087e-01 -3.875824240e-01 -9.075561087e-01 -1.568173793e-02  6.109008738e-03
5.625000000 -1.555646662e-02  6.213171775e-03 -3.955747184e-01 -9.041035981e-01 -3.955747184e-01 -9.041035981e-01 -1.555646662e-02  6.213171775e-03
5.650000000 -1.542940205e-02  6.315185944e-03 -4.035363552e-01 -9.005806766e-01 -4.035363552e-01 -9.005806766e-01 -1.542940205e-02  6.315185944e-03
5.675000000 -1.530063813e-02  6.414911024e-03 -4.114667881e-01 -8.969875797e-01 -4.114667881e-01 -8.969875797e-01 -1.530063813e-02  6.414911024e-03
5.700000000 -1.517022815e-02  6.512359915e-03 -4.193652873e-01 -8.933246336e-01 -4.193652873e-01 -8.933246336e-01 -1.517022815e-02  6.512359915e-03
5.725000000 -1.503820569e-02  6.607468305e-03 -4.272313418e-01 -8.895920711e-01 -4.272313418e-01 -8.895920711e-01 -1.503820569e-02  6.607468305e-03
5.750000000 -1.490463785e-02  6.700178119e-03 -4.350642815e-01 -8.857902053e-01 -4.350642815e-01 -8.857902053e-01 -1.490463785e-02  6.700178119e-03
5.775000000 -1.476955771e-02  6.790446091e-03 -4.428635204e-01 -8.819193166e-01 -4.428635204e-01 -8.819193166e-01 -1.476955771e-02  6.790446091e-03
5.800000000 -1.463297788e-02  6.878253481e-03 -4.506284758e-01 -8.779796903e-01 -4.506284758e-01 -8.779796903e-01 -1.463297788e-02  6.878253481e-03
5.825000000 -1.449495807e-02  6.963612190e-03 -4.583585478e-01 -8.739716252e-01 -4.583585478e-01 -8.739716252e-01 -1.449495807e-02  6.963612190e-03
5.850000000 -1.435548787e-02  7.046515600e-03 -4.660531321e-01 -8.698954306e-01 -4.660531321e-01 -8.698954306e-01 -1.435548787e-02  7.046515600e-03
5.875000000 -1.421465023e-02  7.126936664e-03 -4.737116300e-01 -8.657514176e-01 -4.737116300e-01 -8.657514176e-01 -1.421465023e-02  7.126936664e-03
5.900000000 -1.407246573e-02  7.204907083e-03 -4.813334116e-01 -8.615399228e-01 -4.813334116e-01 -8.615399228e-01 -1.407246573e-02  7.204907083e-03
5.925000000 -1.392900356e-02  7.280379872e-03 -4.889178970e-01 -8.572612612e-01 -4.889178970e-01 -8.572612612e-01 -1.392900356e-02  7.280379872e-03
5.950000000 -1.378433621e-02  7.353341943e-03 -4.964644536e-01 -8.529157847e-01 -4.964644536e-01 -8.529157847e-01 -1.378433621e-02  7.353341943e-03
5.975000000 -1.363851310e-02  7.423767352e-03 -5.039725058e-01 -8.485038203e-01 -5.039725058e-01 -8.485038203e-01 -1.363851310e-02  7.423767352e-03
6.000000000 -1.349159766e-02  7.491610298e-03 -5.114414813e-01 -8.440256985e-01 -5.114414813e-01 -8.440256985e-01 -1.349159766e-02  7.491610298e-03
6.025000000 -1.334365986e-02  7.556822140e-03 -5.188707554e-01 -8.394817887e-01 -5.188707554e-01 -8.394817887e-01 -1.334365986e-02  7.556822140e-03
6.050000000 -1.319471312e-02  7.619393949e-03 -5.262598114e-01 -8.348724015e-01 -5.262598114e-01 -8.348724015e-01 -1.319471312e-02  7.619393949e-03
6.075000000 -1.304480427e-02  7.679297444e-03 -5.336080661e-01 -8.301978939e-01 -5.336080661e-01 -8.301978939e-01 -1.304480427e-02  7.679297444e-03
6.100000000 -1.289395791e-02  7.736553991e-03 -5.409149623e-01 -8.254586132e-01 -5.409149623e-01 -8.254586132e-01 -1.289395791e-02  7.736553991e-03
6.125000000 -1.274219283e-02  7.791132224e-03 -5.481799295e-01 -8.206549220e-01 -5.481799295e-01 -8.206549220e-01 -1.274219283e-02  7.791132224e-03
6.150000000 -1.258958657e-02  7.843064111e-03 -5.554023887e-01 -8.157871948e-01 -5.554023887e-01 -8.157871948e-01 -1.258958657e-02  7.843064111e-03
6.175000000 -1.243613583e-02  7.892355779e-03 -5.625817605e-01 -8.108558159e-01 -5.625817605e-01 -8.108558159e-01 -1.243613583e-02  7.892355779e-03
6.200000000 -1.228195883e-02  7.938978417e-03 -5.697174867e-01 -8.058611603e-01 -5.697174867e-01 -8.058611603e-01 -1.228195883e-02  7.938978417e-03
6.225000000 -1.212708395e-02  7.982969716e-03 -5.768089465e-01 -8.008036575e-01 -5.768089465e-01 -8.008036575e-01 -1.212708395e-02  7.982969716e-03
6.250000000 -1.197158860e-02  8.024261361e-03 -5.838556513e-01 -7.956836501e-01 -5.838556513e-01 -7.956836501e-01 -1.197158860e-02  8.024261361e-03
6.275000000 -1.181555690e-02  8.062855511e-03 -5.908569577e-01 -7.905016005e-01 -5.908569577e-01 -7.905016005e-01 -1.181555690e-02  8.062855511e-03
6.300000000 -1.165899936e-02  8.098736544e-03 -5.978124174e-01 -7.852578370e-01 -5.978124174e-01 -7.852578370e-01 -1.165899936e-02  8.098736544e-03
6.325000000 -1.150198894e-02  8.131823814e-03 -6.047214303e-01 -7.799528067e-01 -6.047214303e-01 -7.799528067e-01 -1.150198894e-02  8.131823814e-03
6.350000000 -1.134455047e-02  8.162189530e-03 -6.115835108e-01 -7.745868784e-01 -6.115835108e-01 -7.745868784e-01 -1.134455047e-02  8.162189530e-03
6.375000000 -1.118667421e-02  8.189743879e-03 -6.183981276e-01 -7.691604631e-01 -6.183981276e-01 -7.691604631e-01 -1.118667421e-02  8.189743879e-03
6.400000000 -1.102846386e-02  8.214560462e-03 -6.251647418e-01 -7.636739829e-01 -6.251647418e-01 -7.636739829e-01 -1.102846386e-02  8.214560462e-03
6.425000000 -1.086988107e-02  8.236623469e-03 -6.318828240e-01 -7.581278631e-01 -6.318828240e-01 -7.581278631e-01 -1.086988107e-02  8.236623469e-03
6.450000000 -1.071105329e-02  8.255943977e-03 -6.385518481e-01 -7.525225303e-01 -6.385518481e-01 -7.525225303e-01 -1.071105329e-02  8.255943977e-03
6.475000000 -1.055200711e-02  8.272560760e-03 -6.451712484e-01 -7.468584550e-01 -6.451712484e-01 -7.468584550e-01 -1.055200711e-02  8.272560760e-03
6.500000000 -1.039282363e-02  8.286447908e-03 -6.517405373e-01 -7.411360480e-01 -6.517405373e-01 -7.411360480e-01 -1.039282363e-02  8.286447908e-03
6.525000000 -1.023359334e-02  8.297643461e-03 -6.582591163e-01 -7.353558248e-01 -6.582591163e-01 -7.353558248e-01 -1.023359334e-02  8.297643461e-03
6.550000000 -1.007435083e-02  8.306111620e-03 -6.647265528e-01 -7.295181641e-01 -6.647265528e-01 -7.295181641e-01 -1.007435083e-02  8.306111620e-03
6.575000000 -9.915161713e-03  8.311829987e-03 -6.711423148e-01 -7.236235385e-01 -6.711423148e-01 -7.236235385e-01 -9.915161713e-03  8.311829987e-03
6.600000000 -9.756064606e-03  8.314815037e-03 -6.775059145e-01 -7.176723890e-01 -6.775059145e-01 -7.176723890e-01 -9.756064606e-03  8.314815037e-03
6.625000000 -9.597066441e-03  8.315031823e-03 -6.838168816e-01 -7.116651477e-01 -6.838168816e-01 -7.116651477e-01 -9.597066441e-03  8.315031823e-03
6.650000000 -9.438215152e-03  8.312492624e-03 -6.900747192e-01 -7.056022774e-01 -6.900747192e-01 -7.056022774e-01 -9.438215152e-03  8.312492624e-03
6.675000000 -9.279526899e-03  8.307218771e-03 -6.962789449e-01 -6.994842361e-01 -6.962789449e-01 -6.994842361e-01 -9.279526899e-03  8.307218771e-03
6.700000000 -9.121034815e-03  8.299204209e-03 -7.024290720e-01 -6.933114937e-01 -7.024290720e-01 -6.933114937e-01 -9.121034815e-03  8.299204209e-03
6.725000000 -8.962823342e-03  8.288508537e-03 -7.085245903e-01 -6.870845520e-01 -7.085245903e-01 -6.870845520e-01 -8.962823342e-03  8.288508537e-03
6.750000000 -8.804918843e-03  8.275138277e-03 -7.145650094e-01 -6.808039042e-01 -7.145650094e-01 -6.808039042e-01 -8.804918843e-03  8.275138277e-03
6.775000000 -8.647426696e-03  8.259117174e-03 -7.205498468e-01 -6.744700434e-01 -7.205498468e-01 -6.744700434e-01 -8.647426696e-03  8.259117174e-03
6.800000000 -8.490405803e-03  8.240484768e-03 -7.264785863e-01 -6.680835110e-01 -7.264785863e-01 -6.680835110e-01 -8.490405803e-03  8.240484768e-03
6.825000000 -8.333897392e-03  8.219206618e-03 -7.323508172e-01 -6.616447451e-01 -7.323508172e-01 -6.616447451e-01 -8.333897392e-03  8.219206618e-03
6.850000000 -8.177983724e-03  8.195308670e-03 -7.381660204e-01 -6.551543102e-01 -7.381660204e-01 -6.551543102e-01 -8.177983724e-03  8.195308670e-03
6.875000000 -8.022659798e-03  8.168777071e-03 -7.439238148e-01 -6.486126298e-01 -7.439238148e-01 -6.486126298e-01 -8.022659798e-03  8.168777071e-03
6.900000000 -7.867953977e-03  8.139554260e-03 -7.496237341e-01 -6.420202291e-01 -7.496237341e-01 -6.420202291e-01 -7.867953977e-03  8.139554260e-03
6.925000000 -7.713927641e-03  8.107732804e-03 -7.552653494e-01 -6.353775988e-01 -7.552653494e-01 -6.353775988e-01 -7.713927641e-03  8.107732804e-03
6.950000000 -7.560518994e-03  8.073189737e-03 -7.608482507e-01 -6.286852181e-01 -7.608482507e-01 -6.286852181e-01 -7.560518994e-03  8.073189737e-03
6.975000000 -7.407890230e-03  8.036082420e-03 -7.663719663e-01 -6.219436426e-01 -7.663719663e-01 -6.219436426e-01 -7.407890230e-03  8.036082420e-03
7.000000000 -7.256007682e-03  7.996359143e-03 -7.718360726e-01 -6.151533842e-01 -7.718360726e-01 -6.151533842e-01 -7.256007682e-03  7.996359143e-03
