! yapnr Order 0 O0-W: O0-W B02 W dL5 (line, family W)
! stackup OSHPARK-4L-FR408HR, nominal parameters; geometry of the OSHPARK-4L-FR408HR design
! model: 2D quasi-static RLGC (Djordjevic-Sarkar, Huray roughness, Wheeler loss); generated by python -m yapnr.rf.coupons expected --stackup OSHPARK-4L-FR408HR --upload W
! reference planes 10 mm from each end; 50 ohm (from the W line's Zc)
# GHz S DB R 50
0.03 -74.52 -86.48 -0.00048554 -0.31 -0.00048554 -0.31 -74.52 -86.48
0.06 -68.521 -89.82 -0.00079893 -0.62 -0.00079893 -0.62 -68.521 -89.82
0.09 -65.063 -91.45 -0.0010862 -0.92 -0.0010862 -0.92 -65.063 -91.45
0.12 -62.632 -92.55 -0.0013601 -1.23 -0.0013601 -1.23 -62.632 -92.55
0.15 -60.756 -93.40 -0.0016259 -1.53 -0.0016259 -1.53 -60.756 -93.40
0.18 -59.231 -94.12 -0.0018859 -1.84 -0.0018859 -1.84 -59.231 -94.12
0.21 -57.946 -94.75 -0.0021417 -2.15 -0.0021417 -2.15 -57.946 -94.75
0.24 -56.836 -95.32 -0.0023943 -2.45 -0.0023943 -2.45 -56.836 -95.32
0.27 -55.859 -95.85 -0.0026443 -2.76 -0.0026443 -2.76 -55.859 -95.85
0.3 -54.988 -96.34 -0.0028922 -3.06 -0.0028922 -3.06 -54.988 -96.34
0.33 -54.201 -96.81 -0.0031384 -3.37 -0.0031384 -3.37 -54.201 -96.81
0.36 -53.484 -97.27 -0.0033831 -3.67 -0.0033831 -3.67 -53.484 -97.27
0.39 -52.825 -97.70 -0.0036265 -3.98 -0.0036265 -3.98 -52.825 -97.70
0.42 -52.217 -98.12 -0.0038689 -4.28 -0.0038689 -4.28 -52.217 -98.12
0.45 -51.651 -98.54 -0.0041104 -4.59 -0.0041104 -4.59 -51.651 -98.54
0.48 -51.122 -98.94 -0.004351 -4.89 -0.004351 -4.89 -51.122 -98.94
0.51 -50.626 -99.33 -0.0045909 -5.20 -0.0045909 -5.20 -50.626 -99.33
0.54 -50.159 -99.72 -0.0048302 -5.50 -0.0048302 -5.50 -50.159 -99.72
0.57 -49.718 -100.11 -0.005069 -5.81 -0.005069 -5.81 -49.718 -100.11
0.6 -49.299 -100.48 -0.0053072 -6.11 -0.0053072 -6.11 -49.299 -100.48
0.63 -48.902 -100.86 -0.005545 -6.42 -0.005545 -6.42 -48.902 -100.86
0.66 -48.524 -101.22 -0.0057824 -6.72 -0.0057824 -6.72 -48.524 -101.22
0.69 -48.163 -101.59 -0.0060195 -7.03 -0.0060195 -7.03 -48.163 -101.59
0.72 -47.817 -101.95 -0.0062562 -7.33 -0.0062562 -7.33 -47.817 -101.95
0.75 -47.486 -102.31 -0.0064927 -7.64 -0.0064927 -7.64 -47.486 -102.31
0.78 -47.169 -102.67 -0.0067289 -7.94 -0.0067289 -7.94 -47.169 -102.67
0.81 -46.863 -103.02 -0.0069648 -8.25 -0.0069648 -8.25 -46.863 -103.02
0.84 -46.569 -103.37 -0.0072005 -8.55 -0.0072005 -8.55 -46.569 -103.37
0.87 -46.286 -103.72 -0.0074361 -8.86 -0.0074361 -8.86 -46.286 -103.72
0.9 -46.012 -104.07 -0.0076715 -9.16 -0.0076715 -9.16 -46.012 -104.07
0.93 -45.748 -104.41 -0.0079067 -9.47 -0.0079067 -9.47 -45.748 -104.41
0.96 -45.493 -104.76 -0.0081418 -9.78 -0.0081418 -9.78 -45.493 -104.76
0.99 -45.245 -105.10 -0.0083767 -10.08 -0.0083767 -10.08 -45.245 -105.10
1.02 -45.005 -105.44 -0.0086115 -10.39 -0.0086115 -10.39 -45.005 -105.44
1.05 -44.773 -105.78 -0.0088463 -10.69 -0.0088463 -10.69 -44.773 -105.78
1.08 -44.547 -106.12 -0.0090809 -11.00 -0.0090809 -11.00 -44.547 -106.12
1.11 -44.328 -106.46 -0.0093154 -11.30 -0.0093154 -11.30 -44.328 -106.46
1.14 -44.114 -106.79 -0.0095499 -11.61 -0.0095499 -11.61 -44.114 -106.79
1.17 -43.907 -107.13 -0.0097843 -11.91 -0.0097843 -11.91 -43.907 -107.13
1.2 -43.705 -107.47 -0.010019 -12.22 -0.010019 -12.22 -43.705 -107.47
1.23 -43.508 -107.80 -0.010253 -12.52 -0.010253 -12.52 -43.508 -107.80
1.26 -43.316 -108.13 -0.010487 -12.83 -0.010487 -12.83 -43.316 -108.13
1.29 -43.129 -108.46 -0.010721 -13.13 -0.010721 -13.13 -43.129 -108.46
1.32 -42.946 -108.80 -0.010956 -13.44 -0.010956 -13.44 -42.946 -108.80
1.35 -42.768 -109.13 -0.01119 -13.74 -0.01119 -13.74 -42.768 -109.13
1.38 -42.593 -109.46 -0.011424 -14.05 -0.011424 -14.05 -42.593 -109.46
1.41 -42.423 -109.79 -0.011658 -14.36 -0.011658 -14.36 -42.423 -109.79
1.44 -42.257 -110.12 -0.011892 -14.66 -0.011892 -14.66 -42.257 -110.12
1.47 -42.094 -110.45 -0.012126 -14.97 -0.012126 -14.97 -42.094 -110.45
1.5 -41.934 -110.77 -0.01236 -15.27 -0.01236 -15.27 -41.934 -110.77
1.53 -41.778 -111.10 -0.012594 -15.58 -0.012594 -15.58 -41.778 -111.10
1.56 -41.625 -111.43 -0.012828 -15.88 -0.012828 -15.88 -41.625 -111.43
1.59 -41.476 -111.76 -0.013062 -16.19 -0.013062 -16.19 -41.476 -111.76
1.62 -41.329 -112.08 -0.013296 -16.50 -0.013296 -16.50 -41.329 -112.08
1.65 -41.185 -112.41 -0.01353 -16.80 -0.01353 -16.80 -41.185 -112.41
1.68 -41.044 -112.73 -0.013764 -17.11 -0.013764 -17.11 -41.044 -112.73
1.71 -40.906 -113.06 -0.013998 -17.41 -0.013998 -17.41 -40.906 -113.06
1.74 -40.77 -113.38 -0.014232 -17.72 -0.014232 -17.72 -40.77 -113.38
1.77 -40.637 -113.71 -0.014466 -18.03 -0.014466 -18.03 -40.637 -113.71
1.8 -40.506 -114.03 -0.0147 -18.33 -0.0147 -18.33 -40.506 -114.03
1.83 -40.377 -114.35 -0.014934 -18.64 -0.014934 -18.64 -40.377 -114.35
1.86 -40.251 -114.68 -0.015168 -18.94 -0.015168 -18.94 -40.251 -114.68
1.89 -40.127 -115.00 -0.015402 -19.25 -0.015402 -19.25 -40.127 -115.00
1.92 -40.005 -115.32 -0.015636 -19.56 -0.015636 -19.56 -40.005 -115.32
1.95 -39.885 -115.65 -0.01587 -19.86 -0.01587 -19.86 -39.885 -115.65
1.98 -39.767 -115.97 -0.016104 -20.17 -0.016104 -20.17 -39.767 -115.97
2.01 -39.651 -116.29 -0.016338 -20.48 -0.016338 -20.48 -39.651 -116.29
2.04 -39.537 -116.61 -0.016573 -20.78 -0.016573 -20.78 -39.537 -116.61
2.07 -39.425 -116.94 -0.016807 -21.09 -0.016807 -21.09 -39.425 -116.94
2.1 -39.315 -117.26 -0.017041 -21.40 -0.017041 -21.40 -39.315 -117.26
2.13 -39.206 -117.58 -0.017275 -21.70 -0.017275 -21.70 -39.206 -117.58
2.16 -39.099 -117.90 -0.017509 -22.01 -0.017509 -22.01 -39.099 -117.90
2.19 -38.994 -118.22 -0.017743 -22.32 -0.017743 -22.32 -38.994 -118.22
2.22 -38.891 -118.54 -0.017977 -22.62 -0.017977 -22.62 -38.891 -118.54
2.25 -38.788 -118.86 -0.018211 -22.93 -0.018211 -22.93 -38.788 -118.86
2.28 -38.688 -119.18 -0.018446 -23.24 -0.018446 -23.24 -38.688 -119.18
2.31 -38.589 -119.50 -0.01868 -23.54 -0.01868 -23.54 -38.589 -119.50
2.34 -38.491 -119.82 -0.018914 -23.85 -0.018914 -23.85 -38.491 -119.82
2.37 -38.395 -120.14 -0.019148 -24.16 -0.019148 -24.16 -38.395 -120.14
2.4 -38.3 -120.46 -0.019382 -24.46 -0.019382 -24.46 -38.3 -120.46
2.43 -38.207 -120.78 -0.019617 -24.77 -0.019617 -24.77 -38.207 -120.78
2.46 -38.115 -121.10 -0.019851 -25.08 -0.019851 -25.08 -38.115 -121.10
2.49 -38.024 -121.42 -0.020085 -25.39 -0.020085 -25.39 -38.024 -121.42
2.52 -37.934 -121.74 -0.020319 -25.69 -0.020319 -25.69 -37.934 -121.74
2.55 -37.846 -122.06 -0.020553 -26.00 -0.020553 -26.00 -37.846 -122.06
2.58 -37.759 -122.38 -0.020788 -26.31 -0.020788 -26.31 -37.759 -122.38
2.61 -37.673 -122.70 -0.021022 -26.61 -0.021022 -26.61 -37.673 -122.70
2.64 -37.588 -123.02 -0.021256 -26.92 -0.021256 -26.92 -37.588 -123.02
2.67 -37.505 -123.33 -0.02149 -27.23 -0.02149 -27.23 -37.505 -123.33
2.7 -37.422 -123.65 -0.021725 -27.54 -0.021725 -27.54 -37.422 -123.65
2.73 -37.341 -123.97 -0.021959 -27.84 -0.021959 -27.84 -37.341 -123.97
2.76 -37.26 -124.29 -0.022193 -28.15 -0.022193 -28.15 -37.26 -124.29
2.79 -37.181 -124.61 -0.022427 -28.46 -0.022427 -28.46 -37.181 -124.61
2.82 -37.102 -124.93 -0.022662 -28.77 -0.022662 -28.77 -37.102 -124.93
2.85 -37.025 -125.25 -0.022896 -29.08 -0.022896 -29.08 -37.025 -125.25
2.88 -36.949 -125.56 -0.02313 -29.38 -0.02313 -29.38 -36.949 -125.56
2.91 -36.873 -125.88 -0.023364 -29.69 -0.023364 -29.69 -36.873 -125.88
2.94 -36.799 -126.20 -0.023598 -30.00 -0.023598 -30.00 -36.799 -126.20
2.97 -36.726 -126.52 -0.023833 -30.31 -0.023833 -30.31 -36.726 -126.52
3 -36.653 -126.84 -0.024067 -30.61 -0.024067 -30.61 -36.653 -126.84
3.03 -36.581 -127.15 -0.024301 -30.92 -0.024301 -30.92 -36.581 -127.15
3.06 -36.511 -127.47 -0.024535 -31.23 -0.024535 -31.23 -36.511 -127.47
3.09 -36.441 -127.79 -0.024769 -31.54 -0.024769 -31.54 -36.441 -127.79
3.12 -36.372 -128.11 -0.025003 -31.85 -0.025003 -31.85 -36.372 -128.11
3.15 -36.303 -128.42 -0.025237 -32.16 -0.025237 -32.16 -36.303 -128.42
3.18 -36.236 -128.74 -0.025472 -32.46 -0.025472 -32.46 -36.236 -128.74
3.21 -36.169 -129.06 -0.025706 -32.77 -0.025706 -32.77 -36.169 -129.06
3.24 -36.103 -129.38 -0.02594 -33.08 -0.02594 -33.08 -36.103 -129.38
3.27 -36.038 -129.69 -0.026174 -33.39 -0.026174 -33.39 -36.038 -129.69
3.3 -35.974 -130.01 -0.026408 -33.70 -0.026408 -33.70 -35.974 -130.01
3.33 -35.911 -130.33 -0.026642 -34.01 -0.026642 -34.01 -35.911 -130.33
3.36 -35.848 -130.65 -0.026876 -34.32 -0.026876 -34.32 -35.848 -130.65
3.39 -35.786 -130.96 -0.02711 -34.62 -0.02711 -34.62 -35.786 -130.96
3.42 -35.725 -131.28 -0.027344 -34.93 -0.027344 -34.93 -35.725 -131.28
3.45 -35.664 -131.60 -0.027577 -35.24 -0.027577 -35.24 -35.664 -131.60
3.48 -35.604 -131.91 -0.027811 -35.55 -0.027811 -35.55 -35.604 -131.91
3.51 -35.545 -132.23 -0.028045 -35.86 -0.028045 -35.86 -35.545 -132.23
3.54 -35.487 -132.55 -0.028279 -36.17 -0.028279 -36.17 -35.487 -132.55
3.57 -35.429 -132.87 -0.028513 -36.48 -0.028513 -36.48 -35.429 -132.87
3.6 -35.372 -133.18 -0.028746 -36.79 -0.028746 -36.79 -35.372 -133.18
3.63 -35.315 -133.50 -0.02898 -37.10 -0.02898 -37.10 -35.315 -133.50
3.66 -35.259 -133.82 -0.029214 -37.41 -0.029214 -37.41 -35.259 -133.82
3.69 -35.204 -134.13 -0.029447 -37.72 -0.029447 -37.72 -35.204 -134.13
3.72 -35.149 -134.45 -0.029681 -38.03 -0.029681 -38.03 -35.149 -134.45
3.75 -35.095 -134.77 -0.029914 -38.33 -0.029914 -38.33 -35.095 -134.77
3.78 -35.042 -135.09 -0.030148 -38.64 -0.030148 -38.64 -35.042 -135.09
3.81 -34.989 -135.40 -0.030381 -38.95 -0.030381 -38.95 -34.989 -135.40
3.84 -34.937 -135.72 -0.030614 -39.26 -0.030614 -39.26 -34.937 -135.72
3.87 -34.885 -136.04 -0.030848 -39.57 -0.030848 -39.57 -34.885 -136.04
3.9 -34.834 -136.35 -0.031081 -39.88 -0.031081 -39.88 -34.834 -136.35
3.93 -34.784 -136.67 -0.031314 -40.19 -0.031314 -40.19 -34.784 -136.67
3.96 -34.734 -136.99 -0.031547 -40.50 -0.031547 -40.50 -34.734 -136.99
3.99 -34.685 -137.30 -0.03178 -40.81 -0.03178 -40.81 -34.685 -137.30
4.02 -34.636 -137.62 -0.032013 -41.12 -0.032013 -41.12 -34.636 -137.62
4.05 -34.588 -137.94 -0.032246 -41.43 -0.032246 -41.43 -34.588 -137.94
4.08 -34.54 -138.25 -0.032479 -41.74 -0.032479 -41.74 -34.54 -138.25
4.11 -34.493 -138.57 -0.032712 -42.05 -0.032712 -42.05 -34.493 -138.57
4.14 -34.446 -138.89 -0.032945 -42.36 -0.032945 -42.36 -34.446 -138.89
4.17 -34.4 -139.21 -0.033178 -42.67 -0.033178 -42.67 -34.4 -139.21
4.2 -34.354 -139.52 -0.03341 -42.98 -0.03341 -42.98 -34.354 -139.52
4.23 -34.309 -139.84 -0.033643 -43.29 -0.033643 -43.29 -34.309 -139.84
4.26 -34.265 -140.16 -0.033875 -43.60 -0.033875 -43.60 -34.265 -140.16
4.29 -34.221 -140.47 -0.034108 -43.92 -0.034108 -43.92 -34.221 -140.47
4.32 -34.177 -140.79 -0.03434 -44.23 -0.03434 -44.23 -34.177 -140.79
4.35 -34.134 -141.11 -0.034572 -44.54 -0.034572 -44.54 -34.134 -141.11
4.38 -34.091 -141.42 -0.034805 -44.85 -0.034805 -44.85 -34.091 -141.42
4.41 -34.049 -141.74 -0.035037 -45.16 -0.035037 -45.16 -34.049 -141.74
4.44 -34.007 -142.06 -0.035269 -45.47 -0.035269 -45.47 -34.007 -142.06
4.47 -33.966 -142.37 -0.035501 -45.78 -0.035501 -45.78 -33.966 -142.37
4.5 -33.925 -142.69 -0.035733 -46.09 -0.035733 -46.09 -33.925 -142.69
4.53 -33.885 -143.01 -0.035964 -46.40 -0.035964 -46.40 -33.885 -143.01
4.56 -33.845 -143.33 -0.036196 -46.71 -0.036196 -46.71 -33.845 -143.33
4.59 -33.806 -143.64 -0.036428 -47.02 -0.036428 -47.02 -33.806 -143.64
4.62 -33.767 -143.96 -0.036659 -47.34 -0.036659 -47.34 -33.767 -143.96
4.65 -33.728 -144.28 -0.036891 -47.65 -0.036891 -47.65 -33.728 -144.28
4.68 -33.69 -144.59 -0.037122 -47.96 -0.037122 -47.96 -33.69 -144.59
4.71 -33.652 -144.91 -0.037353 -48.27 -0.037353 -48.27 -33.652 -144.91
4.74 -33.615 -145.23 -0.037585 -48.58 -0.037585 -48.58 -33.615 -145.23
4.77 -33.578 -145.55 -0.037816 -48.89 -0.037816 -48.89 -33.578 -145.55
4.8 -33.542 -145.86 -0.038047 -49.20 -0.038047 -49.20 -33.542 -145.86
4.83 -33.506 -146.18 -0.038277 -49.52 -0.038277 -49.52 -33.506 -146.18
4.86 -33.47 -146.50 -0.038508 -49.83 -0.038508 -49.83 -33.47 -146.50
4.89 -33.435 -146.81 -0.038739 -50.14 -0.038739 -50.14 -33.435 -146.81
4.92 -33.4 -147.13 -0.03897 -50.45 -0.03897 -50.45 -33.4 -147.13
4.95 -33.366 -147.45 -0.0392 -50.76 -0.0392 -50.76 -33.366 -147.45
4.98 -33.332 -147.77 -0.03943 -51.08 -0.03943 -51.08 -33.332 -147.77
5.01 -33.299 -148.08 -0.039661 -51.39 -0.039661 -51.39 -33.299 -148.08
5.04 -33.265 -148.40 -0.039891 -51.70 -0.039891 -51.70 -33.265 -148.40
5.07 -33.233 -148.72 -0.040121 -52.01 -0.040121 -52.01 -33.233 -148.72
5.1 -33.2 -149.03 -0.040351 -52.32 -0.040351 -52.32 -33.2 -149.03
5.13 -33.168 -149.35 -0.040581 -52.64 -0.040581 -52.64 -33.168 -149.35
5.16 -33.137 -149.67 -0.04081 -52.95 -0.04081 -52.95 -33.137 -149.67
5.19 -33.105 -149.99 -0.04104 -53.26 -0.04104 -53.26 -33.105 -149.99
5.22 -33.074 -150.30 -0.041269 -53.57 -0.041269 -53.57 -33.074 -150.30
5.25 -33.044 -150.62 -0.041499 -53.89 -0.041499 -53.89 -33.044 -150.62
5.28 -33.014 -150.94 -0.041728 -54.20 -0.041728 -54.20 -33.014 -150.94
5.31 -32.984 -151.26 -0.041957 -54.51 -0.041957 -54.51 -32.984 -151.26
5.34 -32.955 -151.57 -0.042186 -54.83 -0.042186 -54.83 -32.955 -151.57
5.37 -32.926 -151.89 -0.042415 -55.14 -0.042415 -55.14 -32.926 -151.89
5.4 -32.897 -152.21 -0.042644 -55.45 -0.042644 -55.45 -32.897 -152.21
5.43 -32.869 -152.53 -0.042872 -55.76 -0.042872 -55.76 -32.869 -152.53
5.46 -32.841 -152.84 -0.043101 -56.08 -0.043101 -56.08 -32.841 -152.84
5.49 -32.813 -153.16 -0.043329 -56.39 -0.043329 -56.39 -32.813 -153.16
5.52 -32.786 -153.48 -0.043558 -56.70 -0.043558 -56.70 -32.786 -153.48
5.55 -32.759 -153.80 -0.043786 -57.02 -0.043786 -57.02 -32.759 -153.80
5.58 -32.732 -154.12 -0.044014 -57.33 -0.044014 -57.33 -32.732 -154.12
5.61 -32.706 -154.43 -0.044242 -57.64 -0.044242 -57.64 -32.706 -154.43
5.64 -32.68 -154.75 -0.044469 -57.96 -0.044469 -57.96 -32.68 -154.75
5.67 -32.654 -155.07 -0.044697 -58.27 -0.044697 -58.27 -32.654 -155.07
5.7 -32.629 -155.39 -0.044924 -58.59 -0.044924 -58.59 -32.629 -155.39
5.73 -32.604 -155.71 -0.045152 -58.90 -0.045152 -58.90 -32.604 -155.71
5.76 -32.58 -156.02 -0.045379 -59.21 -0.045379 -59.21 -32.58 -156.02
5.79 -32.556 -156.34 -0.045606 -59.53 -0.045606 -59.53 -32.556 -156.34
5.82 -32.532 -156.66 -0.045833 -59.84 -0.045833 -59.84 -32.532 -156.66
5.85 -32.508 -156.98 -0.046059 -60.15 -0.046059 -60.15 -32.508 -156.98
5.88 -32.485 -157.30 -0.046286 -60.47 -0.046286 -60.47 -32.485 -157.30
5.91 -32.462 -157.61 -0.046512 -60.78 -0.046512 -60.78 -32.462 -157.61
5.94 -32.439 -157.93 -0.046739 -61.10 -0.046739 -61.10 -32.439 -157.93
5.97 -32.417 -158.25 -0.046965 -61.41 -0.046965 -61.41 -32.417 -158.25
6 -32.395 -158.57 -0.047191 -61.73 -0.047191 -61.73 -32.395 -158.57
