! yapnr Order 0 O0-W: O0-W B03 W dL14 (line, family W)
! stackup OSHPARK-4L-FR408HR, nominal parameters; geometry of the OSHPARK-4L-FR408HR design
! model: 2D quasi-static RLGC (Djordjevic-Sarkar, Huray roughness, Wheeler loss); generated by python -m yapnr.rf.coupons expected --stackup OSHPARK-4L-FR408HR --upload W
! reference planes 10 mm from each end; 50 ohm (from the W line's Zc)
# GHz S DB R 50
0.03 -65.578 -87.04 -0.0013603 -0.87 -0.0013603 -0.87 -65.578 -87.04
0.06 -59.58 -90.93 -0.0022401 -1.73 -0.0022401 -1.73 -59.58 -90.93
0.09 -56.125 -93.11 -0.003048 -2.58 -0.003048 -2.58 -56.125 -93.11
0.12 -53.695 -94.76 -0.0038203 -3.44 -0.0038203 -3.44 -53.695 -94.76
0.15 -51.823 -96.17 -0.0045707 -4.30 -0.0045707 -4.30 -51.823 -96.17
0.18 -50.301 -97.43 -0.0053063 -5.15 -0.0053063 -5.15 -50.301 -97.43
0.21 -49.02 -98.61 -0.0060314 -6.01 -0.0060314 -6.01 -49.02 -98.61
0.24 -47.915 -99.73 -0.0067484 -6.87 -0.0067484 -6.87 -47.915 -99.73
0.27 -46.944 -100.81 -0.0074593 -7.72 -0.0074593 -7.72 -46.944 -100.81
0.3 -46.078 -101.85 -0.0081654 -8.58 -0.0081654 -8.58 -46.078 -101.85
0.33 -45.298 -102.87 -0.0088675 -9.43 -0.0088675 -9.43 -45.298 -102.87
0.36 -44.588 -103.87 -0.0095665 -10.28 -0.0095665 -10.28 -44.588 -103.87
0.39 -43.937 -104.86 -0.010263 -11.14 -0.010263 -11.14 -43.937 -104.86
0.42 -43.336 -105.83 -0.010957 -11.99 -0.010957 -11.99 -43.336 -105.83
0.45 -42.779 -106.79 -0.01165 -12.85 -0.01165 -12.85 -42.779 -106.79
0.48 -42.259 -107.74 -0.012341 -13.70 -0.012341 -13.70 -42.259 -107.74
0.51 -41.773 -108.69 -0.01303 -14.56 -0.01303 -14.56 -41.773 -108.69
0.54 -41.316 -109.62 -0.013719 -15.41 -0.013719 -15.41 -41.316 -109.62
0.57 -40.886 -110.55 -0.014407 -16.26 -0.014407 -16.26 -40.886 -110.55
0.6 -40.479 -111.48 -0.015094 -17.12 -0.015094 -17.12 -40.479 -111.48
0.63 -40.094 -112.40 -0.01578 -17.97 -0.01578 -17.97 -40.094 -112.40
0.66 -39.728 -113.32 -0.016466 -18.83 -0.016466 -18.83 -39.728 -113.32
0.69 -39.38 -114.23 -0.017151 -19.68 -0.017151 -19.68 -39.38 -114.23
0.72 -39.049 -115.14 -0.017836 -20.53 -0.017836 -20.53 -39.049 -115.14
0.75 -38.732 -116.05 -0.01852 -21.39 -0.01852 -21.39 -38.732 -116.05
0.78 -38.429 -116.95 -0.019204 -22.24 -0.019204 -22.24 -38.429 -116.95
0.81 -38.139 -117.85 -0.019887 -23.10 -0.019887 -23.10 -38.139 -117.85
0.84 -37.861 -118.75 -0.02057 -23.95 -0.02057 -23.95 -37.861 -118.75
0.87 -37.595 -119.65 -0.021253 -24.81 -0.021253 -24.81 -37.595 -119.65
0.9 -37.339 -120.54 -0.021936 -25.66 -0.021936 -25.66 -37.339 -120.54
0.93 -37.092 -121.44 -0.022618 -26.51 -0.022618 -26.51 -37.092 -121.44
0.96 -36.855 -122.33 -0.0233 -27.37 -0.0233 -27.37 -36.855 -122.33
0.99 -36.627 -123.22 -0.023981 -28.22 -0.023981 -28.22 -36.627 -123.22
1.02 -36.407 -124.11 -0.024662 -29.08 -0.024662 -29.08 -36.407 -124.11
1.05 -36.194 -125.00 -0.025343 -29.93 -0.025343 -29.93 -36.194 -125.00
1.08 -35.989 -125.88 -0.026023 -30.79 -0.026023 -30.79 -35.989 -125.88
1.11 -35.791 -126.77 -0.026703 -31.64 -0.026703 -31.64 -35.791 -126.77
1.14 -35.6 -127.65 -0.027383 -32.50 -0.027383 -32.50 -35.6 -127.65
1.17 -35.415 -128.54 -0.028062 -33.35 -0.028062 -33.35 -35.415 -128.54
1.2 -35.236 -129.42 -0.028741 -34.21 -0.028741 -34.21 -35.236 -129.42
1.23 -35.063 -130.30 -0.029419 -35.06 -0.029419 -35.06 -35.063 -130.30
1.26 -34.896 -131.18 -0.030097 -35.92 -0.030097 -35.92 -34.896 -131.18
1.29 -34.734 -132.06 -0.030774 -36.77 -0.030774 -36.77 -34.734 -132.06
1.32 -34.577 -132.94 -0.03145 -37.63 -0.03145 -37.63 -34.577 -132.94
1.35 -34.425 -133.82 -0.032126 -38.48 -0.032126 -38.48 -34.425 -133.82
1.38 -34.277 -134.70 -0.032801 -39.34 -0.032801 -39.34 -34.277 -134.70
1.41 -34.135 -135.58 -0.033475 -40.19 -0.033475 -40.19 -34.135 -135.58
1.44 -33.996 -136.46 -0.034149 -41.05 -0.034149 -41.05 -33.996 -136.46
1.47 -33.862 -137.33 -0.034822 -41.90 -0.034822 -41.90 -33.862 -137.33
1.5 -33.733 -138.21 -0.035494 -42.76 -0.035494 -42.76 -33.733 -138.21
1.53 -33.607 -139.08 -0.036166 -43.61 -0.036166 -43.61 -33.607 -139.08
1.56 -33.485 -139.96 -0.036836 -44.47 -0.036836 -44.47 -33.485 -139.96
1.59 -33.366 -140.83 -0.037506 -45.33 -0.037506 -45.33 -33.366 -140.83
1.62 -33.252 -141.71 -0.038175 -46.18 -0.038175 -46.18 -33.252 -141.71
1.65 -33.141 -142.58 -0.038842 -47.04 -0.038842 -47.04 -33.141 -142.58
1.68 -33.033 -143.46 -0.039509 -47.89 -0.039509 -47.89 -33.033 -143.46
1.71 -32.929 -144.33 -0.040175 -48.75 -0.040175 -48.75 -32.929 -144.33
1.74 -32.828 -145.20 -0.040839 -49.61 -0.040839 -49.61 -32.828 -145.20
1.77 -32.73 -146.07 -0.041503 -50.46 -0.041503 -50.46 -32.73 -146.07
1.8 -32.635 -146.95 -0.042165 -51.32 -0.042165 -51.32 -32.635 -146.95
1.83 -32.543 -147.82 -0.042826 -52.18 -0.042826 -52.18 -32.543 -147.82
1.86 -32.455 -148.69 -0.043486 -53.03 -0.043486 -53.03 -32.455 -148.69
1.89 -32.369 -149.56 -0.044145 -53.89 -0.044145 -53.89 -32.369 -149.56
1.92 -32.286 -150.43 -0.044803 -54.75 -0.044803 -54.75 -32.286 -150.43
1.95 -32.206 -151.30 -0.045459 -55.61 -0.045459 -55.61 -32.206 -151.30
1.98 -32.128 -152.17 -0.046114 -56.46 -0.046114 -56.46 -32.128 -152.17
2.01 -32.053 -153.04 -0.046767 -57.32 -0.046767 -57.32 -32.053 -153.04
2.04 -31.981 -153.92 -0.047419 -58.18 -0.047419 -58.18 -31.981 -153.92
2.07 -31.911 -154.79 -0.04807 -59.04 -0.04807 -59.04 -31.911 -154.79
2.1 -31.844 -155.65 -0.048719 -59.89 -0.048719 -59.89 -31.844 -155.65
2.13 -31.78 -156.52 -0.049367 -60.75 -0.049367 -60.75 -31.78 -156.52
2.16 -31.717 -157.39 -0.050014 -61.61 -0.050014 -61.61 -31.717 -157.39
2.19 -31.658 -158.26 -0.050658 -62.47 -0.050658 -62.47 -31.658 -158.26
2.22 -31.6 -159.13 -0.051302 -63.33 -0.051302 -63.33 -31.6 -159.13
2.25 -31.545 -160.00 -0.051943 -64.19 -0.051943 -64.19 -31.545 -160.00
2.28 -31.492 -160.87 -0.052584 -65.04 -0.052584 -65.04 -31.492 -160.87
2.31 -31.442 -161.74 -0.053222 -65.90 -0.053222 -65.90 -31.442 -161.74
2.34 -31.394 -162.61 -0.053859 -66.76 -0.053859 -66.76 -31.394 -162.61
2.37 -31.348 -163.48 -0.054494 -67.62 -0.054494 -67.62 -31.348 -163.48
2.4 -31.304 -164.34 -0.055128 -68.48 -0.055128 -68.48 -31.304 -164.34
2.43 -31.262 -165.21 -0.05576 -69.34 -0.05576 -69.34 -31.262 -165.21
2.46 -31.222 -166.08 -0.05639 -70.20 -0.05639 -70.20 -31.222 -166.08
2.49 -31.185 -166.95 -0.057019 -71.06 -0.057019 -71.06 -31.185 -166.95
2.52 -31.15 -167.82 -0.057646 -71.92 -0.057646 -71.92 -31.15 -167.82
2.55 -31.116 -168.68 -0.058271 -72.78 -0.058271 -72.78 -31.116 -168.68
2.58 -31.085 -169.55 -0.058895 -73.64 -0.058895 -73.64 -31.085 -169.55
2.61 -31.056 -170.42 -0.059516 -74.50 -0.059516 -74.50 -31.056 -170.42
2.64 -31.029 -171.29 -0.060136 -75.36 -0.060136 -75.36 -31.029 -171.29
2.67 -31.004 -172.15 -0.060755 -76.22 -0.060755 -76.22 -31.004 -172.15
2.7 -30.981 -173.02 -0.061371 -77.08 -0.061371 -77.08 -30.981 -173.02
2.73 -30.96 -173.89 -0.061986 -77.94 -0.061986 -77.94 -30.96 -173.89
2.76 -30.94 -174.76 -0.062599 -78.80 -0.062599 -78.80 -30.94 -174.76
2.79 -30.923 -175.62 -0.063211 -79.66 -0.063211 -79.66 -30.923 -175.62
2.82 -30.908 -176.49 -0.06382 -80.52 -0.06382 -80.52 -30.908 -176.49
2.85 -30.895 -177.36 -0.064428 -81.38 -0.064428 -81.38 -30.895 -177.36
2.88 -30.883 -178.22 -0.065034 -82.25 -0.065034 -82.25 -30.883 -178.22
2.91 -30.874 -179.09 -0.065639 -83.11 -0.065639 -83.11 -30.874 -179.09
2.94 -30.867 -179.96 -0.066241 -83.97 -0.066241 -83.97 -30.867 -179.96
2.97 -30.861 179.18 -0.066842 -84.83 -0.066842 -84.83 -30.861 179.18
3 -30.857 178.31 -0.067442 -85.69 -0.067442 -85.69 -30.857 178.31
3.03 -30.856 177.44 -0.068039 -86.56 -0.068039 -86.56 -30.856 177.44
3.06 -30.856 176.58 -0.068635 -87.42 -0.068635 -87.42 -30.856 176.58
3.09 -30.858 175.71 -0.069229 -88.28 -0.069229 -88.28 -30.858 175.71
3.12 -30.862 174.84 -0.069822 -89.14 -0.069822 -89.14 -30.862 174.84
3.15 -30.868 173.98 -0.070413 -90.01 -0.070413 -90.01 -30.868 173.98
3.18 -30.876 173.11 -0.071002 -90.87 -0.071002 -90.87 -30.876 173.11
3.21 -30.886 172.24 -0.07159 -91.73 -0.07159 -91.73 -30.886 172.24
3.24 -30.898 171.38 -0.072176 -92.60 -0.072176 -92.60 -30.898 171.38
3.27 -30.911 170.51 -0.072761 -93.46 -0.072761 -93.46 -30.911 170.51
3.3 -30.927 169.65 -0.073344 -94.32 -0.073344 -94.32 -30.927 169.65
3.33 -30.944 168.78 -0.073926 -95.19 -0.073926 -95.19 -30.944 168.78
3.36 -30.964 167.91 -0.074506 -96.05 -0.074506 -96.05 -30.964 167.91
3.39 -30.985 167.05 -0.075084 -96.92 -0.075084 -96.92 -30.985 167.05
3.42 -31.009 166.18 -0.075662 -97.78 -0.075662 -97.78 -31.009 166.18
3.45 -31.034 165.32 -0.076238 -98.65 -0.076238 -98.65 -31.034 165.32
3.48 -31.061 164.45 -0.076812 -99.51 -0.076812 -99.51 -31.061 164.45
3.51 -31.091 163.59 -0.077385 -100.37 -0.077385 -100.37 -31.091 163.59
3.54 -31.122 162.72 -0.077957 -101.24 -0.077957 -101.24 -31.122 162.72
3.57 -31.156 161.85 -0.078528 -102.11 -0.078528 -102.11 -31.156 161.85
3.6 -31.191 160.99 -0.079097 -102.97 -0.079097 -102.97 -31.191 160.99
3.63 -31.228 160.12 -0.079665 -103.84 -0.079665 -103.84 -31.228 160.12
3.66 -31.268 159.26 -0.080232 -104.70 -0.080232 -104.70 -31.268 159.26
3.69 -31.31 158.39 -0.080798 -105.57 -0.080798 -105.57 -31.31 158.39
3.72 -31.353 157.53 -0.081363 -106.43 -0.081363 -106.43 -31.353 157.53
3.75 -31.399 156.66 -0.081927 -107.30 -0.081927 -107.30 -31.399 156.66
3.78 -31.447 155.80 -0.082489 -108.17 -0.082489 -108.17 -31.447 155.80
3.81 -31.497 154.93 -0.083051 -109.03 -0.083051 -109.03 -31.497 154.93
3.84 -31.55 154.07 -0.083612 -109.90 -0.083612 -109.90 -31.55 154.07
3.87 -31.604 153.21 -0.084172 -110.77 -0.084172 -110.77 -31.604 153.21
3.9 -31.661 152.34 -0.084731 -111.63 -0.084731 -111.63 -31.661 152.34
3.93 -31.72 151.48 -0.085289 -112.50 -0.085289 -112.50 -31.72 151.48
3.96 -31.782 150.61 -0.085847 -113.37 -0.085847 -113.37 -31.782 150.61
3.99 -31.846 149.75 -0.086404 -114.24 -0.086404 -114.24 -31.846 149.75
4.02 -31.912 148.89 -0.08696 -115.11 -0.08696 -115.11 -31.912 148.89
4.05 -31.98 148.02 -0.087515 -115.97 -0.087515 -115.97 -31.98 148.02
4.08 -32.051 147.16 -0.08807 -116.84 -0.08807 -116.84 -32.051 147.16
4.11 -32.125 146.30 -0.088625 -117.71 -0.088625 -117.71 -32.125 146.30
4.14 -32.201 145.43 -0.089178 -118.58 -0.089178 -118.58 -32.201 145.43
4.17 -32.28 144.57 -0.089732 -119.45 -0.089732 -119.45 -32.28 144.57
4.2 -32.361 143.71 -0.090285 -120.32 -0.090285 -120.32 -32.361 143.71
4.23 -32.445 142.84 -0.090838 -121.19 -0.090838 -121.19 -32.445 142.84
4.26 -32.531 141.98 -0.09139 -122.06 -0.09139 -122.06 -32.531 141.98
4.29 -32.621 141.12 -0.091942 -122.93 -0.091942 -122.93 -32.621 141.12
4.32 -32.713 140.26 -0.092494 -123.80 -0.092494 -123.80 -32.713 140.26
4.35 -32.808 139.40 -0.093046 -124.67 -0.093046 -124.67 -32.808 139.40
4.38 -32.906 138.54 -0.093598 -125.54 -0.093598 -125.54 -32.906 138.54
4.41 -33.007 137.68 -0.094149 -126.41 -0.094149 -126.41 -33.007 137.68
4.44 -33.111 136.82 -0.094701 -127.28 -0.094701 -127.28 -33.111 136.82
4.47 -33.219 135.96 -0.095253 -128.15 -0.095253 -128.15 -33.219 135.96
4.5 -33.329 135.10 -0.095804 -129.02 -0.095804 -129.02 -33.329 135.10
4.53 -33.443 134.24 -0.096356 -129.89 -0.096356 -129.89 -33.443 134.24
4.56 -33.56 133.38 -0.096908 -130.76 -0.096908 -130.76 -33.56 133.38
4.59 -33.681 132.52 -0.097461 -131.63 -0.097461 -131.63 -33.681 132.52
4.62 -33.806 131.67 -0.098013 -132.50 -0.098013 -132.50 -33.806 131.67
4.65 -33.934 130.81 -0.098566 -133.38 -0.098566 -133.38 -33.934 130.81
4.68 -34.066 129.95 -0.099119 -134.25 -0.099119 -134.25 -34.066 129.95
4.71 -34.201 129.10 -0.099673 -135.12 -0.099673 -135.12 -34.201 129.10
4.74 -34.341 128.24 -0.10023 -135.99 -0.10023 -135.99 -34.341 128.24
4.77 -34.485 127.39 -0.10078 -136.87 -0.10078 -136.87 -34.485 127.39
4.8 -34.634 126.54 -0.10134 -137.74 -0.10134 -137.74 -34.634 126.54
4.83 -34.786 125.68 -0.10189 -138.61 -0.10189 -138.61 -34.786 125.68
4.86 -34.944 124.83 -0.10245 -139.49 -0.10245 -139.49 -34.944 124.83
4.89 -35.106 123.98 -0.10301 -140.36 -0.10301 -140.36 -35.106 123.98
4.92 -35.273 123.13 -0.10356 -141.23 -0.10356 -141.23 -35.273 123.13
4.95 -35.446 122.28 -0.10412 -142.11 -0.10412 -142.11 -35.446 122.28
4.98 -35.623 121.44 -0.10468 -142.98 -0.10468 -142.98 -35.623 121.44
5.01 -35.807 120.59 -0.10524 -143.85 -0.10524 -143.85 -35.807 120.59
5.04 -35.996 119.75 -0.1058 -144.73 -0.1058 -144.73 -35.996 119.75
5.07 -36.191 118.90 -0.10637 -145.60 -0.10637 -145.60 -36.191 118.90
5.1 -36.393 118.06 -0.10693 -146.48 -0.10693 -146.48 -36.393 118.06
5.13 -36.601 117.22 -0.10749 -147.35 -0.10749 -147.35 -36.601 117.22
5.16 -36.816 116.39 -0.10806 -148.23 -0.10806 -148.23 -36.816 116.39
5.19 -37.039 115.55 -0.10862 -149.10 -0.10862 -149.10 -37.039 115.55
5.22 -37.269 114.72 -0.10919 -149.98 -0.10919 -149.98 -37.269 114.72
5.25 -37.507 113.89 -0.10976 -150.86 -0.10976 -150.86 -37.507 113.89
5.28 -37.754 113.06 -0.11033 -151.73 -0.11033 -151.73 -37.754 113.06
5.31 -38.01 112.24 -0.1109 -152.61 -0.1109 -152.61 -38.01 112.24
5.34 -38.276 111.42 -0.11147 -153.48 -0.11147 -153.48 -38.276 111.42
5.37 -38.552 110.60 -0.11204 -154.36 -0.11204 -154.36 -38.552 110.60
5.4 -38.839 109.79 -0.11262 -155.24 -0.11262 -155.24 -38.839 109.79
5.43 -39.137 108.99 -0.11319 -156.11 -0.11319 -156.11 -39.137 108.99
5.46 -39.448 108.18 -0.11377 -156.99 -0.11377 -156.99 -39.448 108.18
5.49 -39.772 107.39 -0.11435 -157.87 -0.11435 -157.87 -39.772 107.39
5.52 -40.11 106.60 -0.11493 -158.75 -0.11493 -158.75 -40.11 106.60
5.55 -40.464 105.82 -0.11551 -159.62 -0.11551 -159.62 -40.464 105.82
5.58 -40.835 105.05 -0.11609 -160.50 -0.11609 -160.50 -40.835 105.05
5.61 -41.224 104.29 -0.11668 -161.38 -0.11668 -161.38 -41.224 104.29
5.64 -41.634 103.53 -0.11726 -162.26 -0.11726 -162.26 -41.634 103.53
5.67 -42.065 102.80 -0.11785 -163.14 -0.11785 -163.14 -42.065 102.80
5.7 -42.52 102.08 -0.11844 -164.02 -0.11844 -164.02 -42.52 102.08
5.73 -43.002 101.37 -0.11903 -164.90 -0.11903 -164.90 -43.002 101.37
5.76 -43.514 100.69 -0.11962 -165.77 -0.11962 -165.77 -43.514 100.69
5.79 -44.06 100.04 -0.12021 -166.65 -0.12021 -166.65 -44.06 100.04
5.82 -44.644 99.41 -0.1208 -167.53 -0.1208 -167.53 -44.644 99.41
5.85 -45.272 98.83 -0.1214 -168.41 -0.1214 -168.41 -45.272 98.83
5.88 -45.949 98.29 -0.122 -169.29 -0.122 -169.29 -45.949 98.29
5.91 -46.686 97.82 -0.1226 -170.17 -0.1226 -170.17 -46.686 97.82
5.94 -47.491 97.42 -0.1232 -171.05 -0.1232 -171.05 -47.491 97.42
5.97 -48.38 97.13 -0.1238 -171.93 -0.1238 -171.93 -48.38 97.13
6 -49.371 96.98 -0.1244 -172.81 -0.1244 -172.81 -49.371 96.98
