! yapnr Order 0 O0-W: O0-W B04 W dL34 (line, family W)
! stackup OSHPARK-4L-FR408HR, nominal parameters; geometry of the OSHPARK-4L-FR408HR design
! model: 2D quasi-static RLGC (Djordjevic-Sarkar, Huray roughness, Wheeler loss); generated by python -m yapnr.rf.coupons expected --stackup OSHPARK-4L-FR408HR --upload W
! reference planes 10 mm from each end; 50 ohm (from the W line's Zc)
# GHz S DB R 50
0.03 -57.874 -88.28 -0.0033077 -2.10 -0.0033077 -2.10 -57.874 -88.28
0.06 -51.883 -93.39 -0.0054568 -4.19 -0.0054568 -4.19 -51.883 -93.39
0.09 -48.437 -96.80 -0.0074389 -6.28 -0.0074389 -6.28 -48.437 -96.80
0.12 -46.019 -99.68 -0.0093411 -8.36 -0.0093411 -8.36 -46.019 -99.68
0.15 -44.163 -102.30 -0.011196 -10.44 -0.011196 -10.44 -44.163 -102.30
0.18 -42.66 -104.79 -0.013022 -12.52 -0.013022 -12.52 -42.66 -104.79
0.21 -41.4 -107.19 -0.014826 -14.59 -0.014826 -14.59 -41.4 -107.19
0.24 -40.32 -109.53 -0.016615 -16.67 -0.016615 -16.67 -40.32 -109.53
0.27 -39.377 -111.83 -0.018393 -18.75 -0.018393 -18.75 -39.377 -111.83
0.3 -38.543 -114.09 -0.020163 -20.82 -0.020163 -20.82 -38.543 -114.09
0.33 -37.797 -116.33 -0.021925 -22.90 -0.021925 -22.90 -37.797 -116.33
0.36 -37.125 -118.55 -0.023681 -24.98 -0.023681 -24.98 -37.125 -118.55
0.39 -36.515 -120.75 -0.025432 -27.05 -0.025432 -27.05 -36.515 -120.75
0.42 -35.959 -122.94 -0.027178 -29.12 -0.027178 -29.12 -35.959 -122.94
0.45 -35.449 -125.11 -0.02892 -31.20 -0.02892 -31.20 -35.449 -125.11
0.48 -34.981 -127.28 -0.030656 -33.27 -0.030656 -33.27 -34.981 -127.28
0.51 -34.549 -129.44 -0.032387 -35.35 -0.032387 -35.35 -34.549 -129.44
0.54 -34.151 -131.59 -0.034114 -37.42 -0.034114 -37.42 -34.151 -131.59
0.57 -33.782 -133.74 -0.035834 -39.49 -0.035834 -39.49 -33.782 -133.74
0.6 -33.44 -135.88 -0.037549 -41.57 -0.037549 -41.57 -33.44 -135.88
0.63 -33.124 -138.01 -0.039258 -43.64 -0.039258 -43.64 -33.124 -138.01
0.66 -32.83 -140.14 -0.040959 -45.71 -0.040959 -45.71 -32.83 -140.14
0.69 -32.558 -142.27 -0.042653 -47.79 -0.042653 -47.79 -32.558 -142.27
0.72 -32.306 -144.39 -0.04434 -49.86 -0.04434 -49.86 -32.306 -144.39
0.75 -32.073 -146.51 -0.046018 -51.93 -0.046018 -51.93 -32.073 -146.51
0.78 -31.858 -148.63 -0.047688 -54.01 -0.047688 -54.01 -31.858 -148.63
0.81 -31.659 -150.75 -0.049348 -56.08 -0.049348 -56.08 -31.659 -150.75
0.84 -31.476 -152.86 -0.050998 -58.15 -0.050998 -58.15 -31.476 -152.86
0.87 -31.309 -154.97 -0.052639 -60.23 -0.052639 -60.23 -31.309 -154.97
0.9 -31.156 -157.07 -0.054269 -62.30 -0.054269 -62.30 -31.156 -157.07
0.93 -31.017 -159.18 -0.055888 -64.37 -0.055888 -64.37 -31.017 -159.18
0.96 -30.892 -161.28 -0.057496 -66.45 -0.057496 -66.45 -30.892 -161.28
0.99 -30.78 -163.38 -0.059093 -68.52 -0.059093 -68.52 -30.78 -163.38
1.02 -30.68 -165.48 -0.060677 -70.60 -0.060677 -70.60 -30.68 -165.48
1.05 -30.593 -167.58 -0.06225 -72.67 -0.06225 -72.67 -30.593 -167.58
1.08 -30.519 -169.68 -0.063811 -74.74 -0.063811 -74.74 -30.519 -169.68
1.11 -30.456 -171.77 -0.06536 -76.82 -0.06536 -76.82 -30.456 -171.77
1.14 -30.404 -173.86 -0.066896 -78.89 -0.066896 -78.89 -30.404 -173.86
1.17 -30.365 -175.96 -0.068421 -80.97 -0.068421 -80.97 -30.365 -175.96
1.2 -30.336 -178.05 -0.069933 -83.04 -0.069933 -83.04 -30.336 -178.05
1.23 -30.319 179.86 -0.071433 -85.12 -0.071433 -85.12 -30.319 179.86
1.26 -30.313 177.77 -0.072921 -87.19 -0.072921 -87.19 -30.313 177.77
1.29 -30.318 175.69 -0.074397 -89.27 -0.074397 -89.27 -30.318 175.69
1.32 -30.335 173.60 -0.075862 -91.34 -0.075862 -91.34 -30.335 173.60
1.35 -30.362 171.52 -0.077316 -93.42 -0.077316 -93.42 -30.362 171.52
1.38 -30.401 169.43 -0.078759 -95.50 -0.078759 -95.50 -30.401 169.43
1.41 -30.451 167.35 -0.080191 -97.57 -0.080191 -97.57 -30.451 167.35
1.44 -30.513 165.27 -0.081613 -99.65 -0.081613 -99.65 -30.513 165.27
1.47 -30.586 163.19 -0.083026 -101.73 -0.083026 -101.73 -30.586 163.19
1.5 -30.671 161.11 -0.084429 -103.80 -0.084429 -103.80 -30.671 161.11
1.53 -30.767 159.04 -0.085824 -105.88 -0.085824 -105.88 -30.767 159.04
1.56 -30.876 156.96 -0.087212 -107.96 -0.087212 -107.96 -30.876 156.96
1.59 -30.997 154.89 -0.088591 -110.04 -0.088591 -110.04 -30.997 154.89
1.62 -31.132 152.82 -0.089965 -112.12 -0.089965 -112.12 -31.132 152.82
1.65 -31.279 150.74 -0.091332 -114.20 -0.091332 -114.20 -31.279 150.74
1.68 -31.44 148.68 -0.092694 -116.28 -0.092694 -116.28 -31.44 148.68
1.71 -31.615 146.61 -0.094051 -118.36 -0.094051 -118.36 -31.615 146.61
1.74 -31.804 144.54 -0.095404 -120.44 -0.095404 -120.44 -31.804 144.54
1.77 -32.009 142.48 -0.096755 -122.52 -0.096755 -122.52 -32.009 142.48
1.8 -32.23 140.42 -0.098103 -124.60 -0.098103 -124.60 -32.23 140.42
1.83 -32.468 138.36 -0.099449 -126.68 -0.099449 -126.68 -32.468 138.36
1.86 -32.724 136.31 -0.10079 -128.76 -0.10079 -128.76 -32.724 136.31
1.89 -32.998 134.26 -0.10214 -130.84 -0.10214 -130.84 -32.998 134.26
1.92 -33.292 132.21 -0.10349 -132.92 -0.10349 -132.92 -33.292 132.21
1.95 -33.608 130.17 -0.10483 -135.01 -0.10483 -135.01 -33.608 130.17
1.98 -33.946 128.13 -0.10618 -137.09 -0.10618 -137.09 -33.946 128.13
2.01 -34.309 126.10 -0.10754 -139.17 -0.10754 -139.17 -34.309 126.10
2.04 -34.699 124.07 -0.10889 -141.26 -0.10889 -141.26 -34.699 124.07
2.07 -35.118 122.06 -0.11025 -143.34 -0.11025 -143.34 -35.118 122.06
2.1 -35.57 120.05 -0.11162 -145.43 -0.11162 -145.43 -35.57 120.05
2.13 -36.057 118.05 -0.11299 -147.51 -0.11299 -147.51 -36.057 118.05
2.16 -36.584 116.06 -0.11436 -149.60 -0.11436 -149.60 -36.584 116.06
2.19 -37.156 114.10 -0.11575 -151.68 -0.11575 -151.68 -37.156 114.10
2.22 -37.779 112.15 -0.11714 -153.77 -0.11714 -153.77 -37.779 112.15
2.25 -38.461 110.22 -0.11853 -155.86 -0.11853 -155.86 -38.461 110.22
2.28 -39.212 108.33 -0.11994 -157.94 -0.11994 -157.94 -39.212 108.33
2.31 -40.045 106.48 -0.12135 -160.03 -0.12135 -160.03 -40.045 106.48
2.34 -40.977 104.69 -0.12277 -162.12 -0.12277 -162.12 -40.977 104.69
2.37 -42.031 102.97 -0.1242 -164.20 -0.1242 -164.20 -42.031 102.97
2.4 -43.24 101.37 -0.12564 -166.29 -0.12564 -166.29 -43.24 101.37
2.43 -44.655 99.95 -0.12709 -168.38 -0.12709 -168.38 -44.655 99.95
2.46 -46.355 98.81 -0.12855 -170.47 -0.12855 -170.47 -46.355 98.81
2.49 -48.475 98.21 -0.13002 -172.56 -0.13002 -172.56 -48.475 98.21
2.52 -51.281 98.75 -0.1315 -174.65 -0.1315 -174.65 -51.281 98.75
2.55 -55.393 102.51 -0.13298 -176.74 -0.13298 -176.74 -55.393 102.51
2.58 -62.63 122.52 -0.13448 -178.83 -0.13448 -178.83 -62.63 122.52
2.61 -63.798 -141.00 -0.13599 179.08 -0.13599 179.08 -63.798 -141.00
2.64 -56.037 -115.58 -0.1375 176.99 -0.1375 176.99 -56.037 -115.58
2.67 -51.712 -111.10 -0.13902 174.90 -0.13902 174.90 -51.712 -111.10
2.7 -48.814 -110.35 -0.14055 172.81 -0.14055 172.81 -48.814 -110.35
2.73 -46.648 -110.86 -0.14209 170.71 -0.14209 170.71 -46.648 -110.86
2.76 -44.925 -111.95 -0.14364 168.62 -0.14364 168.62 -44.925 -111.95
2.79 -43.498 -113.34 -0.1452 166.53 -0.1452 166.53 -43.498 -113.34
2.82 -42.285 -114.93 -0.14676 164.44 -0.14676 164.44 -42.285 -114.93
2.85 -41.231 -116.63 -0.14833 162.34 -0.14833 162.34 -41.231 -116.63
2.88 -40.304 -118.41 -0.1499 160.25 -0.1499 160.25 -40.304 -118.41
2.91 -39.477 -120.26 -0.15148 158.15 -0.15148 158.15 -39.477 -120.26
2.94 -38.734 -122.14 -0.15306 156.06 -0.15306 156.06 -38.734 -122.14
2.97 -38.062 -124.06 -0.15465 153.97 -0.15465 153.97 -38.062 -124.06
3 -37.449 -126.01 -0.15624 151.87 -0.15624 151.87 -37.449 -126.01
3.03 -36.889 -127.97 -0.15784 149.78 -0.15784 149.78 -36.889 -127.97
3.06 -36.374 -129.95 -0.15943 147.68 -0.15943 147.68 -36.374 -129.95
3.09 -35.9 -131.95 -0.16103 145.58 -0.16103 145.58 -35.9 -131.95
3.12 -35.462 -133.95 -0.16263 143.49 -0.16263 143.49 -35.462 -133.95
3.15 -35.056 -135.97 -0.16423 141.39 -0.16423 141.39 -35.056 -135.97
3.18 -34.681 -137.99 -0.16583 139.29 -0.16583 139.29 -34.681 -137.99
3.21 -34.332 -140.02 -0.16743 137.20 -0.16743 137.20 -34.332 -140.02
3.24 -34.009 -142.05 -0.16902 135.10 -0.16902 135.10 -34.009 -142.05
3.27 -33.709 -144.09 -0.17062 133.00 -0.17062 133.00 -33.709 -144.09
3.3 -33.431 -146.13 -0.17221 130.90 -0.17221 130.90 -33.431 -146.13
3.33 -33.173 -148.18 -0.17379 128.81 -0.17379 128.81 -33.173 -148.18
3.36 -32.934 -150.23 -0.17538 126.71 -0.17538 126.71 -32.934 -150.23
3.39 -32.713 -152.28 -0.17695 124.61 -0.17695 124.61 -32.713 -152.28
3.42 -32.51 -154.33 -0.17853 122.51 -0.17853 122.51 -32.51 -154.33
3.45 -32.322 -156.39 -0.18009 120.41 -0.18009 120.41 -32.322 -156.39
3.48 -32.151 -158.45 -0.18165 118.31 -0.18165 118.31 -32.151 -158.45
3.51 -31.994 -160.51 -0.1832 116.21 -0.1832 116.21 -31.994 -160.51
3.54 -31.851 -162.57 -0.18475 114.11 -0.18475 114.11 -31.851 -162.57
3.57 -31.723 -164.63 -0.18628 112.00 -0.18628 112.00 -31.723 -164.63
3.6 -31.608 -166.69 -0.18781 109.90 -0.18781 109.90 -31.608 -166.69
3.63 -31.506 -168.76 -0.18933 107.80 -0.18933 107.80 -31.506 -168.76
3.66 -31.417 -170.82 -0.19084 105.70 -0.19084 105.70 -31.417 -170.82
3.69 -31.341 -172.89 -0.19235 103.60 -0.19235 103.60 -31.341 -172.89
3.72 -31.277 -174.95 -0.19384 101.49 -0.19384 101.49 -31.277 -174.95
3.75 -31.225 -177.02 -0.19532 99.39 -0.19532 99.39 -31.225 -177.02
3.78 -31.185 -179.09 -0.1968 97.28 -0.1968 97.28 -31.185 -179.09
3.81 -31.157 178.85 -0.19827 95.18 -0.19827 95.18 -31.157 178.85
3.84 -31.141 176.78 -0.19972 93.07 -0.19972 93.07 -31.141 176.78
3.87 -31.137 174.72 -0.20117 90.97 -0.20117 90.97 -31.137 174.72
3.9 -31.144 172.65 -0.20261 88.86 -0.20261 88.86 -31.144 172.65
3.93 -31.163 170.59 -0.20404 86.76 -0.20404 86.76 -31.163 170.59
3.96 -31.193 168.52 -0.20546 84.65 -0.20546 84.65 -31.193 168.52
3.99 -31.236 166.46 -0.20687 82.54 -0.20687 82.54 -31.236 166.46
4.02 -31.29 164.39 -0.20828 80.44 -0.20828 80.44 -31.29 164.39
4.05 -31.357 162.33 -0.20968 78.33 -0.20968 78.33 -31.357 162.33
4.08 -31.435 160.27 -0.21107 76.22 -0.21107 76.22 -31.435 160.27
4.11 -31.526 158.21 -0.21245 74.11 -0.21245 74.11 -31.526 158.21
4.14 -31.63 156.15 -0.21383 72.00 -0.21383 72.00 -31.63 156.15
4.17 -31.747 154.10 -0.2152 69.89 -0.2152 69.89 -31.747 154.10
4.2 -31.877 152.04 -0.21657 67.78 -0.21657 67.78 -31.877 152.04
4.23 -32.021 149.99 -0.21793 65.67 -0.21793 65.67 -32.021 149.99
4.26 -32.179 147.94 -0.21929 63.56 -0.21929 63.56 -32.179 147.94
4.29 -32.352 145.89 -0.22064 61.45 -0.22064 61.45 -32.352 145.89
4.32 -32.54 143.85 -0.22199 59.33 -0.22199 59.33 -32.54 143.85
4.35 -32.744 141.81 -0.22334 57.22 -0.22334 57.22 -32.744 141.81
4.38 -32.965 139.77 -0.22469 55.11 -0.22469 55.11 -32.965 139.77
4.41 -33.203 137.74 -0.22604 52.99 -0.22604 52.99 -33.203 137.74
4.44 -33.46 135.72 -0.22738 50.88 -0.22738 50.88 -33.46 135.72
4.47 -33.736 133.70 -0.22873 48.76 -0.22873 48.76 -33.736 133.70
4.5 -34.034 131.69 -0.23008 46.65 -0.23008 46.65 -34.034 131.69
4.53 -34.354 129.68 -0.23143 44.53 -0.23143 44.53 -34.354 129.68
4.56 -34.698 127.69 -0.23278 42.42 -0.23278 42.42 -34.698 127.69
4.59 -35.068 125.71 -0.23414 40.30 -0.23414 40.30 -35.068 125.71
4.62 -35.466 123.74 -0.2355 38.18 -0.2355 38.18 -35.466 123.74
4.65 -35.895 121.78 -0.23686 36.07 -0.23686 36.07 -35.895 121.78
4.68 -36.359 119.85 -0.23823 33.95 -0.23823 33.95 -36.359 119.85
4.71 -36.86 117.93 -0.2396 31.83 -0.2396 31.83 -36.86 117.93
4.74 -37.404 116.05 -0.24098 29.71 -0.24098 29.71 -37.404 116.05
4.77 -37.996 114.19 -0.24236 27.59 -0.24236 27.59 -37.996 114.19
4.8 -38.644 112.38 -0.24376 25.47 -0.24376 25.47 -38.644 112.38
4.83 -39.355 110.63 -0.24516 23.35 -0.24516 23.35 -39.355 110.63
4.86 -40.141 108.94 -0.24656 21.23 -0.24656 21.23 -40.141 108.94
4.89 -41.017 107.34 -0.24798 19.11 -0.24798 19.11 -41.017 107.34
4.92 -42.003 105.87 -0.2494 16.98 -0.2494 16.98 -42.003 105.87
4.95 -43.125 104.58 -0.25083 14.86 -0.25083 14.86 -43.125 104.58
4.98 -44.424 103.57 -0.25227 12.74 -0.25227 12.74 -44.424 103.57
5.01 -45.959 102.97 -0.25372 10.61 -0.25372 10.61 -45.959 102.97
5.04 -47.825 103.12 -0.25517 8.49 -0.25517 8.49 -47.825 103.12
5.07 -50.189 104.69 -0.25664 6.37 -0.25664 6.37 -50.189 104.69
5.1 -53.36 109.56 -0.25811 4.24 -0.25811 4.24 -53.36 109.56
5.13 -57.861 124.56 -0.25959 2.12 -0.25959 2.12 -57.861 124.56
5.16 -61.84 173.80 -0.26109 -0.01 -0.26109 -0.01 -61.84 173.80
5.19 -57.782 -137.68 -0.26259 -2.14 -0.26259 -2.14 -57.782 -137.68
5.22 -53.316 -122.98 -0.26409 -4.26 -0.26409 -4.26 -53.316 -122.98
5.25 -50.171 -118.20 -0.26561 -6.39 -0.26561 -6.39 -50.171 -118.20
5.28 -47.827 -116.66 -0.26713 -8.52 -0.26713 -8.52 -47.827 -116.66
5.31 -45.977 -116.54 -0.26866 -10.65 -0.26866 -10.65 -45.977 -116.54
5.34 -44.457 -117.14 -0.2702 -12.77 -0.2702 -12.77 -44.457 -117.14
5.37 -43.171 -118.17 -0.27175 -14.90 -0.27175 -14.90 -43.171 -118.17
5.4 -42.06 -119.46 -0.2733 -17.03 -0.2733 -17.03 -42.06 -119.46
5.43 -41.086 -120.93 -0.27485 -19.16 -0.27485 -19.16 -41.086 -120.93
5.46 -40.221 -122.53 -0.27641 -21.29 -0.27641 -21.29 -40.221 -122.53
5.49 -39.446 -124.23 -0.27798 -23.42 -0.27798 -23.42 -39.446 -124.23
5.52 -38.745 -125.99 -0.27955 -25.55 -0.27955 -25.55 -38.745 -125.99
5.55 -38.109 -127.81 -0.28112 -27.68 -0.28112 -27.68 -38.109 -127.81
5.58 -37.527 -129.66 -0.2827 -29.82 -0.2827 -29.82 -37.527 -129.66
5.61 -36.994 -131.55 -0.28428 -31.95 -0.28428 -31.95 -36.994 -131.55
5.64 -36.503 -133.47 -0.28586 -34.08 -0.28586 -34.08 -36.503 -133.47
5.67 -36.05 -135.41 -0.28744 -36.21 -0.28744 -36.21 -36.05 -135.41
5.7 -35.631 -137.37 -0.28902 -38.35 -0.28902 -38.35 -35.631 -137.37
5.73 -35.244 -139.35 -0.29061 -40.48 -0.29061 -40.48 -35.244 -139.35
5.76 -34.885 -141.34 -0.29219 -42.62 -0.29219 -42.62 -34.885 -141.34
5.79 -34.552 -143.34 -0.29377 -44.75 -0.29377 -44.75 -34.552 -143.34
5.82 -34.243 -145.35 -0.29534 -46.88 -0.29534 -46.88 -34.243 -145.35
5.85 -33.957 -147.37 -0.29692 -49.02 -0.29692 -49.02 -33.957 -147.37
5.88 -33.691 -149.39 -0.29849 -51.16 -0.29849 -51.16 -33.691 -149.39
5.91 -33.446 -151.43 -0.30006 -53.29 -0.30006 -53.29 -33.446 -151.43
5.94 -33.219 -153.46 -0.30162 -55.43 -0.30162 -55.43 -33.219 -153.46
5.97 -33.01 -155.51 -0.30318 -57.57 -0.30318 -57.57 -33.01 -155.51
6 -32.818 -157.55 -0.30473 -59.70 -0.30473 -59.70 -32.818 -157.55
