! yapnr Order 0 O0-M: O0-M A02 M dL4.5 (line, family M)
! stackup OSHPARK-4L-EM528, nominal parameters; geometry of the OSHPARK-4L-FR408HR design
! model: 2D quasi-static RLGC (Djordjevic-Sarkar, Huray roughness, Wheeler loss); generated by python -m yapnr.rf.coupons expected --stackup OSHPARK-4L-FR408HR --upload M
! reference planes 10 mm from each end; 50 ohm (from the M line's Zc)
# GHz S DB R 50
0.03 -75.036 6.59 -0.0017097 -0.28 -0.0017097 -0.28 -75.036 6.59
0.06 -72.114 -12.21 -0.0024739 -0.56 -0.0024739 -0.56 -72.114 -12.21
0.09 -69.816 -25.55 -0.0030963 -0.84 -0.0030963 -0.84 -69.816 -25.55
0.12 -67.853 -35.11 -0.003646 -1.11 -0.003646 -1.11 -67.853 -35.11
0.15 -66.158 -42.17 -0.0041499 -1.38 -0.0041499 -1.38 -66.158 -42.17
0.18 -64.681 -47.57 -0.0046217 -1.66 -0.0046217 -1.66 -64.681 -47.57
0.21 -63.382 -51.83 -0.0050695 -1.93 -0.0050695 -1.93 -63.382 -51.83
0.24 -62.229 -55.29 -0.0054985 -2.21 -0.0054985 -2.21 -62.229 -55.29
0.27 -61.194 -58.17 -0.0059123 -2.48 -0.0059123 -2.48 -61.194 -58.17
0.3 -60.259 -60.62 -0.0063137 -2.75 -0.0063137 -2.75 -60.259 -60.62
0.33 -59.407 -62.73 -0.0067044 -3.03 -0.0067044 -3.03 -59.407 -62.73
0.36 -58.625 -64.59 -0.0070861 -3.30 -0.0070861 -3.30 -58.625 -64.59
0.39 -57.903 -66.23 -0.0074599 -3.57 -0.0074599 -3.57 -57.903 -66.23
0.42 -57.234 -67.71 -0.0078268 -3.85 -0.0078268 -3.85 -57.234 -67.71
0.45 -56.61 -69.05 -0.0081875 -4.12 -0.0081875 -4.12 -56.61 -69.05
0.48 -56.026 -70.27 -0.0085428 -4.39 -0.0085428 -4.39 -56.026 -70.27
0.51 -55.478 -71.40 -0.0088931 -4.67 -0.0088931 -4.67 -55.478 -71.40
0.54 -54.961 -72.45 -0.009239 -4.94 -0.009239 -4.94 -54.961 -72.45
0.57 -54.472 -73.42 -0.0095808 -5.21 -0.0095808 -5.21 -54.472 -73.42
0.6 -54.009 -74.34 -0.0099188 -5.48 -0.0099188 -5.48 -54.009 -74.34
0.63 -53.569 -75.20 -0.010253 -5.76 -0.010253 -5.76 -53.569 -75.20
0.66 -53.15 -76.02 -0.010585 -6.03 -0.010585 -6.03 -53.15 -76.02
0.69 -52.75 -76.80 -0.010913 -6.30 -0.010913 -6.30 -52.75 -76.80
0.72 -52.368 -77.54 -0.011239 -6.57 -0.011239 -6.57 -52.368 -77.54
0.75 -52.001 -78.24 -0.011563 -6.85 -0.011563 -6.85 -52.001 -78.24
0.78 -51.649 -78.92 -0.011883 -7.12 -0.011883 -7.12 -51.649 -78.92
0.81 -51.312 -79.58 -0.012202 -7.39 -0.012202 -7.39 -51.312 -79.58
0.84 -50.986 -80.21 -0.012519 -7.66 -0.012519 -7.66 -50.986 -80.21
0.87 -50.673 -80.82 -0.012833 -7.94 -0.012833 -7.94 -50.673 -80.82
0.9 -50.371 -81.41 -0.013146 -8.21 -0.013146 -8.21 -50.371 -81.41
0.93 -50.079 -81.98 -0.013457 -8.48 -0.013457 -8.48 -50.079 -81.98
0.96 -49.797 -82.54 -0.013766 -8.75 -0.013766 -8.75 -49.797 -82.54
0.99 -49.523 -83.08 -0.014074 -9.03 -0.014074 -9.03 -49.523 -83.08
1.02 -49.259 -83.61 -0.01438 -9.30 -0.01438 -9.30 -49.259 -83.61
1.05 -49.002 -84.12 -0.014684 -9.57 -0.014684 -9.57 -49.002 -84.12
1.08 -48.753 -84.63 -0.014988 -9.84 -0.014988 -9.84 -48.753 -84.63
1.11 -48.511 -85.12 -0.015289 -10.12 -0.015289 -10.12 -48.511 -85.12
1.14 -48.276 -85.60 -0.01559 -10.39 -0.01559 -10.39 -48.276 -85.60
1.17 -48.047 -86.08 -0.01589 -10.66 -0.01589 -10.66 -48.047 -86.08
1.2 -47.825 -86.55 -0.016188 -10.93 -0.016188 -10.93 -47.825 -86.55
1.23 -47.608 -87.00 -0.016485 -11.21 -0.016485 -11.21 -47.608 -87.00
1.26 -47.397 -87.45 -0.016781 -11.48 -0.016781 -11.48 -47.397 -87.45
1.29 -47.191 -87.90 -0.017076 -11.75 -0.017076 -11.75 -47.191 -87.90
1.32 -46.99 -88.34 -0.01737 -12.02 -0.01737 -12.02 -46.99 -88.34
1.35 -46.794 -88.77 -0.017664 -12.29 -0.017664 -12.29 -46.794 -88.77
1.38 -46.602 -89.19 -0.017956 -12.57 -0.017956 -12.57 -46.602 -89.19
1.41 -46.415 -89.61 -0.018247 -12.84 -0.018247 -12.84 -46.415 -89.61
1.44 -46.232 -90.03 -0.018537 -13.11 -0.018537 -13.11 -46.232 -90.03
1.47 -46.053 -90.44 -0.018827 -13.38 -0.018827 -13.38 -46.053 -90.44
1.5 -45.877 -90.84 -0.019116 -13.65 -0.019116 -13.65 -45.877 -90.84
1.53 -45.706 -91.24 -0.019404 -13.93 -0.019404 -13.93 -45.706 -91.24
1.56 -45.538 -91.64 -0.019691 -14.20 -0.019691 -14.20 -45.538 -91.64
1.59 -45.374 -92.03 -0.019978 -14.47 -0.019978 -14.47 -45.374 -92.03
1.62 -45.213 -92.42 -0.020263 -14.74 -0.020263 -14.74 -45.213 -92.42
1.65 -45.055 -92.81 -0.020548 -15.02 -0.020548 -15.02 -45.055 -92.81
1.68 -44.9 -93.19 -0.020833 -15.29 -0.020833 -15.29 -44.9 -93.19
1.71 -44.748 -93.57 -0.021116 -15.56 -0.021116 -15.56 -44.748 -93.57
1.74 -44.599 -93.95 -0.0214 -15.83 -0.0214 -15.83 -44.599 -93.95
1.77 -44.452 -94.32 -0.021682 -16.10 -0.021682 -16.10 -44.452 -94.32
1.8 -44.309 -94.69 -0.021964 -16.38 -0.021964 -16.38 -44.309 -94.69
1.83 -44.168 -95.06 -0.022245 -16.65 -0.022245 -16.65 -44.168 -95.06
1.86 -44.029 -95.42 -0.022526 -16.92 -0.022526 -16.92 -44.029 -95.42
1.89 -43.893 -95.79 -0.022806 -17.19 -0.022806 -17.19 -43.893 -95.79
1.92 -43.759 -96.15 -0.023085 -17.46 -0.023085 -17.46 -43.759 -96.15
1.95 -43.627 -96.50 -0.023364 -17.74 -0.023364 -17.74 -43.627 -96.50
1.98 -43.498 -96.86 -0.023643 -18.01 -0.023643 -18.01 -43.498 -96.86
2.01 -43.371 -97.21 -0.023921 -18.28 -0.023921 -18.28 -43.371 -97.21
2.04 -43.246 -97.57 -0.024198 -18.55 -0.024198 -18.55 -43.246 -97.57
2.07 -43.123 -97.92 -0.024475 -18.82 -0.024475 -18.82 -43.123 -97.92
2.1 -43.001 -98.27 -0.024752 -19.10 -0.024752 -19.10 -43.001 -98.27
2.13 -42.882 -98.61 -0.025028 -19.37 -0.025028 -19.37 -42.882 -98.61
2.16 -42.765 -98.96 -0.025303 -19.64 -0.025303 -19.64 -42.765 -98.96
2.19 -42.649 -99.30 -0.025578 -19.91 -0.025578 -19.91 -42.649 -99.30
2.22 -42.535 -99.64 -0.025853 -20.18 -0.025853 -20.18 -42.535 -99.64
2.25 -42.423 -99.98 -0.026127 -20.46 -0.026127 -20.46 -42.423 -99.98
2.28 -42.312 -100.32 -0.026401 -20.73 -0.026401 -20.73 -42.312 -100.32
2.31 -42.204 -100.66 -0.026674 -21.00 -0.026674 -21.00 -42.204 -100.66
2.34 -42.096 -101.00 -0.026947 -21.27 -0.026947 -21.27 -42.096 -101.00
2.37 -41.99 -101.33 -0.027219 -21.54 -0.027219 -21.54 -41.99 -101.33
2.4 -41.886 -101.66 -0.027491 -21.82 -0.027491 -21.82 -41.886 -101.66
2.43 -41.783 -102.00 -0.027763 -22.09 -0.027763 -22.09 -41.783 -102.00
2.46 -41.682 -102.33 -0.028034 -22.36 -0.028034 -22.36 -41.682 -102.33
2.49 -41.582 -102.66 -0.028305 -22.63 -0.028305 -22.63 -41.582 -102.66
2.52 -41.483 -102.99 -0.028576 -22.90 -0.028576 -22.90 -41.483 -102.99
2.55 -41.386 -103.31 -0.028846 -23.18 -0.028846 -23.18 -41.386 -103.31
2.58 -41.29 -103.64 -0.029116 -23.45 -0.029116 -23.45 -41.29 -103.64
2.61 -41.195 -103.97 -0.029385 -23.72 -0.029385 -23.72 -41.195 -103.97
2.64 -41.102 -104.29 -0.029654 -23.99 -0.029654 -23.99 -41.102 -104.29
2.67 -41.01 -104.62 -0.029923 -24.26 -0.029923 -24.26 -41.01 -104.62
2.7 -40.919 -104.94 -0.030192 -24.53 -0.030192 -24.53 -40.919 -104.94
2.73 -40.829 -105.26 -0.03046 -24.81 -0.03046 -24.81 -40.829 -105.26
2.76 -40.74 -105.58 -0.030727 -25.08 -0.030727 -25.08 -40.74 -105.58
2.79 -40.652 -105.90 -0.030995 -25.35 -0.030995 -25.35 -40.652 -105.90
2.82 -40.566 -106.22 -0.031262 -25.62 -0.031262 -25.62 -40.566 -106.22
2.85 -40.48 -106.54 -0.031528 -25.89 -0.031528 -25.89 -40.48 -106.54
2.88 -40.396 -106.86 -0.031795 -26.17 -0.031795 -26.17 -40.396 -106.86
2.91 -40.313 -107.18 -0.032061 -26.44 -0.032061 -26.44 -40.313 -107.18
2.94 -40.23 -107.49 -0.032327 -26.71 -0.032327 -26.71 -40.23 -107.49
2.97 -40.149 -107.81 -0.032592 -26.98 -0.032592 -26.98 -40.149 -107.81
3 -40.069 -108.12 -0.032858 -27.25 -0.032858 -27.25 -40.069 -108.12
3.03 -39.989 -108.44 -0.033122 -27.53 -0.033122 -27.53 -39.989 -108.44
3.06 -39.911 -108.75 -0.033387 -27.80 -0.033387 -27.80 -39.911 -108.75
3.09 -39.833 -109.07 -0.033651 -28.07 -0.033651 -28.07 -39.833 -109.07
3.12 -39.756 -109.38 -0.033915 -28.34 -0.033915 -28.34 -39.756 -109.38
3.15 -39.681 -109.69 -0.034179 -28.61 -0.034179 -28.61 -39.681 -109.69
3.18 -39.606 -110.00 -0.034443 -28.88 -0.034443 -28.88 -39.606 -110.00
3.21 -39.532 -110.31 -0.034706 -29.16 -0.034706 -29.16 -39.532 -110.31
3.24 -39.458 -110.62 -0.034969 -29.43 -0.034969 -29.43 -39.458 -110.62
3.27 -39.386 -110.93 -0.035231 -29.70 -0.035231 -29.70 -39.386 -110.93
3.3 -39.314 -111.24 -0.035494 -29.97 -0.035494 -29.97 -39.314 -111.24
3.33 -39.244 -111.55 -0.035756 -30.24 -0.035756 -30.24 -39.244 -111.55
3.36 -39.174 -111.86 -0.036018 -30.52 -0.036018 -30.52 -39.174 -111.86
3.39 -39.104 -112.17 -0.036279 -30.79 -0.036279 -30.79 -39.104 -112.17
3.42 -39.036 -112.47 -0.03654 -31.06 -0.03654 -31.06 -39.036 -112.47
3.45 -38.968 -112.78 -0.036801 -31.33 -0.036801 -31.33 -38.968 -112.78
3.48 -38.901 -113.09 -0.037062 -31.60 -0.037062 -31.60 -38.901 -113.09
3.51 -38.835 -113.39 -0.037323 -31.88 -0.037323 -31.88 -38.835 -113.39
3.54 -38.769 -113.70 -0.037583 -32.15 -0.037583 -32.15 -38.769 -113.70
3.57 -38.705 -114.00 -0.037843 -32.42 -0.037843 -32.42 -38.705 -114.00
3.6 -38.64 -114.31 -0.038103 -32.69 -0.038103 -32.69 -38.64 -114.31
3.63 -38.577 -114.61 -0.038362 -32.96 -0.038362 -32.96 -38.577 -114.61
3.66 -38.514 -114.91 -0.038622 -33.23 -0.038622 -33.23 -38.514 -114.91
3.69 -38.452 -115.22 -0.038881 -33.51 -0.038881 -33.51 -38.452 -115.22
3.72 -38.391 -115.52 -0.039139 -33.78 -0.039139 -33.78 -38.391 -115.52
3.75 -38.33 -115.82 -0.039398 -34.05 -0.039398 -34.05 -38.33 -115.82
3.78 -38.269 -116.13 -0.039656 -34.32 -0.039656 -34.32 -38.269 -116.13
3.81 -38.21 -116.43 -0.039914 -34.59 -0.039914 -34.59 -38.21 -116.43
3.84 -38.151 -116.73 -0.040172 -34.87 -0.040172 -34.87 -38.151 -116.73
3.87 -38.093 -117.03 -0.04043 -35.14 -0.04043 -35.14 -38.093 -117.03
3.9 -38.035 -117.33 -0.040687 -35.41 -0.040687 -35.41 -38.035 -117.33
3.93 -37.978 -117.63 -0.040944 -35.68 -0.040944 -35.68 -37.978 -117.63
3.96 -37.921 -117.93 -0.041201 -35.95 -0.041201 -35.95 -37.921 -117.93
3.99 -37.865 -118.23 -0.041458 -36.22 -0.041458 -36.22 -37.865 -118.23
4.02 -37.81 -118.53 -0.041714 -36.50 -0.041714 -36.50 -37.81 -118.53
4.05 -37.755 -118.83 -0.041971 -36.77 -0.041971 -36.77 -37.755 -118.83
4.08 -37.7 -119.13 -0.042227 -37.04 -0.042227 -37.04 -37.7 -119.13
4.11 -37.647 -119.43 -0.042482 -37.31 -0.042482 -37.31 -37.647 -119.43
4.14 -37.593 -119.72 -0.042738 -37.58 -0.042738 -37.58 -37.593 -119.72
4.17 -37.541 -120.02 -0.042993 -37.86 -0.042993 -37.86 -37.541 -120.02
4.2 -37.488 -120.32 -0.043248 -38.13 -0.043248 -38.13 -37.488 -120.32
4.23 -37.437 -120.62 -0.043503 -38.40 -0.043503 -38.40 -37.437 -120.62
4.26 -37.386 -120.91 -0.043758 -38.67 -0.043758 -38.67 -37.386 -120.91
4.29 -37.335 -121.21 -0.044013 -38.94 -0.044013 -38.94 -37.335 -121.21
4.32 -37.285 -121.51 -0.044267 -39.21 -0.044267 -39.21 -37.285 -121.51
4.35 -37.235 -121.80 -0.044521 -39.49 -0.044521 -39.49 -37.235 -121.80
4.38 -37.186 -122.10 -0.044775 -39.76 -0.044775 -39.76 -37.186 -122.10
4.41 -37.137 -122.40 -0.045028 -40.03 -0.045028 -40.03 -37.137 -122.40
4.44 -37.089 -122.69 -0.045282 -40.30 -0.045282 -40.30 -37.089 -122.69
4.47 -37.041 -122.99 -0.045535 -40.57 -0.045535 -40.57 -37.041 -122.99
4.5 -36.994 -123.28 -0.045788 -40.85 -0.045788 -40.85 -36.994 -123.28
4.53 -36.947 -123.58 -0.046041 -41.12 -0.046041 -41.12 -36.947 -123.58
4.56 -36.901 -123.87 -0.046293 -41.39 -0.046293 -41.39 -36.901 -123.87
4.59 -36.855 -124.16 -0.046546 -41.66 -0.046546 -41.66 -36.855 -124.16
4.62 -36.809 -124.46 -0.046798 -41.93 -0.046798 -41.93 -36.809 -124.46
4.65 -36.764 -124.75 -0.04705 -42.20 -0.04705 -42.20 -36.764 -124.75
4.68 -36.72 -125.05 -0.047301 -42.48 -0.047301 -42.48 -36.72 -125.05
4.71 -36.676 -125.34 -0.047553 -42.75 -0.047553 -42.75 -36.676 -125.34
4.74 -36.632 -125.63 -0.047804 -43.02 -0.047804 -43.02 -36.632 -125.63
4.77 -36.589 -125.93 -0.048055 -43.29 -0.048055 -43.29 -36.589 -125.93
4.8 -36.546 -126.22 -0.048306 -43.56 -0.048306 -43.56 -36.546 -126.22
4.83 -36.503 -126.51 -0.048557 -43.84 -0.048557 -43.84 -36.503 -126.51
4.86 -36.461 -126.80 -0.048807 -44.11 -0.048807 -44.11 -36.461 -126.80
4.89 -36.42 -127.10 -0.049058 -44.38 -0.049058 -44.38 -36.42 -127.10
4.92 -36.378 -127.39 -0.049308 -44.65 -0.049308 -44.65 -36.378 -127.39
4.95 -36.337 -127.68 -0.049558 -44.92 -0.049558 -44.92 -36.337 -127.68
4.98 -36.297 -127.97 -0.049807 -45.20 -0.049807 -45.20 -36.297 -127.97
5.01 -36.257 -128.26 -0.050057 -45.47 -0.050057 -45.47 -36.257 -128.26
5.04 -36.217 -128.56 -0.050306 -45.74 -0.050306 -45.74 -36.217 -128.56
5.07 -36.178 -128.85 -0.050555 -46.01 -0.050555 -46.01 -36.178 -128.85
5.1 -36.139 -129.14 -0.050804 -46.28 -0.050804 -46.28 -36.139 -129.14
5.13 -36.1 -129.43 -0.051053 -46.55 -0.051053 -46.55 -36.1 -129.43
5.16 -36.062 -129.72 -0.051301 -46.83 -0.051301 -46.83 -36.062 -129.72
5.19 -36.024 -130.01 -0.051549 -47.10 -0.051549 -47.10 -36.024 -130.01
5.22 -35.987 -130.30 -0.051798 -47.37 -0.051798 -47.37 -35.987 -130.30
5.25 -35.95 -130.59 -0.052045 -47.64 -0.052045 -47.64 -35.95 -130.59
5.28 -35.913 -130.88 -0.052293 -47.91 -0.052293 -47.91 -35.913 -130.88
5.31 -35.877 -131.17 -0.052541 -48.19 -0.052541 -48.19 -35.877 -131.17
5.34 -35.841 -131.46 -0.052788 -48.46 -0.052788 -48.46 -35.841 -131.46
5.37 -35.805 -131.75 -0.053035 -48.73 -0.053035 -48.73 -35.805 -131.75
5.4 -35.77 -132.04 -0.053282 -49.00 -0.053282 -49.00 -35.77 -132.04
5.43 -35.735 -132.33 -0.053528 -49.27 -0.053528 -49.27 -35.735 -132.33
5.46 -35.7 -132.62 -0.053775 -49.54 -0.053775 -49.54 -35.7 -132.62
5.49 -35.666 -132.91 -0.054021 -49.82 -0.054021 -49.82 -35.666 -132.91
5.52 -35.632 -133.20 -0.054267 -50.09 -0.054267 -50.09 -35.632 -133.20
5.55 -35.598 -133.48 -0.054513 -50.36 -0.054513 -50.36 -35.598 -133.48
5.58 -35.565 -133.77 -0.054759 -50.63 -0.054759 -50.63 -35.565 -133.77
5.61 -35.532 -134.06 -0.055004 -50.90 -0.055004 -50.90 -35.532 -134.06
5.64 -35.5 -134.35 -0.05525 -51.18 -0.05525 -51.18 -35.5 -134.35
5.67 -35.467 -134.64 -0.055495 -51.45 -0.055495 -51.45 -35.467 -134.64
5.7 -35.435 -134.93 -0.05574 -51.72 -0.05574 -51.72 -35.435 -134.93
5.73 -35.404 -135.21 -0.055984 -51.99 -0.055984 -51.99 -35.404 -135.21
5.76 -35.372 -135.50 -0.056229 -52.26 -0.056229 -52.26 -35.372 -135.50
5.79 -35.341 -135.79 -0.056473 -52.54 -0.056473 -52.54 -35.341 -135.79
5.82 -35.311 -136.08 -0.056717 -52.81 -0.056717 -52.81 -35.311 -136.08
5.85 -35.28 -136.36 -0.056961 -53.08 -0.056961 -53.08 -35.28 -136.36
5.88 -35.25 -136.65 -0.057205 -53.35 -0.057205 -53.35 -35.25 -136.65
5.91 -35.22 -136.94 -0.057448 -53.62 -0.057448 -53.62 -35.22 -136.94
5.94 -35.191 -137.23 -0.057692 -53.89 -0.057692 -53.89 -35.191 -137.23
5.97 -35.161 -137.51 -0.057935 -54.17 -0.057935 -54.17 -35.161 -137.51
6 -35.133 -137.80 -0.058178 -54.44 -0.058178 -54.44 -35.133 -137.80
