! yapnr Order 0 O0-D: O0-D A04 M dL30 (line, family M)
! stackup OSHPARK-4L-EM528, nominal parameters; geometry of the OSHPARK-4L-FR408HR design
! model: 2D quasi-static RLGC (Djordjevic-Sarkar, Huray roughness, Wheeler loss); generated by python -m yapnr.rf.coupons expected --stackup OSHPARK-4L-FR408HR --upload D
! reference planes 10 mm from each end; 50 ohm (from the M line's Zc)
# GHz S DB R 50
0.03 -58.569 4.99 -0.011393 -1.89 -0.011393 -1.89 -58.569 4.99
0.06 -55.656 -15.38 -0.016483 -3.73 -0.016483 -3.73 -55.656 -15.38
0.09 -53.368 -30.28 -0.020632 -5.57 -0.020632 -5.57 -53.368 -30.28
0.12 -51.419 -41.39 -0.024299 -7.40 -0.024299 -7.40 -51.419 -41.39
0.15 -49.74 -50.01 -0.027665 -9.23 -0.027665 -9.23 -49.74 -50.01
0.18 -48.282 -56.95 -0.030821 -11.06 -0.030821 -11.06 -48.282 -56.95
0.21 -47.005 -62.77 -0.033822 -12.88 -0.033822 -12.88 -47.005 -62.77
0.24 -45.875 -67.78 -0.036701 -14.71 -0.036701 -14.71 -45.875 -67.78
0.27 -44.868 -72.20 -0.039485 -16.53 -0.039485 -16.53 -44.868 -72.20
0.3 -43.962 -76.19 -0.042189 -18.36 -0.042189 -18.36 -43.962 -76.19
0.33 -43.143 -79.85 -0.044827 -20.18 -0.044827 -20.18 -43.143 -79.85
0.36 -42.396 -83.25 -0.047409 -22.00 -0.047409 -22.00 -42.396 -83.25
0.39 -41.713 -86.43 -0.049942 -23.82 -0.049942 -23.82 -41.713 -86.43
0.42 -41.085 -89.45 -0.052434 -25.64 -0.052434 -25.64 -41.085 -89.45
0.45 -40.506 -92.33 -0.054889 -27.46 -0.054889 -27.46 -40.506 -92.33
0.48 -39.97 -95.10 -0.057311 -29.28 -0.057311 -29.28 -39.97 -95.10
0.51 -39.471 -97.77 -0.059703 -31.10 -0.059703 -31.10 -39.471 -97.77
0.54 -39.008 -100.35 -0.06207 -32.92 -0.06207 -32.92 -39.008 -100.35
0.57 -38.576 -102.87 -0.064412 -34.74 -0.064412 -34.74 -38.576 -102.87
0.6 -38.172 -105.32 -0.066732 -36.56 -0.066732 -36.56 -38.172 -105.32
0.63 -37.794 -107.72 -0.069032 -38.38 -0.069032 -38.38 -37.794 -107.72
0.66 -37.441 -110.07 -0.071313 -40.19 -0.071313 -40.19 -37.441 -110.07
0.69 -37.109 -112.39 -0.073577 -42.01 -0.073577 -42.01 -37.109 -112.39
0.72 -36.799 -114.66 -0.075824 -43.83 -0.075824 -43.83 -36.799 -114.66
0.75 -36.507 -116.90 -0.078056 -45.65 -0.078056 -45.65 -36.507 -116.90
0.78 -36.234 -119.12 -0.080273 -47.46 -0.080273 -47.46 -36.234 -119.12
0.81 -35.978 -121.30 -0.082476 -49.28 -0.082476 -49.28 -35.978 -121.30
0.84 -35.737 -123.47 -0.084666 -51.10 -0.084666 -51.10 -35.737 -123.47
0.87 -35.512 -125.61 -0.086842 -52.91 -0.086842 -52.91 -35.512 -125.61
0.9 -35.302 -127.73 -0.089006 -54.73 -0.089006 -54.73 -35.302 -127.73
0.93 -35.105 -129.83 -0.091158 -56.54 -0.091158 -56.54 -35.105 -129.83
0.96 -34.921 -131.92 -0.093298 -58.36 -0.093298 -58.36 -34.921 -131.92
0.99 -34.75 -133.99 -0.095426 -60.17 -0.095426 -60.17 -34.75 -133.99
1.02 -34.591 -136.05 -0.097543 -61.99 -0.097543 -61.99 -34.591 -136.05
1.05 -34.444 -138.10 -0.099648 -63.81 -0.099648 -63.81 -34.444 -138.10
1.08 -34.308 -140.13 -0.10174 -65.62 -0.10174 -65.62 -34.308 -140.13
1.11 -34.183 -142.15 -0.10383 -67.44 -0.10383 -67.44 -34.183 -142.15
1.14 -34.068 -144.16 -0.1059 -69.25 -0.1059 -69.25 -34.068 -144.16
1.17 -33.964 -146.16 -0.10796 -71.06 -0.10796 -71.06 -33.964 -146.16
1.2 -33.87 -148.16 -0.11001 -72.88 -0.11001 -72.88 -33.87 -148.16
1.23 -33.786 -150.14 -0.11205 -74.69 -0.11205 -74.69 -33.786 -150.14
1.26 -33.711 -152.11 -0.11408 -76.51 -0.11408 -76.51 -33.711 -152.11
1.29 -33.646 -154.08 -0.11609 -78.32 -0.11609 -78.32 -33.646 -154.08
1.32 -33.591 -156.04 -0.1181 -80.14 -0.1181 -80.14 -33.591 -156.04
1.35 -33.545 -157.99 -0.1201 -81.95 -0.1201 -81.95 -33.545 -157.99
1.38 -33.507 -159.94 -0.12208 -83.76 -0.12208 -83.76 -33.507 -159.94
1.41 -33.479 -161.88 -0.12406 -85.58 -0.12406 -85.58 -33.479 -161.88
1.44 -33.46 -163.82 -0.12602 -87.39 -0.12602 -87.39 -33.46 -163.82
1.47 -33.45 -165.74 -0.12798 -89.20 -0.12798 -89.20 -33.45 -165.74
1.5 -33.448 -167.67 -0.12992 -91.02 -0.12992 -91.02 -33.448 -167.67
1.53 -33.456 -169.59 -0.13186 -92.83 -0.13186 -92.83 -33.456 -169.59
1.56 -33.472 -171.50 -0.13378 -94.64 -0.13378 -94.64 -33.472 -171.50
1.59 -33.497 -173.41 -0.13569 -96.46 -0.13569 -96.46 -33.497 -173.41
1.62 -33.531 -175.31 -0.13759 -98.27 -0.13759 -98.27 -33.531 -175.31
1.65 -33.575 -177.21 -0.13949 -100.08 -0.13949 -100.08 -33.575 -177.21
1.68 -33.627 -179.10 -0.14137 -101.90 -0.14137 -101.90 -33.627 -179.10
1.71 -33.689 179.01 -0.14324 -103.71 -0.14324 -103.71 -33.689 179.01
1.74 -33.759 177.13 -0.14511 -105.52 -0.14511 -105.52 -33.759 177.13
1.77 -33.84 175.24 -0.14696 -107.34 -0.14696 -107.34 -33.84 175.24
1.8 -33.93 173.37 -0.14881 -109.15 -0.14881 -109.15 -33.93 173.37
1.83 -34.03 171.50 -0.15064 -110.96 -0.15064 -110.96 -34.03 171.50
1.86 -34.14 169.63 -0.15247 -112.77 -0.15247 -112.77 -34.14 169.63
1.89 -34.26 167.77 -0.15429 -114.59 -0.15429 -114.59 -34.26 167.77
1.92 -34.391 165.91 -0.1561 -116.40 -0.1561 -116.40 -34.391 165.91
1.95 -34.533 164.06 -0.1579 -118.21 -0.1579 -118.21 -34.533 164.06
1.98 -34.686 162.21 -0.15969 -120.02 -0.15969 -120.02 -34.686 162.21
2.01 -34.85 160.36 -0.16148 -121.84 -0.16148 -121.84 -34.85 160.36
2.04 -35.027 158.52 -0.16326 -123.65 -0.16326 -123.65 -35.027 158.52
2.07 -35.217 156.69 -0.16503 -125.46 -0.16503 -125.46 -35.217 156.69
2.1 -35.419 154.86 -0.1668 -127.28 -0.1668 -127.28 -35.419 154.86
2.13 -35.636 153.03 -0.16856 -129.09 -0.16856 -129.09 -35.636 153.03
2.16 -35.866 151.22 -0.17031 -130.90 -0.17031 -130.90 -35.866 151.22
2.19 -36.113 149.40 -0.17206 -132.71 -0.17206 -132.71 -36.113 149.40
2.22 -36.375 147.60 -0.1738 -134.53 -0.1738 -134.53 -36.375 147.60
2.25 -36.654 145.80 -0.17553 -136.34 -0.17553 -136.34 -36.654 145.80
2.28 -36.952 144.01 -0.17726 -138.15 -0.17726 -138.15 -36.952 144.01
2.31 -37.269 142.23 -0.17899 -139.96 -0.17899 -139.96 -37.269 142.23
2.34 -37.607 140.46 -0.18071 -141.78 -0.18071 -141.78 -37.607 140.46
2.37 -37.968 138.70 -0.18243 -143.59 -0.18243 -143.59 -37.968 138.70
2.4 -38.354 136.96 -0.18415 -145.40 -0.18415 -145.40 -38.354 136.96
2.43 -38.766 135.22 -0.18586 -147.21 -0.18586 -147.21 -38.766 135.22
2.46 -39.208 133.51 -0.18757 -149.03 -0.18757 -149.03 -39.208 133.51
2.49 -39.683 131.81 -0.18927 -150.84 -0.18927 -150.84 -39.683 131.81
2.52 -40.194 130.14 -0.19098 -152.65 -0.19098 -152.65 -40.194 130.14
2.55 -40.747 128.49 -0.19268 -154.46 -0.19268 -154.46 -40.747 128.49
2.58 -41.345 126.88 -0.19438 -156.28 -0.19438 -156.28 -41.345 126.88
2.61 -41.998 125.31 -0.19608 -158.09 -0.19608 -158.09 -41.998 125.31
2.64 -42.712 123.79 -0.19777 -159.90 -0.19777 -159.90 -42.712 123.79
2.67 -43.499 122.34 -0.19947 -161.71 -0.19947 -161.71 -43.499 122.34
2.7 -44.373 120.98 -0.20117 -163.53 -0.20117 -163.53 -44.373 120.98
2.73 -45.354 119.73 -0.20286 -165.34 -0.20286 -165.34 -45.354 119.73
2.76 -46.468 118.66 -0.20456 -167.15 -0.20456 -167.15 -46.468 118.66
2.79 -47.753 117.85 -0.20625 -168.96 -0.20625 -168.96 -47.753 117.85
2.82 -49.267 117.43 -0.20795 -170.78 -0.20795 -170.78 -49.267 117.43
2.85 -51.101 117.69 -0.20965 -172.59 -0.20965 -172.59 -51.101 117.69
2.88 -53.416 119.26 -0.21135 -174.40 -0.21135 -174.40 -53.416 119.26
2.91 -56.508 123.80 -0.21305 -176.21 -0.21305 -176.21 -56.508 123.80
2.94 -60.919 137.25 -0.21475 -178.03 -0.21475 -178.03 -60.919 137.25
2.97 -65.482 -176.71 -0.21645 -179.84 -0.21645 -179.84 -65.482 -176.71
3 -61.824 -123.17 -0.21815 178.35 -0.21815 178.35 -61.824 -123.17
3.03 -57.147 -106.65 -0.21985 176.54 -0.21985 176.54 -57.147 -106.65
3.06 -53.88 -101.26 -0.22156 174.72 -0.22156 174.72 -53.88 -101.26
3.09 -51.464 -99.35 -0.22327 172.91 -0.22327 172.91 -51.464 -99.35
3.12 -49.565 -98.92 -0.22497 171.10 -0.22497 171.10 -49.565 -98.92
3.15 -48.008 -99.23 -0.22669 169.29 -0.22669 169.29 -48.008 -99.23
3.18 -46.692 -99.98 -0.2284 167.47 -0.2284 167.47 -46.692 -99.98
3.21 -45.555 -101.00 -0.23011 165.66 -0.23011 165.66 -45.555 -101.00
3.24 -44.557 -102.20 -0.23183 163.85 -0.23183 163.85 -44.557 -102.20
3.27 -43.67 -103.53 -0.23354 162.04 -0.23354 162.04 -43.67 -103.53
3.3 -42.872 -104.95 -0.23526 160.22 -0.23526 160.22 -42.872 -104.95
3.33 -42.149 -106.44 -0.23698 158.41 -0.23698 158.41 -42.149 -106.44
3.36 -41.49 -107.97 -0.23871 156.60 -0.23871 156.60 -41.49 -107.97
3.39 -40.886 -109.55 -0.24043 154.79 -0.24043 154.79 -40.886 -109.55
3.42 -40.329 -111.17 -0.24215 152.97 -0.24215 152.97 -40.329 -111.17
3.45 -39.814 -112.81 -0.24388 151.16 -0.24388 151.16 -39.814 -112.81
3.48 -39.336 -114.47 -0.2456 149.35 -0.2456 149.35 -39.336 -114.47
3.51 -38.891 -116.15 -0.24733 147.54 -0.24733 147.54 -38.891 -116.15
3.54 -38.477 -117.84 -0.24906 145.73 -0.24906 145.73 -38.477 -117.84
3.57 -38.09 -119.54 -0.25079 143.91 -0.25079 143.91 -38.09 -119.54
3.6 -37.728 -121.26 -0.25252 142.10 -0.25252 142.10 -37.728 -121.26
3.63 -37.388 -122.99 -0.25424 140.29 -0.25424 140.29 -37.388 -122.99
3.66 -37.07 -124.72 -0.25597 138.48 -0.25597 138.48 -37.07 -124.72
3.69 -36.772 -126.46 -0.2577 136.66 -0.2577 136.66 -36.772 -126.46
3.72 -36.492 -128.20 -0.25943 134.85 -0.25943 134.85 -36.492 -128.20
3.75 -36.23 -129.96 -0.26115 133.04 -0.26115 133.04 -36.23 -129.96
3.78 -35.983 -131.71 -0.26288 131.23 -0.26288 131.23 -35.983 -131.71
3.81 -35.752 -133.47 -0.2646 129.42 -0.2646 129.42 -35.752 -133.47
3.84 -35.536 -135.23 -0.26632 127.60 -0.26632 127.60 -35.536 -135.23
3.87 -35.333 -136.99 -0.26804 125.79 -0.26804 125.79 -35.333 -136.99
3.9 -35.144 -138.76 -0.26976 123.98 -0.26976 123.98 -35.144 -138.76
3.93 -34.967 -140.53 -0.27148 122.17 -0.27148 122.17 -34.967 -140.53
3.96 -34.802 -142.30 -0.27319 120.36 -0.27319 120.36 -34.802 -142.30
3.99 -34.649 -144.07 -0.2749 118.54 -0.2749 118.54 -34.649 -144.07
4.02 -34.507 -145.85 -0.27661 116.73 -0.27661 116.73 -34.507 -145.85
4.05 -34.376 -147.62 -0.27831 114.92 -0.27831 114.92 -34.376 -147.62
4.08 -34.256 -149.40 -0.28002 113.11 -0.28002 113.11 -34.256 -149.40
4.11 -34.146 -151.17 -0.28171 111.30 -0.28171 111.30 -34.146 -151.17
4.14 -34.046 -152.95 -0.28341 109.49 -0.28341 109.49 -34.046 -152.95
4.17 -33.955 -154.73 -0.2851 107.67 -0.2851 107.67 -33.955 -154.73
4.2 -33.875 -156.51 -0.28678 105.86 -0.28678 105.86 -33.875 -156.51
4.23 -33.803 -158.28 -0.28846 104.05 -0.28846 104.05 -33.803 -158.28
4.26 -33.741 -160.06 -0.29014 102.24 -0.29014 102.24 -33.741 -160.06
4.29 -33.688 -161.84 -0.29181 100.43 -0.29181 100.43 -33.688 -161.84
4.32 -33.644 -163.62 -0.29348 98.62 -0.29348 98.62 -33.644 -163.62
4.35 -33.609 -165.39 -0.29514 96.80 -0.29514 96.80 -33.609 -165.39
4.38 -33.582 -167.17 -0.29679 94.99 -0.29679 94.99 -33.582 -167.17
4.41 -33.565 -168.94 -0.29845 93.18 -0.29845 93.18 -33.565 -168.94
4.44 -33.556 -170.72 -0.30009 91.37 -0.30009 91.37 -33.556 -170.72
4.47 -33.555 -172.49 -0.30173 89.56 -0.30173 89.56 -33.555 -172.49
4.5 -33.564 -174.27 -0.30337 87.75 -0.30337 87.75 -33.564 -174.27
4.53 -33.581 -176.04 -0.305 85.93 -0.305 85.93 -33.581 -176.04
4.56 -33.607 -177.81 -0.30662 84.12 -0.30662 84.12 -33.607 -177.81
4.59 -33.641 -179.58 -0.30824 82.31 -0.30824 82.31 -33.641 -179.58
4.62 -33.685 178.65 -0.30985 80.50 -0.30985 80.50 -33.685 178.65
4.65 -33.737 176.88 -0.31146 78.69 -0.31146 78.69 -33.737 176.88
4.68 -33.798 175.12 -0.31306 76.87 -0.31306 76.87 -33.798 175.12
4.71 -33.869 173.36 -0.31466 75.06 -0.31466 75.06 -33.869 173.36
4.74 -33.949 171.60 -0.31625 73.25 -0.31625 73.25 -33.949 171.60
4.77 -34.038 169.84 -0.31784 71.44 -0.31784 71.44 -34.038 169.84
4.8 -34.137 168.08 -0.31942 69.63 -0.31942 69.63 -34.137 168.08
4.83 -34.246 166.33 -0.32099 67.82 -0.32099 67.82 -34.246 166.33
4.86 -34.364 164.58 -0.32256 66.00 -0.32256 66.00 -34.364 164.58
4.89 -34.494 162.83 -0.32413 64.19 -0.32413 64.19 -34.494 162.83
4.92 -34.634 161.09 -0.32569 62.38 -0.32569 62.38 -34.634 161.09
4.95 -34.785 159.35 -0.32725 60.57 -0.32725 60.57 -34.785 159.35
4.98 -34.947 157.61 -0.3288 58.76 -0.3288 58.76 -34.947 157.61
5.01 -35.121 155.88 -0.33035 56.94 -0.33035 56.94 -35.121 155.88
5.04 -35.308 154.15 -0.3319 55.13 -0.3319 55.13 -35.308 154.15
5.07 -35.507 152.43 -0.33344 53.32 -0.33344 53.32 -35.507 152.43
5.1 -35.72 150.72 -0.33498 51.51 -0.33498 51.51 -35.72 150.72
5.13 -35.947 149.01 -0.33651 49.70 -0.33651 49.70 -35.947 149.01
5.16 -36.189 147.31 -0.33805 47.88 -0.33805 47.88 -36.189 147.31
5.19 -36.447 145.62 -0.33958 46.07 -0.33958 46.07 -36.447 145.62
5.22 -36.721 143.94 -0.3411 44.26 -0.3411 44.26 -36.721 143.94
5.25 -37.013 142.27 -0.34263 42.45 -0.34263 42.45 -37.013 142.27
5.28 -37.324 140.61 -0.34415 40.64 -0.34415 40.64 -37.324 140.61
5.31 -37.655 138.97 -0.34567 38.82 -0.34567 38.82 -37.655 138.97
5.34 -38.008 137.34 -0.34719 37.01 -0.34719 37.01 -38.008 137.34
5.37 -38.385 135.73 -0.34871 35.20 -0.34871 35.20 -38.385 135.73
5.4 -38.788 134.14 -0.35023 33.39 -0.35023 33.39 -38.788 134.14
5.43 -39.219 132.58 -0.35174 31.57 -0.35174 31.57 -39.219 132.58
5.46 -39.682 131.04 -0.35326 29.76 -0.35326 29.76 -39.682 131.04
5.49 -40.179 129.55 -0.35478 27.95 -0.35478 27.95 -40.179 129.55
5.52 -40.715 128.09 -0.35629 26.14 -0.35629 26.14 -40.715 128.09
5.55 -41.294 126.69 -0.35781 24.32 -0.35781 24.32 -41.294 126.69
5.58 -41.924 125.35 -0.35933 22.51 -0.35933 22.51 -41.924 125.35
5.61 -42.611 124.10 -0.36085 20.70 -0.36085 20.70 -42.611 124.10
5.64 -43.365 122.94 -0.36236 18.89 -0.36236 18.89 -43.365 122.94
5.67 -44.199 121.93 -0.36388 17.07 -0.36388 17.07 -44.199 121.93
5.7 -45.128 121.09 -0.3654 15.26 -0.3654 15.26 -45.128 121.09
5.73 -46.174 120.52 -0.36693 13.45 -0.36693 13.45 -46.174 120.52
5.76 -47.367 120.31 -0.36845 11.63 -0.36845 11.63 -47.367 120.31
5.79 -48.748 120.66 -0.36998 9.82 -0.36998 9.82 -48.748 120.66
5.82 -50.38 121.91 -0.37151 8.01 -0.37151 8.01 -50.38 121.91
5.85 -52.353 124.76 -0.37304 6.20 -0.37304 6.20 -52.353 124.76
5.88 -54.791 130.71 -0.37457 4.38 -0.37457 4.38 -54.791 130.71
5.91 -57.763 143.48 -0.3761 2.57 -0.3761 2.57 -57.763 143.48
5.94 -60.509 170.80 -0.37764 0.76 -0.37764 0.76 -60.509 170.80
5.97 -60.145 -151.22 -0.37918 -1.06 -0.37918 -1.06 -60.145 -151.22
6 -57.2 -127.11 -0.38072 -2.87 -0.38072 -2.87 -57.2 -127.11
