! yapnr rf: line-osh-m-w0p70-l10-m-eq, footprint re-simulated (optimization grid)
! spec sha256 c2e0d767e8492821983a6f2e8a58ab08d845ee94355b6cca7ee6e9c1f13239da
! 2 ports renormalized to 50 ohm, e^(+jwt) convention
# GHz S RI R 50
3.000000000 -2.690979930e-01 -1.391371662e-01  4.355334451e-01 -8.299497362e-01  4.355334451e-01 -8.299497362e-01 -2.690979930e-01 -1.391371662e-01
3.025000000 -2.714421772e-01 -1.374845746e-01  4.282383327e-01 -8.332637493e-01  4.282383327e-01 -8.332637493e-01 -2.714421772e-01 -1.374845746e-01
3.050000000 -2.737556850e-01 -1.357936472e-01  4.209271915e-01 -8.365154415e-01  4.209271915e-01 -8.365154415e-01 -2.737556850e-01 -1.357936472e-01
3.075000000 -2.760381187e-01 -1.340647668e-01  4.136003905e-01 -8.397049786e-01  4.136003905e-01 -8.397049786e-01 -2.760381187e-01 -1.340647668e-01
3.100000000 -2.782885445e-01 -1.322991763e-01  4.062583853e-01 -8.428326957e-01  4.062583853e-01 -8.428326957e-01 -2.782885445e-01 -1.322991763e-01
3.125000000 -2.805067742e-01 -1.304968285e-01  3.989016189e-01 -8.458986259e-01  3.989016189e-01 -8.458986259e-01 -2.805067742e-01 -1.304968285e-01
3.150000000 -2.826919815e-01 -1.286589803e-01  3.915303957e-01 -8.489031373e-01  3.915303957e-01 -8.489031373e-01 -2.826919815e-01 -1.286589803e-01
3.175000000 -2.848438978e-01 -1.267856307e-01  3.841452602e-01 -8.518462408e-01  3.841452602e-01 -8.518462408e-01 -2.848438978e-01 -1.267856307e-01
3.200000000 -2.869619308e-01 -1.248776015e-01  3.767465503e-01 -8.547281893e-01  3.767465503e-01 -8.547281893e-01 -2.869619308e-01 -1.248776015e-01
3.225000000 -2.890456481e-01 -1.229352639e-01  3.693347618e-01 -8.575490905e-01  3.693347618e-01 -8.575490905e-01 -2.890456481e-01 -1.229352639e-01
3.250000000 -2.910945561e-01 -1.209591632e-01  3.619103510e-01 -8.603091010e-01  3.619103510e-01 -8.603091010e-01 -2.910945561e-01 -1.209591632e-01
3.275000000 -2.931081668e-01 -1.189499132e-01  3.544737097e-01 -8.630084085e-01  3.544737097e-01 -8.630084085e-01 -2.931081668e-01 -1.189499132e-01
3.300000000 -2.950859378e-01 -1.169081981e-01  3.470253015e-01 -8.656471904e-01  3.470253015e-01 -8.656471904e-01 -2.950859378e-01 -1.169081981e-01
3.325000000 -2.970274242e-01 -1.148346262e-01  3.395654787e-01 -8.682256389e-01  3.395654787e-01 -8.682256389e-01 -2.970274242e-01 -1.148346262e-01
3.350000000 -2.989320671e-01 -1.127300815e-01  3.320945952e-01 -8.707439898e-01  3.320945952e-01 -8.707439898e-01 -2.989320671e-01 -1.127300815e-01
3.375000000 -3.007994508e-01 -1.105951530e-01  3.246130117e-01 -8.732024188e-01  3.246130117e-01 -8.732024188e-01 -3.007994508e-01 -1.105951530e-01
3.400000000 -3.026291189e-01 -1.084306135e-01  3.171210168e-01 -8.756011473e-01  3.171210168e-01 -8.756011473e-01 -3.026291189e-01 -1.084306135e-01
3.425000000 -3.044206419e-01 -1.062371491e-01  3.096189522e-01 -8.779403615e-01  3.096189522e-01 -8.779403615e-01 -3.044206419e-01 -1.062371491e-01
3.450000000 -3.061736812e-01 -1.040152464e-01  3.021071603e-01 -8.802202107e-01  3.021071603e-01 -8.802202107e-01 -3.061736812e-01 -1.040152464e-01
3.475000000 -3.078878090e-01 -1.017656668e-01  2.945859433e-01 -8.824408938e-01  2.945859433e-01 -8.824408938e-01 -3.078878090e-01 -1.017656668e-01
3.500000000 -3.095627089e-01 -9.948882010e-02  2.870556979e-01 -8.846025289e-01  2.870556979e-01 -8.846025289e-01 -3.095627089e-01 -9.948882010e-02
3.525000000 -3.111979815e-01 -9.718543092e-02  2.795167459e-01 -8.867052947e-01  2.795167459e-01 -8.867052947e-01 -3.111979815e-01 -9.718543092e-02
3.550000000 -3.127932742e-01 -9.485609186e-02  2.719694250e-01 -8.887493447e-01  2.719694250e-01 -8.887493447e-01 -3.127932742e-01 -9.485609186e-02
3.575000000 -3.143482062e-01 -9.250150882e-02  2.644140840e-01 -8.907348389e-01  2.644140840e-01 -8.907348389e-01 -3.143482062e-01 -9.250150882e-02
3.600000000 -3.158624414e-01 -9.012236749e-02  2.568509605e-01 -8.926619563e-01  2.568509605e-01 -8.926619563e-01 -3.158624414e-01 -9.012236749e-02
3.625000000 -3.173355601e-01 -8.771957932e-02  2.492803862e-01 -8.945308738e-01  2.492803862e-01 -8.945308738e-01 -3.173355601e-01 -8.771957932e-02
3.650000000 -3.187673274e-01 -8.529358900e-02  2.417025848e-01 -8.963417305e-01  2.417025848e-01 -8.963417305e-01 -3.187673274e-01 -8.529358900e-02
3.675000000 -3.201572919e-01 -8.284558374e-02  2.341177783e-01 -8.980947447e-01  2.341177783e-01 -8.980947447e-01 -3.201572919e-01 -8.284558374e-02
3.700000000 -3.215052985e-01 -8.037570106e-02  2.265262975e-01 -8.997899869e-01  2.265262975e-01 -8.997899869e-01 -3.215052985e-01 -8.037570106e-02
3.725000000 -3.228109341e-01 -7.788515373e-02  2.189282770e-01 -9.014276809e-01  2.189282770e-01 -9.014276809e-01 -3.228109341e-01 -7.788515373e-02
3.750000000 -3.240740278e-01 -7.537411134e-02  2.113241098e-01 -9.030078835e-01  2.113241098e-01 -9.030078835e-01 -3.240740278e-01 -7.537411134e-02
3.775000000 -3.252942597e-01 -7.284347426e-02  2.037139997e-01 -9.045307608e-01  2.037139997e-01 -9.045307608e-01 -3.252942597e-01 -7.284347426e-02
3.800000000 -3.264713964e-01 -7.029375364e-02  1.960982472e-01 -9.059964194e-01  1.960982472e-01 -9.059964194e-01 -3.264713964e-01 -7.029375364e-02
3.825000000 -3.276051630e-01 -6.772568816e-02  1.884771555e-01 -9.074049820e-01  1.884771555e-01 -9.074049820e-01 -3.276051630e-01 -6.772568816e-02
3.850000000 -3.286953245e-01 -6.513993775e-02  1.808509247e-01 -9.087565808e-01  1.808509247e-01 -9.087565808e-01 -3.286953245e-01 -6.513993775e-02
3.875000000 -3.297416041e-01 -6.253736759e-02  1.732198434e-01 -9.100513420e-01  1.732198434e-01 -9.100513420e-01 -3.297416041e-01 -6.253736759e-02
3.900000000 -3.307438052e-01 -5.991857199e-02  1.655841003e-01 -9.112893832e-01  1.655841003e-01 -9.112893832e-01 -3.307438052e-01 -5.991857199e-02
3.925000000 -3.317016654e-01 -5.728453269e-02  1.579438917e-01 -9.124708420e-01  1.579438917e-01 -9.124708420e-01 -3.317016654e-01 -5.728453269e-02
3.950000000 -3.326150148e-01 -5.463579131e-02  1.502994441e-01 -9.135958133e-01  1.502994441e-01 -9.135958133e-01 -3.326150148e-01 -5.463579131e-02
3.975000000 -3.334836440e-01 -5.197318788e-02  1.426509239e-01 -9.146644154e-01  1.426509239e-01 -9.146644154e-01 -3.334836440e-01 -5.197318788e-02
4.000000000 -3.343073856e-01 -4.929734482e-02  1.349985617e-01 -9.156767368e-01  1.349985617e-01 -9.156767368e-01 -3.343073856e-01 -4.929734482e-02
4.025000000 -3.350860567e-01 -4.660906643e-02  1.273425282e-01 -9.166328793e-01  1.273425282e-01 -9.166328793e-01 -3.350860567e-01 -4.660906643e-02
4.050000000 -3.358195213e-01 -4.390886130e-02  1.196830856e-01 -9.175329101e-01  1.196830856e-01 -9.175329101e-01 -3.358195213e-01 -4.390886130e-02
4.075000000 -3.365076264e-01 -4.119742268e-02  1.120204648e-01 -9.183769070e-01  1.120204648e-01 -9.183769070e-01 -3.365076264e-01 -4.119742268e-02
4.100000000 -3.371502254e-01 -3.847548025e-02  1.043548672e-01 -9.191649474e-01  1.043548672e-01 -9.191649474e-01 -3.371502254e-01 -3.847548025e-02
4.125000000 -3.377471841e-01 -3.574375294e-02  9.668650328e-02 -9.198971011e-01  9.668650328e-02 -9.198971011e-01 -3.377471841e-01 -3.574375294e-02
4.150000000 -3.382983742e-01 -3.300300018e-02  8.901558989e-02 -9.205734327e-01  8.901558989e-02 -9.205734327e-01 -3.382983742e-01 -3.300300018e-02
4.175000000 -3.388036814e-01 -3.025395227e-02  8.134227142e-02 -9.211940073e-01  8.134227142e-02 -9.211940073e-01 -3.388036814e-01 -3.025395227e-02
4.200000000 -3.392629907e-01 -2.749748709e-02  7.366674961e-02 -9.217588810e-01  7.366674961e-02 -9.217588810e-01 -3.392629907e-01 -2.749748709e-02
4.225000000 -3.396762208e-01 -2.473414286e-02  6.598918262e-02 -9.222680991e-01  6.598918262e-02 -9.222680991e-01 -3.396762208e-01 -2.473414286e-02
4.250000000 -3.400432716e-01 -2.196486457e-02  5.830972929e-02 -9.227217104e-01  5.830972929e-02 -9.227217104e-01 -3.400432716e-01 -2.196486457e-02
4.275000000 -3.403640702e-01 -1.919031821e-02  5.062855680e-02 -9.231197502e-01  5.062855680e-02 -9.231197502e-01 -3.403640702e-01 -1.919031821e-02
4.300000000 -3.406385511e-01 -1.641116816e-02  4.294585679e-02 -9.234622470e-01  4.294585679e-02 -9.234622470e-01 -3.406385511e-01 -1.641116816e-02
4.325000000 -3.408666668e-01 -1.362796110e-02  3.526186022e-02 -9.237492194e-01  3.526186022e-02 -9.237492194e-01 -3.408666668e-01 -1.362796110e-02
4.350000000 -3.410483571e-01 -1.084154056e-02  2.757674805e-02 -9.239806927e-01  2.757674805e-02 -9.239806927e-01 -3.410483571e-01 -1.084154056e-02
4.375000000 -3.411835901e-01 -8.052509946e-03  1.989070292e-02 -9.241566795e-01  1.989070292e-02 -9.241566795e-01 -3.411835901e-01 -8.052509946e-03
4.400000000 -3.412723369e-01 -5.261685668e-03  1.220397961e-02 -9.242771891e-01  1.220397961e-02 -9.242771891e-01 -3.412723369e-01 -5.261685668e-03
4.425000000 -3.413145749e-01 -2.469709873e-03  4.516686793e-03 -9.243422297e-01  4.516686793e-03 -9.243422297e-01 -3.413145749e-01 -2.469709873e-03
4.450000000 -3.413103038e-01  3.224717299e-04 -3.170944323e-03 -9.243517979e-01 -3.170944323e-03 -9.243517979e-01 -3.413103038e-01  3.224717299e-04
4.475000000 -3.412595171e-01  3.114323636e-03 -1.085878184e-02 -9.243058903e-01 -1.085878184e-02 -9.243058903e-01 -3.412595171e-01  3.114323636e-03
4.500000000 -3.411622309e-01  5.904933886e-03 -1.854665698e-02 -9.242044930e-01 -1.854665698e-02 -9.242044930e-01 -3.411622309e-01  5.904933886e-03
4.525000000 -3.410184660e-01  8.693530546e-03 -2.623441848e-02 -9.240475866e-01 -2.623441848e-02 -9.240475866e-01 -3.410184660e-01  8.693530546e-03
4.550000000 -3.408282470e-01  1.147945653e-02 -3.392189801e-02 -9.238351477e-01 -3.392189801e-02 -9.238351477e-01 -3.408282470e-01  1.147945653e-02
4.575000000 -3.405916144e-01  1.426210425e-02 -4.160888898e-02 -9.235671460e-01 -4.160888898e-02 -9.235671460e-01 -3.405916144e-01  1.426210425e-02
4.600000000 -3.403086127e-01  1.704071670e-02 -4.929520961e-02 -9.232435467e-01 -4.929520961e-02 -9.232435467e-01 -3.403086127e-01  1.704071670e-02
4.625000000 -3.399793018e-01  1.981461595e-02 -5.698067042e-02 -9.228643072e-01 -5.698067042e-02 -9.228643072e-01 -3.399793018e-01  1.981461595e-02
4.650000000 -3.396037536e-01  2.258309759e-02 -6.466504520e-02 -9.224293812e-01 -6.466504520e-02 -9.224293812e-01 -3.396037536e-01  2.258309759e-02
4.675000000 -3.391820448e-01  2.534544678e-02 -7.234815524e-02 -9.219387153e-01 -7.234815524e-02 -9.219387153e-01 -3.391820448e-01  2.534544678e-02
4.700000000 -3.387142741e-01  2.810089332e-02 -8.002979884e-02 -9.213922475e-01 -8.002979884e-02 -9.213922475e-01 -3.387142741e-01  2.810089332e-02
4.725000000 -3.382005409e-01  3.084870985e-02 -8.770978161e-02 -9.207899127e-01 -8.770978161e-02 -9.207899127e-01 -3.382005409e-01  3.084870985e-02
4.750000000 -3.376409459e-01  3.358819223e-02 -9.538794255e-02 -9.201316391e-01 -9.538794255e-02 -9.201316391e-01 -3.376409459e-01  3.358819223e-02
4.775000000 -3.370356332e-01  3.631840851e-02 -1.030640851e-01 -9.194173403e-01 -1.030640851e-01 -9.194173403e-01 -3.370356332e-01  3.631840851e-02
4.800000000 -3.363846991e-01  3.903882610e-02 -1.107380340e-01 -9.186469419e-01 -1.107380340e-01 -9.186469419e-01 -3.363846991e-01  3.903882610e-02
4.825000000 -3.356882875e-01  4.174861988e-02 -1.184096018e-01 -9.178203511e-01 -1.184096018e-01 -9.178203511e-01 -3.356882875e-01  4.174861988e-02
4.850000000 -3.349465262e-01  4.444722919e-02 -1.260785615e-01 -9.169374846e-01 -1.260785615e-01 -9.169374846e-01 -3.349465262e-01  4.444722919e-02
4.875000000 -3.341595689e-01  4.713383481e-02 -1.337447231e-01 -9.159982425e-01 -1.337447231e-01 -9.159982425e-01 -3.341595689e-01  4.713383481e-02
4.900000000 -3.333275774e-01  4.980785929e-02 -1.414078392e-01 -9.150025295e-01 -1.414078392e-01 -9.150025295e-01 -3.333275774e-01  4.980785929e-02
4.925000000 -3.324507239e-01  5.246853970e-02 -1.490676694e-01 -9.139502450e-01 -1.490676694e-01 -9.139502450e-01 -3.324507239e-01  5.246853970e-02
4.950000000 -3.315291942e-01  5.511521172e-02 -1.567240170e-01 -9.128412740e-01 -1.567240170e-01 -9.128412740e-01 -3.315291942e-01  5.511521172e-02
4.975000000 -3.305632099e-01  5.774708142e-02 -1.643765831e-01 -9.116755066e-01 -1.643765831e-01 -9.116755066e-01 -3.305632099e-01  5.774708142e-02
5.000000000 -3.295529456e-01  6.036352595e-02 -1.720252221e-01 -9.104528185e-01 -1.720252221e-01 -9.104528185e-01 -3.295529456e-01  6.036352595e-02
5.025000000 -3.284986817e-01  6.296360474e-02 -1.796696400e-01 -9.091730749e-01 -1.796696400e-01 -9.091730749e-01 -3.284986817e-01  6.296360474e-02
5.050000000 -3.274005801e-01  6.554684301e-02 -1.873096611e-01 -9.078361571e-01 -1.873096611e-01 -9.078361571e-01 -3.274005801e-01  6.554684301e-02
5.075000000 -3.262589277e-01  6.811225875e-02 -1.949450535e-01 -9.064419100e-01 -1.949450535e-01 -9.064419100e-01 -3.262589277e-01  6.811225875e-02
5.100000000 -3.250739251e-01  7.065940353e-02 -2.025755608e-01 -9.049902138e-01 -2.025755608e-01 -9.049902138e-01 -3.250739251e-01  7.065940353e-02
5.125000000 -3.238458341e-01  7.318741701e-02 -2.102009637e-01 -9.034809147e-01 -2.102009637e-01 -9.034809147e-01 -3.238458341e-01  7.318741701e-02
5.150000000 -3.225749115e-01  7.569574980e-02 -2.178209780e-01 -9.019138752e-01 -2.178209780e-01 -9.019138752e-01 -3.225749115e-01  7.569574980e-02
5.175000000 -3.212614234e-01  7.818367727e-02 -2.254353269e-01 -9.002889511e-01 -2.254353269e-01 -9.002889511e-01 -3.212614234e-01  7.818367727e-02
5.200000000 -3.199056595e-01  8.065054805e-02 -2.330437474e-01 -8.986059838e-01 -2.330437474e-01 -8.986059838e-01 -3.199056595e-01  8.065054805e-02
5.225000000 -3.185079284e-01  8.309566130e-02 -2.406459191e-01 -8.968648229e-01 -2.406459191e-01 -8.968648229e-01 -3.185079284e-01  8.309566130e-02
5.250000000 -3.170685305e-01  8.551834332e-02 -2.482415865e-01 -8.950653006e-01 -2.482415865e-01 -8.950653006e-01 -3.170685305e-01  8.551834332e-02
5.275000000 -3.155878340e-01  8.791780574e-02 -2.558304037e-01 -8.932072500e-01 -2.558304037e-01 -8.932072500e-01 -3.155878340e-01  8.791780574e-02
5.300000000 -3.140661299e-01  9.029343837e-02 -2.634121359e-01 -8.912904969e-01 -2.634121359e-01 -8.912904969e-01 -3.140661299e-01  9.029343837e-02
5.325000000 -3.125037760e-01  9.264447556e-02 -2.709864850e-01 -8.893148596e-01 -2.709864850e-01 -8.893148596e-01 -3.125037760e-01  9.264447556e-02
5.350000000 -3.109011182e-01  9.497025294e-02 -2.785531415e-01 -8.872801638e-01 -2.785531415e-01 -8.872801638e-01 -3.109011182e-01  9.497025294e-02
5.375000000 -3.092584892e-01  9.727011737e-02 -2.861118147e-01 -8.851862318e-01 -2.861118147e-01 -8.851862318e-01 -3.092584892e-01  9.727011737e-02
5.400000000 -3.075762607e-01  9.954337224e-02 -2.936621835e-01 -8.830328809e-01 -2.936621835e-01 -8.830328809e-01 -3.075762607e-01  9.954337224e-02
5.425000000 -3.058547882e-01  1.017894370e-01 -3.012039052e-01 -8.808199418e-01 -3.012039052e-01 -8.808199418e-01 -3.058547882e-01  1.017894370e-01
5.450000000 -3.040944553e-01  1.040076169e-01 -3.087366452e-01 -8.785472311e-01 -3.087366452e-01 -8.785472311e-01 -3.040944553e-01  1.040076169e-01
5.475000000 -3.022956707e-01  1.061973096e-01 -3.162600388e-01 -8.762145674e-01 -3.162600388e-01 -8.762145674e-01 -3.022956707e-01  1.061973096e-01
5.500000000 -3.004588425e-01  1.083578457e-01 -3.237737150e-01 -8.738217720e-01 -3.237737150e-01 -8.738217720e-01 -3.004588425e-01  1.083578457e-01
5.525000000 -2.985844244e-01  1.104885551e-01 -3.312772798e-01 -8.713686590e-01 -3.312772798e-01 -8.713686590e-01 -2.985844244e-01  1.104885551e-01
5.550000000 -2.966728671e-01  1.125887639e-01 -3.387703683e-01 -8.688550314e-01 -3.387703683e-01 -8.688550314e-01 -2.966728671e-01  1.125887639e-01
5.575000000 -2.947245850e-01  1.146578619e-01 -3.462526541e-01 -8.662806880e-01 -3.462526541e-01 -8.662806880e-01 -2.947245850e-01  1.146578619e-01
5.600000000 -2.927401072e-01  1.166950684e-01 -3.537236995e-01 -8.636454315e-01 -3.537236995e-01 -8.636454315e-01 -2.927401072e-01  1.166950684e-01
5.625000000 -2.907198208e-01  1.186999059e-01 -3.611831703e-01 -8.609490728e-01 -3.611831703e-01 -8.609490728e-01 -2.907198208e-01  1.186999059e-01
5.650000000 -2.886642503e-01  1.206715497e-01 -3.686306674e-01 -8.581913969e-01 -3.686306674e-01 -8.581913969e-01 -2.886642503e-01  1.206715497e-01
5.675000000 -2.865738368e-01  1.226095811e-01 -3.760657753e-01 -8.553722288e-01 -3.760657753e-01 -8.553722288e-01 -2.865738368e-01  1.226095811e-01
5.700000000 -2.844490607e-01  1.245132579e-01 -3.834880998e-01 -8.524913670e-01 -3.834880998e-01 -8.524913670e-01 -2.844490607e-01  1.245132579e-01
5.725000000 -2.822904503e-01  1.263820841e-01 -3.908971869e-01 -8.495486200e-01 -3.908971869e-01 -8.495486200e-01 -2.822904503e-01  1.263820841e-01
5.750000000 -2.800985043e-01  1.282154304e-01 -3.982925896e-01 -8.465438050e-01 -3.982925896e-01 -8.465438050e-01 -2.800985043e-01  1.282154304e-01
5.775000000 -2.778737724e-01  1.300127114e-01 -4.056738327e-01 -8.434767340e-01 -4.056738327e-01 -8.434767340e-01 -2.778737724e-01  1.300127114e-01
5.800000000 -2.756168364e-01  1.317733146e-01 -4.130404262e-01 -8.403472154e-01 -4.130404262e-01 -8.403472154e-01 -2.756168364e-01  1.317733146e-01
5.825000000 -2.733282260e-01  1.334966682e-01 -4.203919535e-01 -8.371550382e-01 -4.203919535e-01 -8.371550382e-01 -2.733282260e-01  1.334966682e-01
5.850000000 -2.710085705e-01  1.351821095e-01 -4.277278812e-01 -8.339000164e-01 -4.277278812e-01 -8.339000164e-01 -2.710085705e-01  1.351821095e-01
5.875000000 -2.686584027e-01  1.368291167e-01 -4.350477652e-01 -8.305819536e-01 -4.350477652e-01 -8.305819536e-01 -2.686584027e-01  1.368291167e-01
5.900000000 -2.662783276e-01  1.384370356e-01 -4.423511170e-01 -8.272006494e-01 -4.423511170e-01 -8.272006494e-01 -2.662783276e-01  1.384370356e-01
5.925000000 -2.638689229e-01  1.400053574e-01 -4.496374364e-01 -8.237559223e-01 -4.496374364e-01 -8.237559223e-01 -2.638689229e-01  1.400053574e-01
5.950000000 -2.614307626e-01  1.415335088e-01 -4.569062340e-01 -8.202475869e-01 -4.569062340e-01 -8.202475869e-01 -2.614307626e-01  1.415335088e-01
5.975000000 -2.589644676e-01  1.430209585e-01 -4.641569791e-01 -8.166754648e-01 -4.641569791e-01 -8.166754648e-01 -2.589644676e-01  1.430209585e-01
6.000000000 -2.564706580e-01  1.444672063e-01 -4.713891293e-01 -8.130393875e-01 -4.713891293e-01 -8.130393875e-01 -2.564706580e-01  1.444672063e-01
6.025000000 -2.539499512e-01  1.458717064e-01 -4.786021277e-01 -8.093391995e-01 -4.786021277e-01 -8.093391995e-01 -2.539499512e-01  1.458717064e-01
6.050000000 -2.514030486e-01  1.472339614e-01 -4.857953932e-01 -8.055747286e-01 -4.857953932e-01 -8.055747286e-01 -2.514030486e-01  1.472339614e-01
6.075000000 -2.488306187e-01  1.485534522e-01 -4.929683463e-01 -8.017458184e-01 -4.929683463e-01 -8.017458184e-01 -2.488306187e-01  1.485534522e-01
6.100000000 -2.462333621e-01  1.498296538e-01 -5.001204178e-01 -7.978522940e-01 -5.001204178e-01 -7.978522940e-01 -2.462333621e-01  1.498296538e-01
6.125000000 -2.436120021e-01  1.510620494e-01 -5.072509789e-01 -7.938940152e-01 -5.072509789e-01 -7.938940152e-01 -2.436120021e-01  1.510620494e-01
6.150000000 -2.409671970e-01  1.522501542e-01 -5.143594998e-01 -7.898708013e-01 -5.143594998e-01 -7.898708013e-01 -2.409671970e-01  1.522501542e-01
6.175000000 -2.382997061e-01  1.533934211e-01 -5.214453385e-01 -7.857825097e-01 -5.214453385e-01 -7.857825097e-01 -2.382997061e-01  1.533934211e-01
6.200000000 -2.356101784e-01  1.544914604e-01 -5.285079344e-01 -7.816289881e-01 -5.285079344e-01 -7.816289881e-01 -2.356101784e-01  1.544914604e-01
6.225000000 -2.328993429e-01  1.555437099e-01 -5.355466750e-01 -7.774100886e-01 -5.355466750e-01 -7.774100886e-01 -2.328993429e-01  1.555437099e-01
6.250000000 -2.301679361e-01  1.565498431e-01 -5.425609099e-01 -7.731256910e-01 -5.425609099e-01 -7.731256910e-01 -2.301679361e-01  1.565498431e-01
6.275000000 -2.274166436e-01  1.575093484e-01 -5.495500254e-01 -7.687756714e-01 -5.495500254e-01 -7.687756714e-01 -2.274166436e-01  1.575093484e-01
6.300000000 -2.246462986e-01  1.584218758e-01 -5.565133290e-01 -7.643599052e-01 -5.565133290e-01 -7.643599052e-01 -2.246462986e-01  1.584218758e-01
6.325000000 -2.218576375e-01  1.592869998e-01 -5.634501140e-01 -7.598783273e-01 -5.634501140e-01 -7.598783273e-01 -2.218576375e-01  1.592869998e-01
6.350000000 -2.190514778e-01  1.601043213e-01 -5.703597423e-01 -7.553307829e-01 -5.703597423e-01 -7.553307829e-01 -2.190514778e-01  1.601043213e-01
6.375000000 -2.162286816e-01  1.608734443e-01 -5.772414120e-01 -7.507172390e-01 -5.772414120e-01 -7.507172390e-01 -2.162286816e-01  1.608734443e-01
6.400000000 -2.133899869e-01  1.615939906e-01 -5.840945278e-01 -7.460375483e-01 -5.840945278e-01 -7.460375483e-01 -2.133899869e-01  1.615939906e-01
6.425000000 -2.105362938e-01  1.622655302e-01 -5.909182995e-01 -7.412916608e-01 -5.909182995e-01 -7.412916608e-01 -2.105362938e-01  1.622655302e-01
6.450000000 -2.076683455e-01  1.628877586e-01 -5.977120813e-01 -7.364794777e-01 -5.977120813e-01 -7.364794777e-01 -2.076683455e-01  1.628877586e-01
6.475000000 -2.047869726e-01  1.634602461e-01 -6.044751544e-01 -7.316009282e-01 -6.044751544e-01 -7.316009282e-01 -2.047869726e-01  1.634602461e-01
6.500000000 -2.018930007e-01  1.639827275e-01 -6.112067859e-01 -7.266559618e-01 -6.112067859e-01 -7.266559618e-01 -2.018930007e-01  1.639827275e-01
6.525000000 -1.989871958e-01  1.644547973e-01 -6.179062862e-01 -7.216445215e-01 -6.179062862e-01 -7.216445215e-01 -1.989871958e-01  1.644547973e-01
6.550000000 -1.960704718e-01  1.648762415e-01 -6.245728584e-01 -7.165665864e-01 -6.245728584e-01 -7.165665864e-01 -1.960704718e-01  1.648762415e-01
6.575000000 -1.931436695e-01  1.652467606e-01 -6.312057323e-01 -7.114221538e-01 -6.312057323e-01 -7.114221538e-01 -1.931436695e-01  1.652467606e-01
6.600000000 -1.902076841e-01  1.655660798e-01 -6.378041347e-01 -7.062112045e-01 -6.378041347e-01 -7.062112045e-01 -1.902076841e-01  1.655660798e-01
6.625000000 -1.872634595e-01  1.658339622e-01 -6.443672264e-01 -7.009337692e-01 -6.443672264e-01 -7.009337692e-01 -1.872634595e-01  1.658339622e-01
6.650000000 -1.843118913e-01  1.660501572e-01 -6.508942233e-01 -6.955898552e-01 -6.508942233e-01 -6.955898552e-01 -1.843118913e-01  1.660501572e-01
6.675000000 -1.813539186e-01  1.662144193e-01 -6.573843168e-01 -6.901794802e-01 -6.573843168e-01 -6.901794802e-01 -1.813539186e-01  1.662144193e-01
6.700000000 -1.783904689e-01  1.663265346e-01 -6.638366847e-01 -6.847026895e-01 -6.638366847e-01 -6.847026895e-01 -1.783904689e-01  1.663265346e-01
6.725000000 -1.754224094e-01  1.663862701e-01 -6.702505755e-01 -6.791594884e-01 -6.702505755e-01 -6.791594884e-01 -1.754224094e-01  1.663862701e-01
6.750000000 -1.724506791e-01  1.663934185e-01 -6.766251548e-01 -6.735499414e-01 -6.766251548e-01 -6.735499414e-01 -1.724506791e-01  1.663934185e-01
6.775000000 -1.694761526e-01  1.663478295e-01 -6.829596415e-01 -6.678740926e-01 -6.829596415e-01 -6.678740926e-01 -1.694761526e-01  1.663478295e-01
6.800000000 -1.664997255e-01  1.662492842e-01 -6.892532291e-01 -6.621320090e-01 -6.892532291e-01 -6.621320090e-01 -1.664997255e-01  1.662492842e-01
6.825000000 -1.635223886e-01  1.660977347e-01 -6.955050336e-01 -6.563238037e-01 -6.955050336e-01 -6.563238037e-01 -1.635223886e-01  1.660977347e-01
6.850000000 -1.605450179e-01  1.658929978e-01 -7.017142402e-01 -6.504495782e-01 -7.017142402e-01 -6.504495782e-01 -1.605450179e-01  1.658929978e-01
6.875000000 -1.575686748e-01  1.656350527e-01 -7.078799289e-01 -6.445094681e-01 -7.078799289e-01 -6.445094681e-01 -1.575686748e-01  1.656350527e-01
6.900000000 -1.545943265e-01  1.653238222e-01 -7.140011826e-01 -6.385036697e-01 -7.140011826e-01 -6.385036697e-01 -1.545943265e-01  1.653238222e-01
6.925000000 -1.516229445e-01  1.649592301e-01 -7.200771773e-01 -6.324322710e-01 -7.200771773e-01 -6.324322710e-01 -1.516229445e-01  1.649592301e-01
6.950000000 -1.486556230e-01  1.645412890e-01 -7.261068856e-01 -6.262955624e-01 -7.261068856e-01 -6.262955624e-01 -1.486556230e-01  1.645412890e-01
6.975000000 -1.456932127e-01  1.640699057e-01 -7.320895742e-01 -6.200936042e-01 -7.320895742e-01 -6.200936042e-01 -1.456932127e-01  1.640699057e-01
7.000000000 -1.427367733e-01  1.635450767e-01 -7.380242652e-01 -6.138266685e-01 -7.380242652e-01 -6.138266685e-01 -1.427367733e-01  1.635450767e-01
