! yapnr rf: a12-stub-osh-m-m-eq, footprint re-simulated (optimization grid)
! spec sha256 212370086b4687dca439e447b7498c12f5e0d49e4cea784f2bb96e43c0feaf86
! 2 ports renormalized to 50 ohm, e^(+jwt) convention
# GHz S RI R 50
3.000000000 -4.122970848e-01  2.375663141e-01 -4.042515273e-01 -7.388309444e-01 -4.042515273e-01 -7.388309444e-01 -4.122970848e-01  2.375663141e-01
3.005000000 -4.123086570e-01  2.396967432e-01 -4.067824678e-01 -7.367184096e-01 -4.067824678e-01 -7.367184096e-01 -4.123086570e-01  2.396967432e-01
3.010000000 -4.123104181e-01  2.418324641e-01 -4.093035454e-01 -7.345940977e-01 -4.093035454e-01 -7.345940977e-01 -4.123104181e-01  2.418324641e-01
3.015000000 -4.123023148e-01  2.439734440e-01 -4.118146902e-01 -7.324580421e-01 -4.118146902e-01 -7.324580421e-01 -4.123023148e-01  2.439734440e-01
3.020000000 -4.122842938e-01  2.461196498e-01 -4.143158322e-01 -7.303102766e-01 -4.143158322e-01 -7.303102766e-01 -4.122842938e-01  2.461196498e-01
3.025000000 -4.122563044e-01  2.482710457e-01 -4.168068994e-01 -7.281508337e-01 -4.168068994e-01 -7.281508337e-01 -4.122563044e-01  2.482710457e-01
3.030000000 -4.122183011e-01  2.504275910e-01 -4.192878162e-01 -7.259797435e-01 -4.192878162e-01 -7.259797435e-01 -4.122183011e-01  2.504275910e-01
3.035000000 -4.121702200e-01  2.525892605e-01 -4.217585199e-01 -7.237970470e-01 -4.217585199e-01 -7.237970470e-01 -4.121702200e-01  2.525892605e-01
3.040000000 -4.121120075e-01  2.547560197e-01 -4.242189404e-01 -7.216027798e-01 -4.242189404e-01 -7.216027798e-01 -4.121120075e-01  2.547560197e-01
3.045000000 -4.120436102e-01  2.569278334e-01 -4.266690075e-01 -7.193969777e-01 -4.266690075e-01 -7.193969777e-01 -4.120436102e-01  2.569278334e-01
3.050000000 -4.119649743e-01  2.591046661e-01 -4.291086512e-01 -7.171796772e-01 -4.291086512e-01 -7.171796772e-01 -4.119649743e-01  2.591046661e-01
3.055000000 -4.118760464e-01  2.612864818e-01 -4.315378011e-01 -7.149509150e-01 -4.315378011e-01 -7.149509150e-01 -4.118760464e-01  2.612864818e-01
3.060000000 -4.117767729e-01  2.634732445e-01 -4.339563871e-01 -7.127107283e-01 -4.339563871e-01 -7.127107283e-01 -4.117767729e-01  2.634732445e-01
3.065000000 -4.116671001e-01  2.656649172e-01 -4.363643389e-01 -7.104591548e-01 -4.363643389e-01 -7.104591548e-01 -4.116671001e-01  2.656649172e-01
3.070000000 -4.115469744e-01  2.678614630e-01 -4.387615863e-01 -7.081962326e-01 -4.387615863e-01 -7.081962326e-01 -4.115469744e-01  2.678614630e-01
3.075000000 -4.114163420e-01  2.700628444e-01 -4.411480590e-01 -7.059220003e-01 -4.411480590e-01 -7.059220003e-01 -4.114163420e-01  2.700628444e-01
3.080000000 -4.112751675e-01  2.722689819e-01 -4.435236811e-01 -7.036364663e-01 -4.435236811e-01 -7.036364663e-01 -4.112751675e-01  2.722689819e-01
3.085000000 -4.111233835e-01  2.744798688e-01 -4.458883859e-01 -7.013396929e-01 -4.458883859e-01 -7.013396929e-01 -4.111233835e-01  2.744798688e-01
3.090000000 -4.109609316e-01  2.766954768e-01 -4.482421045e-01 -6.990317275e-01 -4.482421045e-01 -6.990317275e-01 -4.109609316e-01  2.766954768e-01
3.095000000 -4.107877581e-01  2.789157668e-01 -4.505847664e-01 -6.967126106e-01 -4.505847664e-01 -6.967126106e-01 -4.107877581e-01  2.789157668e-01
3.100000000 -4.106038092e-01  2.811406992e-01 -4.529163014e-01 -6.943823829e-01 -4.529163014e-01 -6.943823829e-01 -4.106038092e-01  2.811406992e-01
3.105000000 -4.104090312e-01  2.833702339e-01 -4.552366391e-01 -6.920410859e-01 -4.552366391e-01 -6.920410859e-01 -4.104090312e-01  2.833702339e-01
3.110000000 -4.102033702e-01  2.856043306e-01 -4.575457091e-01 -6.896887612e-01 -4.575457091e-01 -6.896887612e-01 -4.102033702e-01  2.856043306e-01
3.115000000 -4.099867725e-01  2.878429483e-01 -4.598434411e-01 -6.873254512e-01 -4.598434411e-01 -6.873254512e-01 -4.099867725e-01  2.878429483e-01
3.120000000 -4.097591842e-01  2.900860460e-01 -4.621297648e-01 -6.849511985e-01 -4.621297648e-01 -6.849511985e-01 -4.097591842e-01  2.900860460e-01
3.125000000 -4.095205516e-01  2.923335817e-01 -4.644046097e-01 -6.825660464e-01 -4.644046097e-01 -6.825660464e-01 -4.095205516e-01  2.923335817e-01
3.130000000 -4.092708264e-01  2.945854897e-01 -4.666679057e-01 -6.801700203e-01 -4.666679057e-01 -6.801700203e-01 -4.092708264e-01  2.945854897e-01
3.135000000 -4.090099572e-01  2.968417158e-01 -4.689195817e-01 -6.777631552e-01 -4.689195817e-01 -6.777631552e-01 -4.090099572e-01  2.968417158e-01
3.140000000 -4.087378821e-01  2.991022528e-01 -4.711595673e-01 -6.753455229e-01 -4.711595673e-01 -6.753455229e-01 -4.087378821e-01  2.991022528e-01
3.145000000 -4.084545473e-01  3.013670572e-01 -4.733877922e-01 -6.729171685e-01 -4.733877922e-01 -6.729171685e-01 -4.084545473e-01  3.013670572e-01
3.150000000 -4.081598990e-01  3.036360850e-01 -4.756041861e-01 -6.704781377e-01 -4.756041861e-01 -6.704781377e-01 -4.081598990e-01  3.036360850e-01
3.155000000 -4.078538836e-01  3.059092919e-01 -4.778086788e-01 -6.680284764e-01 -4.778086788e-01 -6.680284764e-01 -4.078538836e-01  3.059092919e-01
3.160000000 -4.075364472e-01  3.081866332e-01 -4.800012000e-01 -6.655682313e-01 -4.800012000e-01 -6.655682313e-01 -4.075364472e-01  3.081866332e-01
3.165000000 -4.072075362e-01  3.104680635e-01 -4.821816795e-01 -6.630974495e-01 -4.821816795e-01 -6.630974495e-01 -4.072075362e-01  3.104680635e-01
3.170000000 -4.068670968e-01  3.127535372e-01 -4.843500471e-01 -6.606161786e-01 -4.843500471e-01 -6.606161786e-01 -4.068670968e-01  3.127535372e-01
3.175000000 -4.065150754e-01  3.150430081e-01 -4.865062327e-01 -6.581244665e-01 -4.865062327e-01 -6.581244665e-01 -4.065150754e-01  3.150430081e-01
3.180000000 -4.061514184e-01  3.173364296e-01 -4.886501661e-01 -6.556223619e-01 -4.886501661e-01 -6.556223619e-01 -4.061514184e-01  3.173364296e-01
3.185000000 -4.057760732e-01  3.196337286e-01 -4.907817790e-01 -6.531098946e-01 -4.907817790e-01 -6.531098946e-01 -4.057760732e-01  3.196337286e-01
3.190000000 -4.053889852e-01  3.219348837e-01 -4.929009992e-01 -6.505871333e-01 -4.929009992e-01 -6.505871333e-01 -4.053889852e-01  3.219348837e-01
3.195000000 -4.049901006e-01  3.242398469e-01 -4.950077570e-01 -6.480541281e-01 -4.950077570e-01 -6.480541281e-01 -4.049901006e-01  3.242398469e-01
3.200000000 -4.045793660e-01  3.265485697e-01 -4.971019822e-01 -6.455109297e-01 -4.971019822e-01 -6.455109297e-01 -4.045793660e-01  3.265485697e-01
3.205000000 -4.041567280e-01  3.288610032e-01 -4.991836050e-01 -6.429575891e-01 -4.991836050e-01 -6.429575891e-01 -4.041567280e-01  3.288610032e-01
3.210000000 -4.037221332e-01  3.311770980e-01 -5.012525556e-01 -6.403941579e-01 -5.012525556e-01 -6.403941579e-01 -4.037221332e-01  3.311770980e-01
3.215000000 -4.032755281e-01  3.334968041e-01 -5.033087641e-01 -6.378206883e-01 -5.033087641e-01 -6.378206883e-01 -4.032755281e-01  3.334968041e-01
3.220000000 -4.028168596e-01  3.358200712e-01 -5.053521609e-01 -6.352372329e-01 -5.053521609e-01 -6.352372329e-01 -4.028168596e-01  3.358200712e-01
3.225000000 -4.023460742e-01  3.381468484e-01 -5.073826763e-01 -6.326438450e-01 -5.073826763e-01 -6.326438450e-01 -4.023460742e-01  3.381468484e-01
3.230000000 -4.018631190e-01  3.404770845e-01 -5.094002407e-01 -6.300405781e-01 -5.094002407e-01 -6.300405781e-01 -4.018631190e-01  3.404770845e-01
3.235000000 -4.013679416e-01  3.428107309e-01 -5.114047828e-01 -6.274274909e-01 -5.114047828e-01 -6.274274909e-01 -4.013679416e-01  3.428107309e-01
3.240000000 -4.008604887e-01  3.451477342e-01 -5.133962339e-01 -6.248046367e-01 -5.133962339e-01 -6.248046367e-01 -4.008604887e-01  3.451477342e-01
3.245000000 -4.003407067e-01  3.474880395e-01 -5.153745257e-01 -6.221720678e-01 -5.153745257e-01 -6.221720678e-01 -4.003407067e-01  3.474880395e-01
3.250000000 -3.998085427e-01  3.498315933e-01 -5.173395889e-01 -6.195298401e-01 -5.173395889e-01 -6.195298401e-01 -3.998085427e-01  3.498315933e-01
3.255000000 -3.992639439e-01  3.521783421e-01 -5.192913543e-01 -6.168780098e-01 -5.192913543e-01 -6.168780098e-01 -3.992639439e-01  3.521783421e-01
3.260000000 -3.987068574e-01  3.545282314e-01 -5.212297528e-01 -6.142166339e-01 -5.212297528e-01 -6.142166339e-01 -3.987068574e-01  3.545282314e-01
3.265000000 -3.981372306e-01  3.568812065e-01 -5.231547152e-01 -6.115457697e-01 -5.231547152e-01 -6.115457697e-01 -3.981372306e-01  3.568812065e-01
3.270000000 -3.975550108e-01  3.592372123e-01 -5.250661728e-01 -6.088654753e-01 -5.250661728e-01 -6.088654753e-01 -3.975550108e-01  3.592372123e-01
3.275000000 -3.969601455e-01  3.615961928e-01 -5.269640566e-01 -6.061758090e-01 -5.269640566e-01 -6.061758090e-01 -3.969601455e-01  3.615961928e-01
3.280000000 -3.963525824e-01  3.639580919e-01 -5.288482978e-01 -6.034768300e-01 -5.288482978e-01 -6.034768300e-01 -3.963525824e-01  3.639580919e-01
3.285000000 -3.957322715e-01  3.663228532e-01 -5.307188252e-01 -6.007685986e-01 -5.307188252e-01 -6.007685986e-01 -3.957322715e-01  3.663228532e-01
3.290000000 -3.950991679e-01  3.686904206e-01 -5.325755628e-01 -5.980511769e-01 -5.325755628e-01 -5.980511769e-01 -3.950991679e-01  3.686904206e-01
3.295000000 -3.944532098e-01  3.710607347e-01 -5.344184522e-01 -5.953246230e-01 -5.344184522e-01 -5.953246230e-01 -3.944532098e-01  3.710607347e-01
3.300000000 -3.937943451e-01  3.734337374e-01 -5.362474251e-01 -5.925889979e-01 -5.362474251e-01 -5.925889979e-01 -3.937943451e-01  3.734337374e-01
3.305000000 -3.931225220e-01  3.758093699e-01 -5.380624133e-01 -5.898443636e-01 -5.380624133e-01 -5.898443636e-01 -3.931225220e-01  3.758093699e-01
3.310000000 -3.924376886e-01  3.781875727e-01 -5.398633487e-01 -5.870907823e-01 -5.398633487e-01 -5.870907823e-01 -3.924376886e-01  3.781875727e-01
3.315000000 -3.917397933e-01  3.805682862e-01 -5.416501634e-01 -5.843283169e-01 -5.416501634e-01 -5.843283169e-01 -3.917397933e-01  3.805682862e-01
3.320000000 -3.910287845e-01  3.829514498e-01 -5.434227895e-01 -5.815570310e-01 -5.434227895e-01 -5.815570310e-01 -3.910287845e-01  3.829514498e-01
3.325000000 -3.903046107e-01  3.853370028e-01 -5.451811595e-01 -5.787769886e-01 -5.451811595e-01 -5.787769886e-01 -3.903046107e-01  3.853370028e-01
3.330000000 -3.895672206e-01  3.877248837e-01 -5.469252056e-01 -5.759882542e-01 -5.469252056e-01 -5.759882542e-01 -3.895672206e-01  3.877248837e-01
3.335000000 -3.888165631e-01  3.901150306e-01 -5.486548605e-01 -5.731908930e-01 -5.486548605e-01 -5.731908930e-01 -3.888165631e-01  3.901150306e-01
3.340000000 -3.880525977e-01  3.925073674e-01 -5.503700435e-01 -5.703849596e-01 -5.503700435e-01 -5.703849596e-01 -3.880525977e-01  3.925073674e-01
3.345000000 -3.872752656e-01  3.949018415e-01 -5.520706973e-01 -5.675705287e-01 -5.520706973e-01 -5.675705287e-01 -3.872752656e-01  3.949018415e-01
3.350000000 -3.864845132e-01  3.972983928e-01 -5.537567582e-01 -5.647476700e-01 -5.537567582e-01 -5.647476700e-01 -3.864845132e-01  3.972983928e-01
3.355000000 -3.856802899e-01  3.996969572e-01 -5.554281595e-01 -5.619164509e-01 -5.554281595e-01 -5.619164509e-01 -3.856802899e-01  3.996969572e-01
3.360000000 -3.848625454e-01  4.020974701e-01 -5.570848346e-01 -5.590769396e-01 -5.570848346e-01 -5.590769396e-01 -3.848625454e-01  4.020974701e-01
3.363636364 -3.842593006e-01  4.038444844e-01 -5.582804016e-01 -5.570066713e-01 -5.582804016e-01 -5.570066713e-01 -3.842593006e-01  4.038444844e-01
3.365000000 -3.840312312e-01  4.044998608e-01 -5.587267134e-01 -5.562291999e-01 -5.587267134e-01 -5.562291999e-01 -3.840312312e-01  4.044998608e-01
3.370000000 -3.831863005e-01  4.069040545e-01 -5.603537240e-01 -5.533732931e-01 -5.603537240e-01 -5.533732931e-01 -3.831863005e-01  4.069040545e-01
3.375000000 -3.823276979e-01  4.093099997e-01 -5.619658090e-01 -5.505093018e-01 -5.619658090e-01 -5.505093018e-01 -3.823276979e-01  4.093099997e-01
3.380000000 -3.814553736e-01  4.117176299e-01 -5.635629025e-01 -5.476372961e-01 -5.635629025e-01 -5.476372961e-01 -3.814553736e-01  4.117176299e-01
3.385000000 -3.805692780e-01  4.141268776e-01 -5.651449389e-01 -5.447573472e-01 -5.651449389e-01 -5.447573472e-01 -3.805692780e-01  4.141268776e-01
3.390000000 -3.796693637e-01  4.165376616e-01 -5.667118462e-01 -5.418695155e-01 -5.667118462e-01 -5.418695155e-01 -3.796693637e-01  4.165376616e-01
3.395000000 -3.787555824e-01  4.189499070e-01 -5.682635557e-01 -5.389738677e-01 -5.682635557e-01 -5.389738677e-01 -3.787555824e-01  4.189499070e-01
3.400000000 -3.778278817e-01  4.213635649e-01 -5.698000114e-01 -5.360704932e-01 -5.698000114e-01 -5.360704932e-01 -3.778278817e-01  4.213635649e-01
3.405000000 -3.768862127e-01  4.237785658e-01 -5.713211482e-01 -5.331594653e-01 -5.713211482e-01 -5.331594653e-01 -3.768862127e-01  4.237785658e-01
3.410000000 -3.759305267e-01  4.261948395e-01 -5.728269014e-01 -5.302408578e-01 -5.728269014e-01 -5.302408578e-01 -3.759305267e-01  4.261948395e-01
3.415000000 -3.749607752e-01  4.286123156e-01 -5.743172064e-01 -5.273147453e-01 -5.743172064e-01 -5.273147453e-01 -3.749607752e-01  4.286123156e-01
3.420000000 -3.739769099e-01  4.310309228e-01 -5.757919989e-01 -5.243812029e-01 -5.757919989e-01 -5.243812029e-01 -3.739769099e-01  4.310309228e-01
3.425000000 -3.729788826e-01  4.334505893e-01 -5.772512147e-01 -5.214403063e-01 -5.772512147e-01 -5.214403063e-01 -3.729788826e-01  4.334505893e-01
3.430000000 -3.719666456e-01  4.358712428e-01 -5.786947899e-01 -5.184921318e-01 -5.786947899e-01 -5.184921318e-01 -3.719666456e-01  4.358712428e-01
3.435000000 -3.709401511e-01  4.382928106e-01 -5.801226609e-01 -5.155367564e-01 -5.801226609e-01 -5.155367564e-01 -3.709401511e-01  4.382928106e-01
3.440000000 -3.698993517e-01  4.407152191e-01 -5.815347642e-01 -5.125742576e-01 -5.815347642e-01 -5.125742576e-01 -3.698993517e-01  4.407152191e-01
3.445000000 -3.688441995e-01  4.431383628e-01 -5.829310243e-01 -5.096046905e-01 -5.829310243e-01 -5.096046905e-01 -3.688441995e-01  4.431383628e-01
3.450000000 -3.677746480e-01  4.455621988e-01 -5.843113902e-01 -5.066281570e-01 -5.843113902e-01 -5.066281570e-01 -3.677746480e-01  4.455621988e-01
3.455000000 -3.666906504e-01  4.479866519e-01 -5.856757991e-01 -5.036447365e-01 -5.856757991e-01 -5.036447365e-01 -3.666906504e-01  4.479866519e-01
3.460000000 -3.655921602e-01  4.504116464e-01 -5.870241885e-01 -5.006545090e-01 -5.870241885e-01 -5.006545090e-01 -3.655921602e-01  4.504116464e-01
3.465000000 -3.644791311e-01  4.528371059e-01 -5.883564964e-01 -4.976575549e-01 -5.883564964e-01 -4.976575549e-01 -3.644791311e-01  4.528371059e-01
3.470000000 -3.633515172e-01  4.552629536e-01 -5.896726607e-01 -4.946539556e-01 -5.896726607e-01 -4.946539556e-01 -3.633515172e-01  4.552629536e-01
3.475000000 -3.622092727e-01  4.576891121e-01 -5.909726198e-01 -4.916437928e-01 -5.909726198e-01 -4.916437928e-01 -3.622092727e-01  4.576891121e-01
3.480000000 -3.610523520e-01  4.601155034e-01 -5.922563123e-01 -4.886271490e-01 -5.922563123e-01 -4.886271490e-01 -3.610523520e-01  4.601155034e-01
3.485000000 -3.598807100e-01  4.625420488e-01 -5.935236772e-01 -4.856041072e-01 -5.935236772e-01 -4.856041072e-01 -3.598807100e-01  4.625420488e-01
3.490000000 -3.586943017e-01  4.649686692e-01 -5.947746535e-01 -4.825747511e-01 -5.947746535e-01 -4.825747511e-01 -3.586943017e-01  4.649686692e-01
3.495000000 -3.574930830e-01  4.673952812e-01 -5.960091791e-01 -4.795391654e-01 -5.960091791e-01 -4.795391654e-01 -3.574930830e-01  4.673952812e-01
3.500000000 -3.562770093e-01  4.698218056e-01 -5.972271943e-01 -4.764974349e-01 -5.972271943e-01 -4.764974349e-01 -3.562770093e-01  4.698218056e-01
3.505000000 -3.550460361e-01  4.722481640e-01 -5.984286403e-01 -4.734496448e-01 -5.984286403e-01 -4.734496448e-01 -3.550460361e-01  4.722481640e-01
3.510000000 -3.538001196e-01  4.746742747e-01 -5.996134575e-01 -4.703958815e-01 -5.996134575e-01 -4.703958815e-01 -3.538001196e-01  4.746742747e-01
3.515000000 -3.525392164e-01  4.771000558e-01 -6.007815865e-01 -4.673362316e-01 -6.007815865e-01 -4.673362316e-01 -3.525392164e-01  4.771000558e-01
3.520000000 -3.512632831e-01  4.795254244e-01 -6.019329684e-01 -4.642707827e-01 -6.019329684e-01 -4.642707827e-01 -3.512632831e-01  4.795254244e-01
3.525000000 -3.499722769e-01  4.819502973e-01 -6.030675444e-01 -4.611996227e-01 -6.030675444e-01 -4.611996227e-01 -3.499722769e-01  4.819502973e-01
3.530000000 -3.486661552e-01  4.843745906e-01 -6.041852562e-01 -4.581228404e-01 -6.041852562e-01 -4.581228404e-01 -3.486661552e-01  4.843745906e-01
3.535000000 -3.473448758e-01  4.867982198e-01 -6.052860458e-01 -4.550405252e-01 -6.052860458e-01 -4.550405252e-01 -3.473448758e-01  4.867982198e-01
3.540000000 -3.460083967e-01  4.892210999e-01 -6.063698556e-01 -4.519527669e-01 -6.063698556e-01 -4.519527669e-01 -3.460083967e-01  4.892210999e-01
3.545000000 -3.446566783e-01  4.916431456e-01 -6.074366266e-01 -4.488596577e-01 -6.074366266e-01 -4.488596577e-01 -3.446566783e-01  4.916431456e-01
3.550000000 -3.432896854e-01  4.940642723e-01 -6.084862971e-01 -4.457612935e-01 -6.084862971e-01 -4.457612935e-01 -3.432896854e-01  4.940642723e-01
3.555000000 -3.419073691e-01  4.964843911e-01 -6.095188169e-01 -4.426577600e-01 -6.095188169e-01 -4.426577600e-01 -3.419073691e-01  4.964843911e-01
3.560000000 -3.405096888e-01  4.989034146e-01 -6.105341297e-01 -4.395491498e-01 -6.105341297e-01 -4.395491498e-01 -3.405096888e-01  4.989034146e-01
3.565000000 -3.390966043e-01  5.013212545e-01 -6.115321796e-01 -4.364355559e-01 -6.115321796e-01 -4.364355559e-01 -3.390966043e-01  5.013212545e-01
3.570000000 -3.376680757e-01  5.037378224e-01 -6.125129113e-01 -4.333170723e-01 -6.125129113e-01 -4.333170723e-01 -3.376680757e-01  5.037378224e-01
3.575000000 -3.362240636e-01  5.061530289e-01 -6.134762694e-01 -4.301937933e-01 -6.134762694e-01 -4.301937933e-01 -3.362240636e-01  5.061530289e-01
3.580000000 -3.347645288e-01  5.085667841e-01 -6.144221994e-01 -4.270658141e-01 -6.144221994e-01 -4.270658141e-01 -3.347645288e-01  5.085667841e-01
3.585000000 -3.332894326e-01  5.109789975e-01 -6.153506469e-01 -4.239332303e-01 -6.153506469e-01 -4.239332303e-01 -3.332894326e-01  5.109789975e-01
3.590000000 -3.317987367e-01  5.133895781e-01 -6.162615579e-01 -4.207961383e-01 -6.162615579e-01 -4.207961383e-01 -3.317987367e-01  5.133895781e-01
3.595000000 -3.302924031e-01  5.157984342e-01 -6.171548790e-01 -4.176546352e-01 -6.171548790e-01 -4.176546352e-01 -3.302924031e-01  5.157984342e-01
3.600000000 -3.287704048e-01  5.182054623e-01 -6.180305367e-01 -4.145088145e-01 -6.180305367e-01 -4.145088145e-01 -3.287704048e-01  5.182054623e-01
3.605000000 -3.272326966e-01  5.206105779e-01 -6.188884934e-01 -4.113587780e-01 -6.188884934e-01 -4.113587780e-01 -3.272326966e-01  5.206105779e-01
3.610000000 -3.256792392e-01  5.230136904e-01 -6.197287018e-01 -4.082046254e-01 -6.197287018e-01 -4.082046254e-01 -3.256792392e-01  5.230136904e-01
3.615000000 -3.241099964e-01  5.254147055e-01 -6.205511101e-01 -4.050464565e-01 -6.205511101e-01 -4.050464565e-01 -3.241099964e-01  5.254147055e-01
3.620000000 -3.225249321e-01  5.278135285e-01 -6.213556669e-01 -4.018843716e-01 -6.213556669e-01 -4.018843716e-01 -3.225249321e-01  5.278135285e-01
3.625000000 -3.209240110e-01  5.302100641e-01 -6.221423214e-01 -3.987184714e-01 -6.221423214e-01 -3.987184714e-01 -3.209240110e-01  5.302100641e-01
3.630000000 -3.193071980e-01  5.326042163e-01 -6.229110230e-01 -3.955488577e-01 -6.229110230e-01 -3.955488577e-01 -3.193071980e-01  5.326042163e-01
3.635000000 -3.176744586e-01  5.349958886e-01 -6.236617216e-01 -3.923756325e-01 -6.236617216e-01 -3.923756325e-01 -3.176744586e-01  5.349958886e-01
3.640000000 -3.160257586e-01  5.373849837e-01 -6.243943678e-01 -3.891988988e-01 -6.243943678e-01 -3.891988988e-01 -3.160257586e-01  5.373849837e-01
3.645000000 -3.143610644e-01  5.397714039e-01 -6.251089125e-01 -3.860187600e-01 -6.251089125e-01 -3.860187600e-01 -3.143610644e-01  5.397714039e-01
3.650000000 -3.126803448e-01  5.421550370e-01 -6.258052928e-01 -3.828353131e-01 -6.258052928e-01 -3.828353131e-01 -3.126803448e-01  5.421550370e-01
3.655000000 -3.109835681e-01  5.445357771e-01 -6.264834531e-01 -3.796486597e-01 -6.264834531e-01 -3.796486597e-01 -3.109835681e-01  5.445357771e-01
3.660000000 -3.092706988e-01  5.469135452e-01 -6.271433672e-01 -3.764589162e-01 -6.271433672e-01 -3.764589162e-01 -3.092706988e-01  5.469135452e-01
3.665000000 -3.075417052e-01  5.492882410e-01 -6.277849880e-01 -3.732661887e-01 -6.277849880e-01 -3.732661887e-01 -3.075417052e-01  5.492882410e-01
3.670000000 -3.057965560e-01  5.516597636e-01 -6.284082687e-01 -3.700705839e-01 -6.284082687e-01 -3.700705839e-01 -3.057965560e-01  5.516597636e-01
3.675000000 -3.040352204e-01  5.540280116e-01 -6.290131634e-01 -3.668722094e-01 -6.290131634e-01 -3.668722094e-01 -3.040352204e-01  5.540280116e-01
3.680000000 -3.022576682e-01  5.563928829e-01 -6.295996266e-01 -3.636711731e-01 -6.295996266e-01 -3.636711731e-01 -3.022576682e-01  5.563928829e-01
3.685000000 -3.004638697e-01  5.587542748e-01 -6.301676131e-01 -3.604675838e-01 -6.301676131e-01 -3.604675838e-01 -3.004638697e-01  5.587542748e-01
3.690000000 -2.986537956e-01  5.611120839e-01 -6.307170786e-01 -3.572615508e-01 -6.307170786e-01 -3.572615508e-01 -2.986537956e-01  5.611120839e-01
3.695000000 -2.968274174e-01  5.634662064e-01 -6.312479792e-01 -3.540531842e-01 -6.312479792e-01 -3.540531842e-01 -2.968274174e-01  5.634662064e-01
3.700000000 -2.949847067e-01  5.658165377e-01 -6.317602713e-01 -3.508425947e-01 -6.317602713e-01 -3.508425947e-01 -2.949847067e-01  5.658165377e-01
3.705000000 -2.931256338e-01  5.681629444e-01 -6.322538897e-01 -3.476298806e-01 -6.322538897e-01 -3.476298806e-01 -2.931256338e-01  5.681629444e-01
3.710000000 -2.912501738e-01  5.705053490e-01 -6.327288144e-01 -3.444151672e-01 -6.327288144e-01 -3.444151672e-01 -2.912501738e-01  5.705053490e-01
3.715000000 -2.893583001e-01  5.728436450e-01 -6.331850039e-01 -3.411985670e-01 -6.331850039e-01 -3.411985670e-01 -2.893583001e-01  5.728436450e-01
3.720000000 -2.874499870e-01  5.751777254e-01 -6.336224169e-01 -3.379801935e-01 -6.336224169e-01 -3.379801935e-01 -2.874499870e-01  5.751777254e-01
3.725000000 -2.855252090e-01  5.775074828e-01 -6.340410131e-01 -3.347601604e-01 -6.340410131e-01 -3.347601604e-01 -2.855252090e-01  5.775074828e-01
3.727272727 -2.846448602e-01  5.785650051e-01 -6.342250528e-01 -3.332959914e-01 -6.342250528e-01 -3.332959914e-01 -2.846448602e-01  5.785650051e-01
3.730000000 -2.835839401e-01  5.798328017e-01 -6.344407481e-01 -3.315385798e-01 -6.344407481e-01 -3.315385798e-01 -2.835839401e-01  5.798328017e-01
3.735000000 -2.816261565e-01  5.821535744e-01 -6.348215834e-01 -3.283155674e-01 -6.348215834e-01 -3.283155674e-01 -2.816261565e-01  5.821535744e-01
3.740000000 -2.796518355e-01  5.844696977e-01 -6.351834839e-01 -3.250912412e-01 -6.351834839e-01 -3.250912412e-01 -2.796518355e-01  5.844696977e-01
3.745000000 -2.776609541e-01  5.867810613e-01 -6.355264117e-01 -3.218657176e-01 -6.355264117e-01 -3.218657176e-01 -2.776609541e-01  5.867810613e-01
3.750000000 -2.756534902e-01  5.890875548e-01 -6.358503294e-01 -3.186391139e-01 -6.358503294e-01 -3.186391139e-01 -2.756534902e-01  5.890875548e-01
3.755000000 -2.736294219e-01  5.913890621e-01 -6.361551981e-01 -3.154115480e-01 -6.361551981e-01 -3.154115480e-01 -2.736294219e-01  5.913890621e-01
3.760000000 -2.715887282e-01  5.936854730e-01 -6.364409823e-01 -3.121831381e-01 -6.364409823e-01 -3.121831381e-01 -2.715887282e-01  5.936854730e-01
3.765000000 -2.695313886e-01  5.959766782e-01 -6.367076481e-01 -3.089540034e-01 -6.367076481e-01 -3.089540034e-01 -2.695313886e-01  5.959766782e-01
3.770000000 -2.674573834e-01  5.982625649e-01 -6.369551607e-01 -3.057242634e-01 -6.369551607e-01 -3.057242634e-01 -2.674573834e-01  5.982625649e-01
3.775000000 -2.653666934e-01  6.005430193e-01 -6.371834861e-01 -3.024940385e-01 -6.371834861e-01 -3.024940385e-01 -2.653666934e-01  6.005430193e-01
3.780000000 -2.632593001e-01  6.028179272e-01 -6.373925908e-01 -2.992634495e-01 -6.373925908e-01 -2.992634495e-01 -2.632593001e-01  6.028179272e-01
3.785000000 -2.611351858e-01  6.050871740e-01 -6.375824422e-01 -2.960326181e-01 -6.375824422e-01 -2.960326181e-01 -2.611351858e-01  6.050871740e-01
3.790000000 -2.589943334e-01  6.073506441e-01 -6.377530081e-01 -2.928016665e-01 -6.377530081e-01 -2.928016665e-01 -2.589943334e-01  6.073506441e-01
3.795000000 -2.568367263e-01  6.096082216e-01 -6.379042572e-01 -2.895707174e-01 -6.379042572e-01 -2.895707174e-01 -2.568367263e-01  6.096082216e-01
3.800000000 -2.546623490e-01  6.118597900e-01 -6.380361591e-01 -2.863398943e-01 -6.380361591e-01 -2.863398943e-01 -2.546623490e-01  6.118597900e-01
3.805000000 -2.524711879e-01  6.141052321e-01 -6.381486830e-01 -2.831093229e-01 -6.381486830e-01 -2.831093229e-01 -2.524711879e-01  6.141052321e-01
3.810000000 -2.502632339e-01  6.163444303e-01 -6.382417976e-01 -2.798791322e-01 -6.382417976e-01 -2.798791322e-01 -2.502632339e-01  6.163444303e-01
3.815000000 -2.480384667e-01  6.185772663e-01 -6.383154776e-01 -2.766494417e-01 -6.383154776e-01 -2.766494417e-01 -2.480384667e-01  6.185772663e-01
3.820000000 -2.457968734e-01  6.208036211e-01 -6.383696953e-01 -2.734203771e-01 -6.383696953e-01 -2.734203771e-01 -2.457968734e-01  6.208036211e-01
3.825000000 -2.435384419e-01  6.230233753e-01 -6.384044237e-01 -2.701920650e-01 -6.384044237e-01 -2.701920650e-01 -2.435384419e-01  6.230233753e-01
3.830000000 -2.412631609e-01  6.252364088e-01 -6.384196368e-01 -2.669646326e-01 -6.384196368e-01 -2.669646326e-01 -2.412631609e-01  6.252364088e-01
3.835000000 -2.389710197e-01  6.274426011e-01 -6.384153091e-01 -2.637382076e-01 -6.384153091e-01 -2.637382076e-01 -2.389710197e-01  6.274426011e-01
3.840000000 -2.366620084e-01  6.296418310e-01 -6.383914161e-01 -2.605129183e-01 -6.383914161e-01 -2.605129183e-01 -2.366620084e-01  6.296418310e-01
3.845000000 -2.343361180e-01  6.318339767e-01 -6.383479341e-01 -2.572888937e-01 -6.383479341e-01 -2.572888937e-01 -2.343361180e-01  6.318339767e-01
3.850000000 -2.319933402e-01  6.340189159e-01 -6.382848400e-01 -2.540662634e-01 -6.382848400e-01 -2.540662634e-01 -2.319933402e-01  6.340189159e-01
3.855000000 -2.296336675e-01  6.361965258e-01 -6.382021117e-01 -2.508451575e-01 -6.382021117e-01 -2.508451575e-01 -2.296336675e-01  6.361965258e-01
3.860000000 -2.272571034e-01  6.383666772e-01 -6.380997126e-01 -2.476257124e-01 -6.380997126e-01 -2.476257124e-01 -2.272571034e-01  6.383666772e-01
3.865000000 -2.248636344e-01  6.405292505e-01 -6.379776336e-01 -2.444080554e-01 -6.379776336e-01 -2.444080554e-01 -2.248636344e-01  6.405292505e-01
3.870000000 -2.224532528e-01  6.426841226e-01 -6.378358588e-01 -2.411923170e-01 -6.378358588e-01 -2.411923170e-01 -2.224532528e-01  6.426841226e-01
3.875000000 -2.200259544e-01  6.448311685e-01 -6.376743694e-01 -2.379786297e-01 -6.376743694e-01 -2.379786297e-01 -2.200259544e-01  6.448311685e-01
3.880000000 -2.175817357e-01  6.469702625e-01 -6.374931475e-01 -2.347671266e-01 -6.374931475e-01 -2.347671266e-01 -2.175817357e-01  6.469702625e-01
3.885000000 -2.151205941e-01  6.491012786e-01 -6.372921759e-01 -2.315579412e-01 -6.372921759e-01 -2.315579412e-01 -2.151205941e-01  6.491012786e-01
3.890000000 -2.126425280e-01  6.512240900e-01 -6.370714383e-01 -2.283512079e-01 -6.370714383e-01 -2.283512079e-01 -2.126425280e-01  6.512240900e-01
3.895000000 -2.101475364e-01  6.533385695e-01 -6.368309195e-01 -2.251470615e-01 -6.368309195e-01 -2.251470615e-01 -2.101475364e-01  6.533385695e-01
3.900000000 -2.076356194e-01  6.554445894e-01 -6.365706049e-01 -2.219456371e-01 -6.365706049e-01 -2.219456371e-01 -2.076356194e-01  6.554445894e-01
3.905000000 -2.051067778e-01  6.575420215e-01 -6.362904810e-01 -2.187470709e-01 -6.362904810e-01 -2.187470709e-01 -2.051067778e-01  6.575420215e-01
3.910000000 -2.025610160e-01  6.596307257e-01 -6.359905208e-01 -2.155515000e-01 -6.359905208e-01 -2.155515000e-01 -2.025610160e-01  6.596307257e-01
3.915000000 -1.999983380e-01  6.617105672e-01 -6.356707055e-01 -2.123590624e-01 -6.356707055e-01 -2.123590624e-01 -1.999983380e-01  6.617105672e-01
3.920000000 -1.974187434e-01  6.637814327e-01 -6.353310455e-01 -2.091698944e-01 -6.353310455e-01 -2.091698944e-01 -1.974187434e-01  6.637814327e-01
3.925000000 -1.948222368e-01  6.658431922e-01 -6.349715310e-01 -2.059841342e-01 -6.349715310e-01 -2.059841342e-01 -1.948222368e-01  6.658431922e-01
3.930000000 -1.922088235e-01  6.678957148e-01 -6.345921531e-01 -2.028019204e-01 -6.345921531e-01 -2.028019204e-01 -1.922088235e-01  6.678957148e-01
3.935000000 -1.895785100e-01  6.699388691e-01 -6.341929038e-01 -1.996233921e-01 -6.341929038e-01 -1.996233921e-01 -1.895785100e-01  6.699388691e-01
3.940000000 -1.869313034e-01  6.719725233e-01 -6.337737761e-01 -1.964486891e-01 -6.337737761e-01 -1.964486891e-01 -1.869313034e-01  6.719725233e-01
3.945000000 -1.842672121e-01  6.739965453e-01 -6.333347639e-01 -1.932779515e-01 -6.333347639e-01 -1.932779515e-01 -1.842672121e-01  6.739965453e-01
3.950000000 -1.815862452e-01  6.760108022e-01 -6.328758623e-01 -1.901113201e-01 -6.328758623e-01 -1.901113201e-01 -1.815862452e-01  6.760108022e-01
3.955000000 -1.788884130e-01  6.780151608e-01 -6.323970670e-01 -1.869489362e-01 -6.323970670e-01 -1.869489362e-01 -1.788884130e-01  6.780151608e-01
3.960000000 -1.761737264e-01  6.800094874e-01 -6.318983751e-01 -1.837909414e-01 -6.318983751e-01 -1.837909414e-01 -1.761737264e-01  6.800094874e-01
3.965000000 -1.734421954e-01  6.819936108e-01 -6.313797517e-01 -1.806374782e-01 -6.313797517e-01 -1.806374782e-01 -1.734421954e-01  6.819936108e-01
3.970000000 -1.706938354e-01  6.839674331e-01 -6.308412286e-01 -1.774886897e-01 -6.308412286e-01 -1.774886897e-01 -1.706938354e-01  6.839674331e-01
3.975000000 -1.679286605e-01  6.859308194e-01 -6.302828056e-01 -1.743447192e-01 -6.302828056e-01 -1.743447192e-01 -1.679286605e-01  6.859308194e-01
3.980000000 -1.651466860e-01  6.878836341e-01 -6.297044840e-01 -1.712057104e-01 -6.297044840e-01 -1.712057104e-01 -1.651466860e-01  6.878836341e-01
3.985000000 -1.623479280e-01  6.898257413e-01 -6.291062656e-01 -1.680718075e-01 -6.291062656e-01 -1.680718075e-01 -1.623479280e-01  6.898257413e-01
3.990000000 -1.595324038e-01  6.917570044e-01 -6.284881537e-01 -1.649431551e-01 -6.284881537e-01 -1.649431551e-01 -1.595324038e-01  6.917570044e-01
3.995000000 -1.567001315e-01  6.936772866e-01 -6.278501525e-01 -1.618198984e-01 -6.278501525e-01 -1.618198984e-01 -1.567001315e-01  6.936772866e-01
4.000000000 -1.538511306e-01  6.955864508e-01 -6.271922673e-01 -1.587021830e-01 -6.271922673e-01 -1.587021830e-01 -1.538511306e-01  6.955864508e-01
4.005000000 -1.509854213e-01  6.974843591e-01 -6.265145043e-01 -1.555901549e-01 -6.265145043e-01 -1.555901549e-01 -1.509854213e-01  6.974843591e-01
4.010000000 -1.481030251e-01  6.993708736e-01 -6.258168711e-01 -1.524839605e-01 -6.258168711e-01 -1.524839605e-01 -1.481030251e-01  6.993708736e-01
4.015000000 -1.452039630e-01  7.012458418e-01 -6.250993679e-01 -1.493837479e-01 -6.250993679e-01 -1.493837479e-01 -1.452039630e-01  7.012458418e-01
4.020000000 -1.422882591e-01  7.031091293e-01 -6.243620071e-01 -1.462896643e-01 -6.243620071e-01 -1.462896643e-01 -1.422882591e-01  7.031091293e-01
4.025000000 -1.393559391e-01  7.049606061e-01 -6.236048051e-01 -1.432018567e-01 -6.236048051e-01 -1.432018567e-01 -1.393559391e-01  7.049606061e-01
4.030000000 -1.364070290e-01  7.068001327e-01 -6.228277738e-01 -1.401204734e-01 -6.228277738e-01 -1.401204734e-01 -1.364070290e-01  7.068001327e-01
4.035000000 -1.334415556e-01  7.086275689e-01 -6.220309263e-01 -1.370456630e-01 -6.220309263e-01 -1.370456630e-01 -1.334415556e-01  7.086275689e-01
4.040000000 -1.304595469e-01  7.104427744e-01 -6.212142767e-01 -1.339775745e-01 -6.212142767e-01 -1.339775745e-01 -1.304595469e-01  7.104427744e-01
4.045000000 -1.274610323e-01  7.122456083e-01 -6.203778405e-01 -1.309163572e-01 -6.203778405e-01 -1.309163572e-01 -1.274610323e-01  7.122456083e-01
4.050000000 -1.244460419e-01  7.140359296e-01 -6.195216341e-01 -1.278621610e-01 -6.195216341e-01 -1.278621610e-01 -1.244460419e-01  7.140359296e-01
4.055000000 -1.214146074e-01  7.158135968e-01 -6.186456753e-01 -1.248151361e-01 -6.186456753e-01 -1.248151361e-01 -1.214146074e-01  7.158135968e-01
4.060000000 -1.183667613e-01  7.175784681e-01 -6.177499829e-01 -1.217754329e-01 -6.177499829e-01 -1.217754329e-01 -1.183667613e-01  7.175784681e-01
4.065000000 -1.153025381e-01  7.193304005e-01 -6.168345769e-01 -1.187432031e-01 -6.168345769e-01 -1.187432031e-01 -1.153025381e-01  7.193304005e-01
4.070000000 -1.122219750e-01  7.210692491e-01 -6.158994777e-01 -1.157186003e-01 -6.158994777e-01 -1.157186003e-01 -1.122219750e-01  7.210692491e-01
4.075000000 -1.091251053e-01  7.227948744e-01 -6.149447090e-01 -1.127017729e-01 -6.149447090e-01 -1.127017729e-01 -1.091251053e-01  7.227948744e-01
4.080000000 -1.060119665e-01  7.245071335e-01 -6.139702943e-01 -1.096928730e-01 -6.139702943e-01 -1.096928730e-01 -1.060119665e-01  7.245071335e-01
4.085000000 -1.028825971e-01  7.262058829e-01 -6.129762586e-01 -1.066920528e-01 -6.129762586e-01 -1.066920528e-01 -1.028825971e-01  7.262058829e-01
4.090000000 -9.973703700e-02  7.278909790e-01 -6.119626281e-01 -1.036994649e-01 -6.119626281e-01 -1.036994649e-01 -9.973703700e-02  7.278909790e-01
4.090909091 -9.916338067e-02  7.281958820e-01 -6.117762286e-01 -1.031562544e-01 -6.117762286e-01 -1.031562544e-01 -9.916338067e-02  7.281958820e-01
4.095000000 -9.657533184e-02  7.295622786e-01 -6.109294295e-01 -1.007152657e-01 -6.109294295e-01 -1.007152657e-01 -9.657533184e-02  7.295622786e-01
4.100000000 -9.339752030e-02  7.312196369e-01 -6.098766921e-01 -9.773960560e-02 -6.098766921e-01 -9.773960560e-02 -9.339752030e-02  7.312196369e-01
4.105000000 -9.020364486e-02  7.328629094e-01 -6.088044460e-01 -9.477263735e-02 -6.088044460e-01 -9.477263735e-02 -9.020364486e-02  7.328629094e-01
4.110000000 -8.699375027e-02  7.344919513e-01 -6.077127226e-01 -9.181451468e-02 -6.077127226e-01 -9.181451468e-02 -8.699375027e-02  7.344919513e-01
4.115000000 -8.376788255e-02  7.361066178e-01 -6.066015542e-01 -8.886539164e-02 -6.066015542e-01 -8.886539164e-02 -8.376788255e-02  7.361066178e-01
4.120000000 -8.052609768e-02  7.377067612e-01 -6.054709677e-01 -8.592542997e-02 -6.054709677e-01 -8.592542997e-02 -8.052609768e-02  7.377067612e-01
4.125000000 -7.726843778e-02  7.392922380e-01 -6.043210035e-01 -8.299477874e-02 -6.043210035e-01 -8.299477874e-02 -7.726843778e-02  7.392922380e-01
4.130000000 -7.399495054e-02  7.408629033e-01 -6.031516998e-01 -8.007359087e-02 -6.031516998e-01 -8.007359087e-02 -7.399495054e-02  7.408629033e-01
4.135000000 -7.070568711e-02  7.424186112e-01 -6.019630945e-01 -7.716202139e-02 -6.019630945e-01 -7.716202139e-02 -7.070568711e-02  7.424186112e-01
4.140000000 -6.740069994e-02  7.439592158e-01 -6.007552266e-01 -7.426022555e-02 -6.007552266e-01 -7.426022555e-02 -6.740069994e-02  7.439592158e-01
4.145000000 -6.408004279e-02  7.454845709e-01 -5.995281366e-01 -7.136835879e-02 -5.995281366e-01 -7.136835879e-02 -6.408004279e-02  7.454845709e-01
4.150000000 -6.074377076e-02  7.469945303e-01 -5.982818661e-01 -6.848657678e-02 -5.982818661e-01 -6.848657678e-02 -6.074377076e-02  7.469945303e-01
4.155000000 -5.739194024e-02  7.484889473e-01 -5.970164583e-01 -6.561503535e-02 -5.970164583e-01 -6.561503535e-02 -5.739194024e-02  7.484889473e-01
4.160000000 -5.402460899e-02  7.499676755e-01 -5.957319576e-01 -6.275389053e-02 -5.957319576e-01 -6.275389053e-02 -5.402460899e-02  7.499676755e-01
4.165000000 -5.064183611e-02  7.514305680e-01 -5.944284100e-01 -5.990329850e-02 -5.944284100e-01 -5.990329850e-02 -5.064183611e-02  7.514305680e-01
4.170000000 -4.724368699e-02  7.528774695e-01 -5.931058525e-01 -5.706342209e-02 -5.931058525e-01 -5.706342209e-02 -4.724368699e-02  7.528774695e-01
4.175000000 -4.383022603e-02  7.543082287e-01 -5.917643290e-01 -5.423442131e-02 -5.917643290e-01 -5.423442131e-02 -4.383022603e-02  7.543082287e-01
4.180000000 -4.040150908e-02  7.557227113e-01 -5.904039045e-01 -5.141644315e-02 -5.904039045e-01 -5.141644315e-02 -4.040150908e-02  7.557227113e-01
4.185000000 -3.695760068e-02  7.571207701e-01 -5.890246306e-01 -4.860964435e-02 -5.890246306e-01 -4.860964435e-02 -3.695760068e-02  7.571207701e-01
4.190000000 -3.349856680e-02  7.585022578e-01 -5.876265599e-01 -4.581418174e-02 -5.876265599e-01 -4.581418174e-02 -3.349856680e-02  7.585022578e-01
4.195000000 -3.002447477e-02  7.598670272e-01 -5.862097468e-01 -4.303021226e-02 -5.862097468e-01 -4.303021226e-02 -3.002447477e-02  7.598670272e-01
4.200000000 -2.653539333e-02  7.612149308e-01 -5.847742470e-01 -4.025789292e-02 -5.847742470e-01 -4.025789292e-02 -2.653539333e-02  7.612149308e-01
4.205000000 -2.303139264e-02  7.625458213e-01 -5.833201175e-01 -3.749738083e-02 -5.833201175e-01 -3.749738083e-02 -2.303139264e-02  7.625458213e-01
4.210000000 -1.951254427e-02  7.638595512e-01 -5.818474170e-01 -3.474883311e-02 -5.818474170e-01 -3.474883311e-02 -1.951254427e-02  7.638595512e-01
4.215000000 -1.597892121e-02  7.651559730e-01 -5.803562053e-01 -3.201240696e-02 -5.803562053e-01 -3.201240696e-02 -1.597892121e-02  7.651559730e-01
4.220000000 -1.243059788e-02  7.664349395e-01 -5.788465439e-01 -2.928825961e-02 -5.788465439e-01 -2.928825961e-02 -1.243059788e-02  7.664349395e-01
4.225000000 -8.867654714e-03  7.676962666e-01 -5.773184678e-01 -2.657656425e-02 -5.773184678e-01 -2.657656425e-02 -8.867654714e-03  7.676962666e-01
4.230000000 -5.290164692e-03  7.689398434e-01 -5.757720696e-01 -2.387746263e-02 -5.757720696e-01 -2.387746263e-02 -5.290164692e-03  7.689398434e-01
4.235000000 -1.698206583e-03  7.701655225e-01 -5.742074153e-01 -2.119111197e-02 -5.742074153e-01 -2.119111197e-02 -1.698206583e-03  7.701655225e-01
4.240000000  1.908139387e-03  7.713731566e-01 -5.726245722e-01 -1.851766948e-02 -5.726245722e-01 -1.851766948e-02  1.908139387e-03  7.713731566e-01
4.245000000  5.528791520e-03  7.725625984e-01 -5.710236092e-01 -1.585729233e-02 -5.710236092e-01 -1.585729233e-02  5.528791520e-03  7.725625984e-01
4.250000000  9.163666649e-03  7.737337009e-01 -5.694045966e-01 -1.321013764e-02 -5.694045966e-01 -1.321013764e-02  9.163666649e-03  7.737337009e-01
4.255000000  1.281268012e-02  7.748863170e-01 -5.677676063e-01 -1.057636245e-02 -5.677676063e-01 -1.057636245e-02  1.281268012e-02  7.748863170e-01
4.260000000  1.647574580e-02  7.760202997e-01 -5.661127117e-01 -7.956123741e-03 -5.661127117e-01 -7.956123741e-03  1.647574580e-02  7.760202997e-01
4.265000000  2.015277606e-02  7.771355022e-01 -5.644399877e-01 -5.349578389e-03 -5.644399877e-01 -5.349578389e-03  2.015277606e-02  7.771355022e-01
4.270000000  2.384368176e-02  7.782317779e-01 -5.627495107e-01 -2.756883162e-03 -5.627495107e-01 -2.756883162e-03  2.384368176e-02  7.782317779e-01
4.275000000  2.754837237e-02  7.793089624e-01 -5.610413497e-01 -1.782006617e-04 -5.610413497e-01 -1.782006617e-04  2.754837237e-02  7.793089624e-01
4.280000000  3.126675560e-02  7.803669154e-01 -5.593155873e-01  2.386314395e-03 -5.593155873e-01  2.386314395e-03  3.126675560e-02  7.803669154e-01
4.285000000  3.499873767e-02  7.814055024e-01 -5.575723107e-01  4.936509584e-03 -5.575723107e-01  4.936509584e-03  3.499873767e-02  7.814055024e-01
4.290000000  3.874422339e-02  7.824245776e-01 -5.558116024e-01  7.472228728e-03 -5.558116024e-01  7.472228728e-03  3.874422339e-02  7.824245776e-01
4.295000000  4.250311603e-02  7.834239951e-01 -5.540335466e-01  9.993315836e-03 -5.540335466e-01  9.993315836e-03  4.250311603e-02  7.834239951e-01
4.300000000  4.627531733e-02  7.844036095e-01 -5.522382291e-01  1.249961512e-02 -5.522382291e-01  1.249961512e-02  4.627531733e-02  7.844036095e-01
4.305000000  5.006072749e-02  7.853632755e-01 -5.504257370e-01  1.499097100e-02 -5.504257370e-01  1.499097100e-02  5.006072749e-02  7.853632755e-01
4.310000000  5.385924517e-02  7.863028480e-01 -5.485961593e-01  1.746722814e-02 -5.485961593e-01  1.746722814e-02  5.385924517e-02  7.863028480e-01
4.315000000  5.767076748e-02  7.872221824e-01 -5.467495863e-01  1.992823145e-02 -5.467495863e-01  1.992823145e-02  5.767076748e-02  7.872221824e-01
4.320000000  6.149518995e-02  7.881211343e-01 -5.448861102e-01  2.237382610e-02 -5.448861102e-01  2.237382610e-02  6.149518995e-02  7.881211343e-01
4.325000000  6.533240580e-02  7.889995576e-01 -5.430058242e-01  2.480385648e-02 -5.430058242e-01  2.480385648e-02  6.533240580e-02  7.889995576e-01
4.330000000  6.918230505e-02  7.898573035e-01 -5.411088226e-01  2.721816512e-02 -5.411088226e-01  2.721816512e-02  6.918230505e-02  7.898573035e-01
4.335000000  7.304478171e-02  7.906942355e-01 -5.391952035e-01  2.961660239e-02 -5.391952035e-01  2.961660239e-02  7.304478171e-02  7.906942355e-01
4.340000000  7.691972505e-02  7.915102106e-01 -5.372650653e-01  3.199901470e-02 -5.372650653e-01  3.199901470e-02  7.691972505e-02  7.915102106e-01
4.345000000  8.080702276e-02  7.923050860e-01 -5.353185080e-01  3.436524879e-02 -5.353185080e-01  3.436524879e-02  8.080702276e-02  7.923050860e-01
4.350000000  8.470656098e-02  7.930787195e-01 -5.333556332e-01  3.671515179e-02 -5.333556332e-01  3.671515179e-02  8.470656098e-02  7.930787195e-01
4.355000000  8.861822423e-02  7.938309692e-01 -5.313765441e-01  3.904857121e-02 -5.313765441e-01  3.904857121e-02  8.861822423e-02  7.938309692e-01
4.360000000  9.254189546e-02  7.945616935e-01 -5.293813456e-01  4.136535495e-02 -5.293813456e-01  4.136535495e-02  9.254189546e-02  7.945616935e-01
4.365000000  9.647745602e-02  7.952707516e-01 -5.273701442e-01  4.366535135e-02 -5.273701442e-01  4.366535135e-02  9.647745602e-02  7.952707516e-01
4.370000000  1.004247857e-01  7.959580028e-01 -5.253430479e-01  4.594840916e-02 -5.253430479e-01  4.594840916e-02  1.004247857e-01  7.959580028e-01
4.375000000  1.043837625e-01  7.966233072e-01 -5.233001665e-01  4.821437761e-02 -5.233001665e-01  4.821437761e-02  1.043837625e-01  7.966233072e-01
4.380000000  1.083542527e-01  7.972665259e-01 -5.212416099e-01  5.046309873e-02 -5.212416099e-01  5.046309873e-02  1.083542527e-01  7.972665259e-01
4.385000000  1.123361389e-01  7.978875194e-01 -5.191674924e-01  5.269442846e-02 -5.191674924e-01  5.269442846e-02  1.123361389e-01  7.978875194e-01
4.390000000  1.163292971e-01  7.984861491e-01 -5.170779287e-01  5.490821944e-02 -5.170779287e-01  5.490821944e-02  1.163292971e-01  7.984861491e-01
4.395000000  1.203335991e-01  7.990622770e-01 -5.149730351e-01  5.710432288e-02 -5.149730351e-01  5.710432288e-02  1.203335991e-01  7.990622770e-01
4.400000000  1.243489150e-01  7.996157658e-01 -5.128529297e-01  5.928259057e-02 -5.128529297e-01  5.928259057e-02  1.243489150e-01  7.996157658e-01
4.405000000  1.283751133e-01  8.001464787e-01 -5.107177317e-01  6.144287484e-02 -5.107177317e-01  6.144287484e-02  1.283751133e-01  8.001464787e-01
4.410000000  1.324120609e-01  8.006542795e-01 -5.085675626e-01  6.358502861e-02 -5.085675626e-01  6.358502861e-02  1.324120609e-01  8.006542795e-01
4.415000000  1.364596231e-01  8.011390328e-01 -5.064025449e-01  6.570890542e-02 -5.064025449e-01  6.570890542e-02  1.364596231e-01  8.011390328e-01
4.420000000  1.405176635e-01  8.016006038e-01 -5.042228034e-01  6.781435942e-02 -5.042228034e-01  6.781435942e-02  1.405176635e-01  8.016006038e-01
4.425000000  1.445860442e-01  8.020388581e-01 -5.020284639e-01  6.990124541e-02 -5.020284639e-01  6.990124541e-02  1.445860442e-01  8.020388581e-01
4.430000000  1.486646199e-01  8.024536601e-01 -4.998196516e-01  7.196941327e-02 -4.998196516e-01  7.196941327e-02  1.486646199e-01  8.024536601e-01
4.435000000  1.527532465e-01  8.028448759e-01 -4.975964946e-01  7.401871631e-02 -4.975964946e-01  7.401871631e-02  1.527532465e-01  8.028448759e-01
4.440000000  1.568517896e-01  8.032123770e-01 -4.953591282e-01  7.604901971e-02 -4.953591282e-01  7.604901971e-02  1.568517896e-01  8.032123770e-01
4.445000000  1.609601049e-01  8.035560319e-01 -4.931076851e-01  7.806018106e-02 -4.931076851e-01  7.806018106e-02  1.609601049e-01  8.035560319e-01
4.450000000  1.650780463e-01  8.038757102e-01 -4.908422996e-01  8.005205864e-02 -4.908422996e-01  8.005205864e-02  1.650780463e-01  8.038757102e-01
4.454545455  1.688298583e-01  8.041454114e-01 -4.887708740e-01  8.184600401e-02 -4.887708740e-01  8.184600401e-02  1.688298583e-01  8.041454114e-01
4.455000000  1.692054652e-01  8.041712811e-01 -4.885631071e-01  8.202451044e-02 -4.885631071e-01  8.202451044e-02  1.692054652e-01  8.041712811e-01
4.460000000  1.733422047e-01  8.044426071e-01 -4.862702392e-01  8.397738634e-02 -4.862702392e-01  8.397738634e-02  1.733422047e-01  8.044426071e-01
4.465000000  1.774881222e-01  8.046895697e-01 -4.839638422e-01  8.591055797e-02 -4.839638422e-01  8.591055797e-02  1.774881222e-01  8.046895697e-01
4.470000000  1.816430653e-01  8.049120418e-01 -4.816440569e-01  8.782388681e-02 -4.816440569e-01  8.782388681e-02  1.816430653e-01  8.049120418e-01
4.475000000  1.858068797e-01  8.051098969e-01 -4.793110259e-01  8.971723519e-02 -4.793110259e-01  8.971723519e-02  1.858068797e-01  8.051098969e-01
4.480000000  1.899794098e-01  8.052830096e-01 -4.769648936e-01  9.159046628e-02 -4.769648936e-01  9.159046628e-02  1.899794098e-01  8.052830096e-01
4.485000000  1.941604879e-01  8.054312319e-01 -4.746057941e-01  9.344342614e-02 -4.746057941e-01  9.344342614e-02  1.941604879e-01  8.054312319e-01
4.490000000  1.983499651e-01  8.055544636e-01 -4.722338870e-01  9.527599763e-02 -4.722338870e-01  9.527599763e-02  1.983499651e-01  8.055544636e-01
4.495000000  2.025476806e-01  8.056525821e-01 -4.698493214e-01  9.708804663e-02 -4.698493214e-01  9.708804663e-02  2.025476806e-01  8.056525821e-01
4.500000000  2.067534725e-01  8.057254656e-01 -4.674522481e-01  9.887944001e-02 -4.674522481e-01  9.887944001e-02  2.067534725e-01  8.057254656e-01
4.505000000  2.109671768e-01  8.057729935e-01 -4.650428195e-01  1.006500456e-01 -4.650428195e-01  1.006500456e-01  2.109671768e-01  8.057729935e-01
4.510000000  2.151886282e-01  8.057950459e-01 -4.626211896e-01  1.023997321e-01 -4.626211896e-01  1.023997321e-01  2.151886282e-01  8.057950459e-01
4.515000000  2.194176597e-01  8.057915043e-01 -4.601875141e-01  1.041283695e-01 -4.601875141e-01  1.041283695e-01  2.194176597e-01  8.057915043e-01
4.520000000  2.236541028e-01  8.057622510e-01 -4.577419503e-01  1.058358284e-01 -4.577419503e-01  1.058358284e-01  2.236541028e-01  8.057622510e-01
4.525000000  2.278977872e-01  8.057071695e-01 -4.552846572e-01  1.075219809e-01 -4.552846572e-01  1.075219809e-01  2.278977872e-01  8.057071695e-01
4.530000000  2.321485413e-01  8.056261443e-01 -4.528157951e-01  1.091866999e-01 -4.528157951e-01  1.091866999e-01  2.321485413e-01  8.056261443e-01
4.535000000  2.364061876e-01  8.055190430e-01 -4.503355208e-01  1.108298492e-01 -4.503355208e-01  1.108298492e-01  2.364061876e-01  8.055190430e-01
4.540000000  2.406705524e-01  8.053857587e-01 -4.478439999e-01  1.124513074e-01 -4.478439999e-01  1.124513074e-01  2.406705524e-01  8.053857587e-01
4.545000000  2.449414619e-01  8.052261914e-01 -4.453414018e-01  1.140509575e-01 -4.453414018e-01  1.140509575e-01  2.449414619e-01  8.052261914e-01
4.550000000  2.492187382e-01  8.050402303e-01 -4.428278932e-01  1.156286770e-01 -4.428278932e-01  1.156286770e-01  2.492187382e-01  8.050402303e-01
4.555000000  2.535022016e-01  8.048277657e-01 -4.403036428e-01  1.171843447e-01 -4.403036428e-01  1.171843447e-01  2.535022016e-01  8.048277657e-01
4.560000000  2.577916710e-01  8.045886892e-01 -4.377688205e-01  1.187178402e-01 -4.377688205e-01  1.187178402e-01  2.577916710e-01  8.045886892e-01
4.565000000  2.620869637e-01  8.043228938e-01 -4.352235981e-01  1.202290447e-01 -4.352235981e-01  1.202290447e-01  2.620869637e-01  8.043228938e-01
4.570000000  2.663878956e-01  8.040302735e-01 -4.326681488e-01  1.217178406e-01 -4.326681488e-01  1.217178406e-01  2.663878956e-01  8.040302735e-01
4.575000000  2.706942808e-01  8.037107237e-01 -4.301026474e-01  1.231841113e-01 -4.301026474e-01  1.231841113e-01  2.706942808e-01  8.037107237e-01
4.580000000  2.750059322e-01  8.033641413e-01 -4.275272702e-01  1.246277419e-01 -4.275272702e-01  1.246277419e-01  2.750059322e-01  8.033641413e-01
4.585000000  2.793226603e-01  8.029904215e-01 -4.249421949e-01  1.260486171e-01 -4.249421949e-01  1.260486171e-01  2.793226603e-01  8.029904215e-01
4.590000000  2.836442728e-01  8.025894559e-01 -4.223476005e-01  1.274466208e-01 -4.223476005e-01  1.274466208e-01  2.836442728e-01  8.025894559e-01
4.595000000  2.879705805e-01  8.021611560e-01 -4.197436687e-01  1.288216469e-01 -4.197436687e-01  1.288216469e-01  2.879705805e-01  8.021611560e-01
4.600000000  2.923013902e-01  8.017054240e-01 -4.171305820e-01  1.301735856e-01 -4.171305820e-01  1.301735856e-01  2.923013902e-01  8.017054240e-01
4.605000000  2.966365071e-01  8.012221635e-01 -4.145085244e-01  1.315023286e-01 -4.145085244e-01  1.315023286e-01  2.966365071e-01  8.012221635e-01
4.610000000  3.009757350e-01  8.007112797e-01 -4.118776814e-01  1.328077688e-01 -4.118776814e-01  1.328077688e-01  3.009757350e-01  8.007112797e-01
4.615000000  3.053188761e-01  8.001726789e-01 -4.092382400e-01  1.340898009e-01 -4.092382400e-01  1.340898009e-01  3.053188761e-01  8.001726789e-01
4.620000000  3.096657314e-01  7.996062694e-01 -4.065903886e-01  1.353483208e-01 -4.065903886e-01  1.353483208e-01  3.096657314e-01  7.996062694e-01
4.625000000  3.140161003e-01  7.990119606e-01 -4.039343173e-01  1.365832258e-01 -4.039343173e-01  1.365832258e-01  3.140161003e-01  7.990119606e-01
4.630000000  3.183697807e-01  7.983896636e-01 -4.012702174e-01  1.377944151e-01 -4.012702174e-01  1.377944151e-01  3.183697807e-01  7.983896636e-01
4.635000000  3.227265691e-01  7.977392909e-01 -3.985982818e-01  1.389817889e-01 -3.985982818e-01  1.389817889e-01  3.227265691e-01  7.977392909e-01
4.640000000  3.270862530e-01  7.970607588e-01 -3.959187063e-01  1.401452454e-01 -3.959187063e-01  1.401452454e-01  3.270862530e-01  7.970607588e-01
4.645000000  3.314486320e-01  7.963539817e-01 -3.932316855e-01  1.412846911e-01 -3.932316855e-01  1.412846911e-01  3.314486320e-01  7.963539817e-01
4.650000000  3.358135003e-01  7.956188764e-01 -3.905374163e-01  1.424000324e-01 -3.905374163e-01  1.424000324e-01  3.358135003e-01  7.956188764e-01
4.655000000  3.401806490e-01  7.948553622e-01 -3.878360972e-01  1.434911759e-01 -3.878360972e-01  1.434911759e-01  3.401806490e-01  7.948553622e-01
4.660000000  3.445498675e-01  7.940633595e-01 -3.851279282e-01  1.445580303e-01 -3.851279282e-01  1.445580303e-01  3.445498675e-01  7.940633595e-01
4.665000000  3.489209443e-01  7.932427909e-01 -3.824131106e-01  1.456005054e-01 -3.824131106e-01  1.456005054e-01  3.489209443e-01  7.932427909e-01
4.670000000  3.532936662e-01  7.923935804e-01 -3.796918472e-01  1.466185132e-01 -3.796918472e-01  1.466185132e-01  3.532936662e-01  7.923935804e-01
4.675000000  3.576678189e-01  7.915156538e-01 -3.769643420e-01  1.476119670e-01 -3.769643420e-01  1.476119670e-01  3.576678189e-01  7.915156538e-01
4.680000000  3.620431866e-01  7.906089387e-01 -3.742308004e-01  1.485807820e-01 -3.742308004e-01  1.485807820e-01  3.620431866e-01  7.906089387e-01
4.685000000  3.664195523e-01  7.896733644e-01 -3.714914291e-01  1.495248753e-01 -3.714914291e-01  1.495248753e-01  3.664195523e-01  7.896733644e-01
4.690000000  3.707966898e-01  7.887088624e-01 -3.687464362e-01  1.504441596e-01 -3.687464362e-01  1.504441596e-01  3.707966898e-01  7.887088624e-01
4.695000000  3.751743753e-01  7.877153661e-01 -3.659960310e-01  1.513385526e-01 -3.659960310e-01  1.513385526e-01  3.751743753e-01  7.877153661e-01
4.700000000  3.795524002e-01  7.866928095e-01 -3.632404245e-01  1.522079854e-01 -3.632404245e-01  1.522079854e-01  3.795524002e-01  7.866928095e-01
4.705000000  3.839305424e-01  7.856411294e-01 -3.604798285e-01  1.530523820e-01 -3.604798285e-01  1.530523820e-01  3.839305424e-01  7.856411294e-01
4.710000000  3.883085786e-01  7.845602642e-01 -3.577144561e-01  1.538716684e-01 -3.577144561e-01  1.538716684e-01  3.883085786e-01  7.845602642e-01
4.715000000  3.926862844e-01  7.834501543e-01 -3.549445219e-01  1.546657723e-01 -3.549445219e-01  1.546657723e-01  3.926862844e-01  7.834501543e-01
4.720000000  3.970634340e-01  7.823107418e-01 -3.521702413e-01  1.554346236e-01 -3.521702413e-01  1.554346236e-01  3.970634340e-01  7.823107418e-01
4.725000000  4.014398008e-01  7.811419711e-01 -3.493918312e-01  1.561781537e-01 -3.493918312e-01  1.561781537e-01  4.014398008e-01  7.811419711e-01
4.730000000  4.058151567e-01  7.799437882e-01 -3.466095096e-01  1.568962963e-01 -3.466095096e-01  1.568962963e-01  4.058151567e-01  7.799437882e-01
4.735000000  4.101892726e-01  7.787161413e-01 -3.438234956e-01  1.575889868e-01 -3.438234956e-01  1.575889868e-01  4.101892726e-01  7.787161413e-01
4.740000000  4.145619182e-01  7.774589804e-01 -3.410340097e-01  1.582561627e-01 -3.410340097e-01  1.582561627e-01  4.145619182e-01  7.774589804e-01
4.745000000  4.189328394e-01  7.761722449e-01 -3.382412717e-01  1.588977416e-01 -3.382412717e-01  1.588977416e-01  4.189328394e-01  7.761722449e-01
4.750000000  4.233018266e-01  7.748559022e-01 -3.354455061e-01  1.595136869e-01 -3.354455061e-01  1.595136869e-01  4.233018266e-01  7.748559022e-01
4.755000000  4.276686461e-01  7.735099085e-01 -3.326469365e-01  1.601039420e-01 -3.326469365e-01  1.601039420e-01  4.276686461e-01  7.735099085e-01
4.760000000  4.320330635e-01  7.721342220e-01 -3.298457878e-01  1.606684526e-01 -3.298457878e-01  1.606684526e-01  4.320330635e-01  7.721342220e-01
4.765000000  4.363948433e-01  7.707288031e-01 -3.270422856e-01  1.612071662e-01 -3.270422856e-01  1.612071662e-01  4.363948433e-01  7.707288031e-01
4.770000000  4.407537489e-01  7.692936143e-01 -3.242366568e-01  1.617200324e-01 -3.242366568e-01  1.617200324e-01  4.407537489e-01  7.692936143e-01
4.775000000  4.451095428e-01  7.678286202e-01 -3.214291292e-01  1.622070031e-01 -3.214291292e-01  1.622070031e-01  4.451095428e-01  7.678286202e-01
4.780000000  4.494619866e-01  7.663337874e-01 -3.186199318e-01  1.626680321e-01 -3.186199318e-01  1.626680321e-01  4.494619866e-01  7.663337874e-01
4.785000000  4.538108407e-01  7.648090849e-01 -3.158092942e-01  1.631030754e-01 -3.158092942e-01  1.631030754e-01  4.538108407e-01  7.648090849e-01
4.790000000  4.581558650e-01  7.632544837e-01 -3.129974474e-01  1.635120913e-01 -3.129974474e-01  1.635120913e-01  4.581558650e-01  7.632544837e-01
4.795000000  4.624968105e-01  7.616699475e-01 -3.101846227e-01  1.638950314e-01 -3.101846227e-01  1.638950314e-01  4.624968105e-01  7.616699475e-01
4.800000000  4.668334378e-01  7.600554551e-01 -3.073710531e-01  1.642518613e-01 -3.073710531e-01  1.642518613e-01  4.668334378e-01  7.600554551e-01
4.805000000  4.711655086e-01  7.584109909e-01 -3.045569722e-01  1.645825515e-01 -3.045569722e-01  1.645825515e-01  4.711655086e-01  7.584109909e-01
4.810000000  4.754927793e-01  7.567365348e-01 -3.017426145e-01  1.648870691e-01 -3.017426145e-01  1.648870691e-01  4.754927793e-01  7.567365348e-01
4.815000000  4.798150052e-01  7.550320691e-01 -2.989282150e-01  1.651653832e-01 -2.989282150e-01  1.651653832e-01  4.798150052e-01  7.550320691e-01
4.818181818  4.825627737e-01  7.539317770e-01 -2.971373198e-01  1.653288360e-01 -2.971373198e-01  1.653288360e-01  4.825627737e-01  7.539317770e-01
4.820000000  4.841319394e-01  7.532975743e-01 -2.961140100e-01  1.654174632e-01 -2.961140100e-01  1.654174632e-01  4.841319394e-01  7.532975743e-01
4.825000000  4.884433346e-01  7.515330345e-01 -2.933002363e-01  1.656432813e-01 -2.933002363e-01  1.656432813e-01  4.884433346e-01  7.515330345e-01
4.830000000  4.927489466e-01  7.497384457e-01 -2.904871315e-01  1.658428174e-01 -2.904871315e-01  1.658428174e-01  4.927489466e-01  7.497384457e-01
4.835000000  4.970485276e-01  7.479137993e-01 -2.876749339e-01  1.660160498e-01 -2.876749339e-01  1.660160498e-01  4.970485276e-01  7.479137993e-01
4.840000000  5.013418295e-01  7.460590891e-01 -2.848638824e-01  1.661629594e-01 -2.848638824e-01  1.661629594e-01  5.013418295e-01  7.460590891e-01
4.845000000  5.056286027e-01  7.441743094e-01 -2.820542172e-01  1.662835283e-01 -2.820542172e-01  1.662835283e-01  5.056286027e-01  7.441743094e-01
4.850000000  5.099085965e-01  7.422594530e-01 -2.792461792e-01  1.663777398e-01 -2.792461792e-01  1.663777398e-01  5.099085965e-01  7.422594530e-01
4.855000000  5.141815623e-01  7.403145286e-01 -2.764400087e-01  1.664455848e-01 -2.764400087e-01  1.664455848e-01  5.141815623e-01  7.403145286e-01
4.860000000  5.184472493e-01  7.383395395e-01 -2.736359475e-01  1.664870532e-01 -2.736359475e-01  1.664870532e-01  5.184472493e-01  7.383395395e-01
4.865000000  5.227054061e-01  7.363344915e-01 -2.708342379e-01  1.665021378e-01 -2.708342379e-01  1.665021378e-01  5.227054061e-01  7.363344915e-01
4.870000000  5.269557808e-01  7.342993929e-01 -2.680351226e-01  1.664908334e-01 -2.680351226e-01  1.664908334e-01  5.269557808e-01  7.342993929e-01
4.875000000  5.311981210e-01  7.322342543e-01 -2.652388451e-01  1.664531375e-01 -2.652388451e-01  1.664531375e-01  5.311981210e-01  7.322342543e-01
4.880000000  5.354321737e-01  7.301390887e-01 -2.624456494e-01  1.663890499e-01 -2.624456494e-01  1.663890499e-01  5.354321737e-01  7.301390887e-01
4.885000000  5.396576857e-01  7.280139118e-01 -2.596557799e-01  1.662985728e-01 -2.596557799e-01  1.662985728e-01  5.396576857e-01  7.280139118e-01
4.890000000  5.438744031e-01  7.258587418e-01 -2.568694814e-01  1.661817112e-01 -2.568694814e-01  1.661817112e-01  5.438744031e-01  7.258587418e-01
4.895000000  5.480820717e-01  7.236735990e-01 -2.540869992e-01  1.660384721e-01 -2.540869992e-01  1.660384721e-01  5.480820717e-01  7.236735990e-01
4.900000000  5.522804334e-01  7.214585072e-01 -2.513085807e-01  1.658688641e-01 -2.513085807e-01  1.658688641e-01  5.522804334e-01  7.214585072e-01
4.905000000  5.564692360e-01  7.192134916e-01 -2.485344707e-01  1.656729004e-01 -2.485344707e-01  1.656729004e-01  5.564692360e-01  7.192134916e-01
4.910000000  5.606482252e-01  7.169385802e-01 -2.457649153e-01  1.654505960e-01 -2.457649153e-01  1.654505960e-01  5.606482252e-01  7.169385802e-01
4.915000000  5.648171454e-01  7.146338039e-01 -2.430001613e-01  1.652019683e-01 -2.430001613e-01  1.652019683e-01  5.648171454e-01  7.146338039e-01
4.920000000  5.689757410e-01  7.122991958e-01 -2.402404557e-01  1.649270371e-01 -2.402404557e-01  1.649270371e-01  5.689757410e-01  7.122991958e-01
4.925000000  5.731237560e-01  7.099347917e-01 -2.374860459e-01  1.646258247e-01 -2.374860459e-01  1.646258247e-01  5.731237560e-01  7.099347917e-01
4.930000000  5.772609340e-01  7.075406301e-01 -2.347371794e-01  1.642983560e-01 -2.347371794e-01  1.642983560e-01  5.772609340e-01  7.075406301e-01
4.935000000  5.813870188e-01  7.051167519e-01 -2.319941039e-01  1.639446586e-01 -2.319941039e-01  1.639446586e-01  5.813870188e-01  7.051167519e-01
4.940000000  5.855017539e-01  7.026632008e-01 -2.292570675e-01  1.635647625e-01 -2.292570675e-01  1.635647625e-01  5.855017539e-01  7.026632008e-01
4.945000000  5.896048826e-01  7.001800228e-01 -2.265263183e-01  1.631587002e-01 -2.265263183e-01  1.631587002e-01  5.896048826e-01  7.001800228e-01
4.950000000  5.936961421e-01  6.976672707e-01 -2.238021055e-01  1.627265046e-01 -2.238021055e-01  1.627265046e-01  5.936961421e-01  6.976672707e-01
4.955000000  5.977752729e-01  6.951249979e-01 -2.210846782e-01  1.622682122e-01 -2.210846782e-01  1.622682122e-01  5.977752729e-01  6.951249979e-01
4.960000000  6.018420272e-01  6.925532528e-01 -2.183742829e-01  1.617838673e-01 -2.183742829e-01  1.617838673e-01  6.018420272e-01  6.925532528e-01
4.965000000  6.058961482e-01  6.899520921e-01 -2.156711678e-01  1.612735131e-01 -2.156711678e-01  1.612735131e-01  6.058961482e-01  6.899520921e-01
4.970000000  6.099373793e-01  6.873215750e-01 -2.129755814e-01  1.607371952e-01 -2.129755814e-01  1.607371952e-01  6.099373793e-01  6.873215750e-01
4.975000000  6.139654638e-01  6.846617637e-01 -2.102877719e-01  1.601749619e-01 -2.102877719e-01  1.601749619e-01  6.139654638e-01  6.846617637e-01
4.980000000  6.179801452e-01  6.819727226e-01 -2.076079875e-01  1.595868641e-01 -2.076079875e-01  1.595868641e-01  6.179801452e-01  6.819727226e-01
4.985000000  6.219811671e-01  6.792545191e-01 -2.049364763e-01  1.589729555e-01 -2.049364763e-01  1.589729555e-01  6.219811671e-01  6.792545191e-01
4.990000000  6.259682734e-01  6.765072231e-01 -2.022734865e-01  1.583332922e-01 -2.022734865e-01  1.583332922e-01  6.259682734e-01  6.765072231e-01
4.995000000  6.299412080e-01  6.737309073e-01 -1.996192656e-01  1.576679332e-01 -1.996192656e-01  1.576679332e-01  6.299412080e-01  6.737309073e-01
5.000000000  6.338997151e-01  6.709256468e-01 -1.969740615e-01  1.569769399e-01 -1.969740615e-01  1.569769399e-01  6.338997151e-01  6.709256468e-01
5.005000000  6.378435172e-01  6.680915252e-01 -1.943381264e-01  1.562603642e-01 -1.943381264e-01  1.562603642e-01  6.378435172e-01  6.680915252e-01
5.010000000  6.417723813e-01  6.652286181e-01 -1.917117027e-01  1.555182857e-01 -1.917117027e-01  1.555182857e-01  6.417723813e-01  6.652286181e-01
5.015000000  6.456860525e-01  6.623370089e-01 -1.890950370e-01  1.547507737e-01 -1.890950370e-01  1.547507737e-01  6.456860525e-01  6.623370089e-01
5.020000000  6.495842763e-01  6.594167835e-01 -1.864883758e-01  1.539579005e-01 -1.864883758e-01  1.539579005e-01  6.495842763e-01  6.594167835e-01
5.025000000  6.534667987e-01  6.564680306e-01 -1.838919653e-01  1.531397409e-01 -1.838919653e-01  1.531397409e-01  6.534667987e-01  6.564680306e-01
5.030000000  6.573333659e-01  6.534908417e-01 -1.813060511e-01  1.522963724e-01 -1.813060511e-01  1.522963724e-01  6.573333659e-01  6.534908417e-01
5.035000000  6.611837249e-01  6.504853108e-01 -1.787308786e-01  1.514278752e-01 -1.787308786e-01  1.514278752e-01  6.611837249e-01  6.504853108e-01
5.040000000  6.650176229e-01  6.474515346e-01 -1.761666925e-01  1.505343322e-01 -1.761666925e-01  1.505343322e-01  6.650176229e-01  6.474515346e-01
5.045000000  6.688348077e-01  6.443896126e-01 -1.736137372e-01  1.496158289e-01 -1.736137372e-01  1.496158289e-01  6.688348077e-01  6.443896126e-01
5.050000000  6.726350277e-01  6.412996469e-01 -1.710722564e-01  1.486724534e-01 -1.710722564e-01  1.486724534e-01  6.726350277e-01  6.412996469e-01
5.055000000  6.764180224e-01  6.381817390e-01 -1.685424967e-01  1.477042900e-01 -1.685424967e-01  1.477042900e-01  6.764180224e-01  6.381817390e-01
5.060000000  6.801835448e-01  6.350359978e-01 -1.660246996e-01  1.467114347e-01 -1.660246996e-01  1.467114347e-01  6.801835448e-01  6.350359978e-01
5.065000000  6.839313515e-01  6.318625360e-01 -1.635191049e-01  1.456939881e-01 -1.635191049e-01  1.456939881e-01  6.839313515e-01  6.318625360e-01
5.070000000  6.876611937e-01  6.286614664e-01 -1.610259541e-01  1.446520492e-01 -1.610259541e-01  1.446520492e-01  6.876611937e-01  6.286614664e-01
5.075000000  6.913728231e-01  6.254329046e-01 -1.585454876e-01  1.435857194e-01 -1.585454876e-01  1.435857194e-01  6.913728231e-01  6.254329046e-01
5.080000000  6.950659921e-01  6.221769688e-01 -1.560779454e-01  1.424951030e-01 -1.560779454e-01  1.424951030e-01  6.950659921e-01  6.221769688e-01
5.085000000  6.987404542e-01  6.188937799e-01 -1.536235666e-01  1.413803067e-01 -1.536235666e-01  1.413803067e-01  6.987404542e-01  6.188937799e-01
5.090000000  7.023959635e-01  6.155834615e-01 -1.511825895e-01  1.402414400e-01 -1.511825895e-01  1.402414400e-01  7.023959635e-01  6.155834615e-01
5.095000000  7.060322750e-01  6.122461398e-01 -1.487552516e-01  1.390786152e-01 -1.487552516e-01  1.390786152e-01  7.060322750e-01  6.122461398e-01
5.100000000  7.096491446e-01  6.088819437e-01 -1.463417895e-01  1.378919468e-01 -1.463417895e-01  1.378919468e-01  7.096491446e-01  6.088819437e-01
5.105000000  7.132463285e-01  6.054910024e-01 -1.439424396e-01  1.366815515e-01 -1.439424396e-01  1.366815515e-01  7.132463285e-01  6.054910024e-01
5.110000000  7.168235823e-01  6.020734436e-01 -1.415574384e-01  1.354475465e-01 -1.415574384e-01  1.354475465e-01  7.168235823e-01  6.020734436e-01
5.115000000  7.203806680e-01  5.986294131e-01 -1.391870174e-01  1.341900583e-01 -1.391870174e-01  1.341900583e-01  7.203806680e-01  5.986294131e-01
5.120000000  7.239173455e-01  5.951590503e-01 -1.368314092e-01  1.329092120e-01 -1.368314092e-01  1.329092120e-01  7.239173455e-01  5.951590503e-01
5.125000000  7.274333757e-01  5.916624973e-01 -1.344908456e-01  1.316051356e-01 -1.344908456e-01  1.316051356e-01  7.274333757e-01  5.916624973e-01
5.130000000  7.309285208e-01  5.881398989e-01 -1.321655573e-01  1.302779595e-01 -1.321655573e-01  1.302779595e-01  7.309285208e-01  5.881398989e-01
5.135000000  7.344025440e-01  5.845914021e-01 -1.298557739e-01  1.289278168e-01 -1.298557739e-01  1.289278168e-01  7.344025440e-01  5.845914021e-01
5.140000000  7.378552095e-01  5.810171571e-01 -1.275617239e-01  1.275548430e-01 -1.275617239e-01  1.275548430e-01  7.378552095e-01  5.810171571e-01
5.145000000  7.412862832e-01  5.774173161e-01 -1.252836344e-01  1.261591763e-01 -1.252836344e-01  1.261591763e-01  7.412862832e-01  5.774173161e-01
5.150000000  7.446955318e-01  5.737920342e-01 -1.230217315e-01  1.247409575e-01 -1.230217315e-01  1.247409575e-01  7.446955318e-01  5.737920342e-01
5.155000000  7.480827233e-01  5.701414690e-01 -1.207762401e-01  1.233003299e-01 -1.207762401e-01  1.233003299e-01  7.480827233e-01  5.701414690e-01
5.160000000  7.514476280e-01  5.664657769e-01 -1.185473843e-01  1.218374390e-01 -1.185473843e-01  1.218374390e-01  7.514476280e-01  5.664657769e-01
5.165000000  7.547900160e-01  5.627651235e-01 -1.163353858e-01  1.203524335e-01 -1.163353858e-01  1.203524335e-01  7.547900160e-01  5.627651235e-01
5.170000000  7.581096595e-01  5.590396748e-01 -1.141404655e-01  1.188454641e-01 -1.141404655e-01  1.188454641e-01  7.581096595e-01  5.590396748e-01
5.175000000  7.614063321e-01  5.552895985e-01 -1.119628427e-01  1.173166843e-01 -1.119628427e-01  1.173166843e-01  7.614063321e-01  5.552895985e-01
5.180000000  7.646798086e-01  5.515150650e-01 -1.098027357e-01  1.157662500e-01 -1.098027357e-01  1.157662500e-01  7.646798086e-01  5.515150650e-01
5.181818182  7.658643690e-01  5.501364772e-01 -1.090216273e-01  1.151971176e-01 -1.090216273e-01  1.151971176e-01  7.658643690e-01  5.501364772e-01
5.185000000  7.679298650e-01  5.477162479e-01 -1.076603613e-01  1.141943193e-01 -1.076603613e-01  1.141943193e-01  7.679298650e-01  5.477162479e-01
5.190000000  7.711562794e-01  5.438933219e-01 -1.055359345e-01  1.126010532e-01 -1.055359345e-01  1.126010532e-01  7.711562794e-01  5.438933219e-01
5.195000000  7.743588320e-01  5.400464642e-01 -1.034296691e-01  1.109866147e-01 -1.034296691e-01  1.109866147e-01  7.743588320e-01  5.400464642e-01
5.200000000  7.775373036e-01  5.361758549e-01 -1.013417771e-01  1.093511696e-01 -1.013417771e-01  1.093511696e-01  7.775373036e-01  5.361758549e-01
5.205000000  7.806914771e-01  5.322816763e-01 -9.927246915e-02  1.076948859e-01 -9.927246915e-02  1.076948859e-01  7.806914771e-01  5.322816763e-01
5.210000000  7.838211342e-01  5.283641173e-01 -9.722195479e-02  1.060179335e-01 -9.722195479e-02  1.060179335e-01  7.838211342e-01  5.283641173e-01
5.215000000  7.869260594e-01  5.244233673e-01 -9.519044162e-02  1.043204849e-01 -9.519044162e-02  1.043204849e-01  7.869260594e-01  5.244233673e-01
5.220000000  7.900060447e-01  5.204596100e-01 -9.317813450e-02  1.026027162e-01 -9.317813450e-02  1.026027162e-01  7.900060447e-01  5.204596100e-01
5.225000000  7.930608794e-01  5.164730376e-01 -9.118523742e-02  1.008648049e-01 -9.118523742e-02  1.008648049e-01  7.930608794e-01  5.164730376e-01
5.230000000  7.960903548e-01  5.124638444e-01 -8.921195265e-02  9.910693075e-02 -8.921195265e-02  9.910693075e-02  7.960903548e-01  5.124638444e-01
5.235000000  7.990942639e-01  5.084322271e-01 -8.725848071e-02  9.732927600e-02 -8.725848071e-02  9.732927600e-02  7.990942639e-01  5.084322271e-01
5.240000000  8.020724015e-01  5.043783848e-01 -8.532502032e-02  9.553202505e-02 -8.532502032e-02  9.553202505e-02  8.020724015e-01  5.043783848e-01
5.245000000  8.050245642e-01  5.003025186e-01 -8.341176840e-02  9.371536457e-02 -8.341176840e-02  9.371536457e-02  8.050245642e-01  5.003025186e-01
5.250000000  8.079505507e-01  4.962048321e-01 -8.151892001e-02  9.187948352e-02 -8.151892001e-02  9.187948352e-02  8.079505507e-01  4.962048321e-01
5.255000000  8.108501615e-01  4.920855312e-01 -7.964666832e-02  9.002457306e-02 -7.964666832e-02  9.002457306e-02  8.108501615e-01  4.920855312e-01
5.260000000  8.137231988e-01  4.879448237e-01 -7.779520461e-02  8.815082654e-02 -7.779520461e-02  8.815082654e-02  8.137231988e-01  4.879448237e-01
5.265000000  8.165694538e-01  4.837829379e-01 -7.596472170e-02  8.625843584e-02 -7.596472170e-02  8.625843584e-02  8.165694538e-01  4.837829379e-01
5.270000000  8.193887465e-01  4.796000684e-01 -7.415540334e-02  8.434760253e-02 -7.415540334e-02  8.434760253e-02  8.193887465e-01  4.796000684e-01
5.275000000  8.221808855e-01  4.753964297e-01 -7.236743491e-02  8.241852646e-02 -7.236743491e-02  8.241852646e-02  8.221808855e-01  4.753964297e-01
5.280000000  8.249456812e-01  4.711722386e-01 -7.060099973e-02  8.047140956e-02 -7.060099973e-02  8.047140956e-02  8.249456812e-01  4.711722386e-01
5.285000000  8.276829462e-01  4.669277136e-01 -6.885627911e-02  7.850645590e-02 -6.885627911e-02  7.850645590e-02  8.276829462e-01  4.669277136e-01
5.290000000  8.303924953e-01  4.626630757e-01 -6.713345225e-02  7.652387156e-02 -6.713345225e-02  7.652387156e-02  8.303924953e-01  4.626630757e-01
5.295000000  8.330741452e-01  4.583785477e-01 -6.543269625e-02  7.452386471e-02 -6.543269625e-02  7.452386471e-02  8.330741452e-01  4.583785477e-01
5.300000000  8.357277151e-01  4.540743545e-01 -6.375418608e-02  7.250664551e-02 -6.375418608e-02  7.250664551e-02  8.357277151e-01  4.540743545e-01
5.305000000  8.383530260e-01  4.497507230e-01 -6.209809454e-02  7.047242611e-02 -6.209809454e-02  7.047242611e-02  8.383530260e-01  4.497507230e-01
5.310000000  8.409499016e-01  4.454078821e-01 -6.046459225e-02  6.842142065e-02 -6.046459225e-02  6.842142065e-02  8.409499016e-01  4.454078821e-01
5.315000000  8.435181622e-01  4.410460688e-01 -5.885384976e-02  6.635384306e-02 -5.885384976e-02  6.635384306e-02  8.435181622e-01  4.410460688e-01
5.320000000  8.460576380e-01  4.366655140e-01 -5.726603234e-02  6.426991222e-02 -5.726603234e-02  6.426991222e-02  8.460576380e-01  4.366655140e-01
5.325000000  8.485681629e-01  4.322664485e-01 -5.570130242e-02  6.216984942e-02 -5.570130242e-02  6.216984942e-02  8.485681629e-01  4.322664485e-01
5.330000000  8.510495694e-01  4.278491087e-01 -5.415982158e-02  6.005387639e-02 -5.415982158e-02  6.005387639e-02  8.510495694e-01  4.278491087e-01
5.335000000  8.535016926e-01  4.234137330e-01 -5.264174910e-02  5.792221668e-02 -5.264174910e-02  5.792221668e-02  8.535016926e-01  4.234137330e-01
5.340000000  8.559243697e-01  4.189605617e-01 -5.114724192e-02  5.577509563e-02 -5.114724192e-02  5.577509563e-02  8.559243697e-01  4.189605617e-01
5.345000000  8.583174406e-01  4.144898367e-01 -4.967645461e-02  5.361274038e-02 -4.967645461e-02  5.361274038e-02  8.583174406e-01  4.144898367e-01
5.350000000  8.606807473e-01  4.100018018e-01 -4.822953935e-02  5.143537981e-02 -4.822953935e-02  5.143537981e-02  8.606807473e-01  4.100018018e-01
5.355000000  8.630141346e-01  4.054967024e-01 -4.680664593e-02  4.924324449e-02 -4.680664593e-02  4.924324449e-02  8.630141346e-01  4.054967024e-01
5.360000000  8.653174495e-01  4.009747857e-01 -4.540792166e-02  4.703656671e-02 -4.540792166e-02  4.703656671e-02  8.653174495e-01  4.009747857e-01
5.365000000  8.675905419e-01  3.964362996e-01 -4.403351178e-02  4.481558011e-02 -4.403351178e-02  4.481558011e-02  8.675905419e-01  3.964362996e-01
5.370000000  8.698332648e-01  3.918814920e-01 -4.268355958e-02  4.258051942e-02 -4.268355958e-02  4.258051942e-02  8.698332648e-01  3.918814920e-01
5.375000000  8.720454720e-01  3.873106187e-01 -4.135820358e-02  4.033162303e-02 -4.135820358e-02  4.033162303e-02  8.720454720e-01  3.873106187e-01
5.380000000  8.742270207e-01  3.827239333e-01 -4.005758117e-02  3.806912967e-02 -4.005758117e-02  3.806912967e-02  8.742270207e-01  3.827239333e-01
5.385000000  8.763777706e-01  3.781216911e-01 -3.878182718e-02  3.579327958e-02 -3.878182718e-02  3.579327958e-02  8.763777706e-01  3.781216911e-01
5.390000000  8.784975843e-01  3.735041487e-01 -3.753107389e-02  3.350431453e-02 -3.753107389e-02  3.350431453e-02  8.784975843e-01  3.735041487e-01
5.395000000  8.805863266e-01  3.688715644e-01 -3.630545100e-02  3.120247774e-02 -3.630545100e-02  3.120247774e-02  8.805863266e-01  3.688715644e-01
5.400000000  8.826438652e-01  3.642241978e-01 -3.510508561e-02  2.888801390e-02 -3.510508561e-02  2.888801390e-02  8.826438652e-01  3.642241978e-01
5.405000000  8.846700703e-01  3.595623101e-01 -3.393010219e-02  2.656116907e-02 -3.393010219e-02  2.656116907e-02  8.846700703e-01  3.595623101e-01
5.410000000  8.866648150e-01  3.548861636e-01 -3.278062258e-02  2.422219071e-02 -3.278062258e-02  2.422219071e-02  8.866648150e-01  3.548861636e-01
5.415000000  8.886279749e-01  3.501960223e-01 -3.165676599e-02  2.187132761e-02 -3.165676599e-02  2.187132761e-02  8.886279749e-01  3.501960223e-01
5.420000000  8.905594314e-01  3.454921444e-01 -3.055864906e-02  1.950882979e-02 -3.055864906e-02  1.950882979e-02  8.905594314e-01  3.454921444e-01
5.425000000  8.924590634e-01  3.407748016e-01 -2.948638549e-02  1.713494868e-02 -2.948638549e-02  1.713494868e-02  8.924590634e-01  3.407748016e-01
5.430000000  8.943267539e-01  3.360442630e-01 -2.844008636e-02  1.474993693e-02 -2.844008636e-02  1.474993693e-02  8.943267539e-01  3.360442630e-01
5.435000000  8.961623896e-01  3.313007977e-01 -2.741986006e-02  1.235404836e-02 -2.741986006e-02  1.235404836e-02  8.961623896e-01  3.313007977e-01
5.440000000  8.979658597e-01  3.265446757e-01 -2.642581227e-02  9.947537951e-03 -2.642581227e-02  9.947537951e-03  8.979658597e-01  3.265446757e-01
5.445000000  8.997370565e-01  3.217761682e-01 -2.545804590e-02  7.530661846e-03 -2.545804590e-02  7.530661846e-03  8.997370565e-01  3.217761682e-01
5.450000000  9.014758749e-01  3.169955476e-01 -2.451666109e-02  5.103677278e-03 -2.451666109e-02  5.103677278e-03  9.014758749e-01  3.169955476e-01
5.455000000  9.031822126e-01  3.122030873e-01 -2.360175523e-02  2.666842552e-03 -2.360175523e-02  2.666842552e-03  9.031822126e-01  3.122030873e-01
5.460000000  9.048559703e-01  3.073990618e-01 -2.271342288e-02  2.204170046e-04 -2.271342288e-02  2.204170046e-04  9.048559703e-01  3.073990618e-01
5.465000000  9.064970514e-01  3.025837464e-01 -2.185175583e-02 -2.235339029e-03 -2.185175583e-02 -2.235339029e-03  9.064970514e-01  3.025837464e-01
5.470000000  9.081053614e-01  2.977574198e-01 -2.101684303e-02 -4.700164280e-03 -2.101684303e-02 -4.700164280e-03  9.081053614e-01  2.977574198e-01
5.475000000  9.096808092e-01  2.929203600e-01 -2.020877059e-02 -7.173796534e-03 -2.020877059e-02 -7.173796534e-03  9.096808092e-01  2.929203600e-01
5.480000000  9.112233078e-01  2.880728427e-01 -1.942762181e-02 -9.655972632e-03 -1.942762181e-02 -9.655972632e-03  9.112233078e-01  2.880728427e-01
5.485000000  9.127327723e-01  2.832151468e-01 -1.867347711e-02 -1.214642860e-02 -1.867347711e-02 -1.214642860e-02  9.127327723e-01  2.832151468e-01
5.490000000  9.142091205e-01  2.783475525e-01 -1.794641410e-02 -1.464489965e-02 -1.794641410e-02 -1.464489965e-02  9.142091205e-01  2.783475525e-01
5.495000000  9.156522731e-01  2.734703404e-01 -1.724650747e-02 -1.715112021e-02 -1.724650747e-02 -1.715112021e-02  9.156522731e-01  2.734703404e-01
5.500000000  9.170621536e-01  2.685837921e-01 -1.657382905e-02 -1.966482396e-02 -1.657382905e-02 -1.966482396e-02  9.170621536e-01  2.685837921e-01
5.505000000  9.184386888e-01  2.636881899e-01 -1.592844779e-02 -2.218574387e-02 -1.592844779e-02 -2.218574387e-02  9.184386888e-01  2.636881899e-01
5.510000000  9.197818080e-01  2.587838167e-01 -1.531042975e-02 -2.471361224e-02 -1.531042975e-02 -2.471361224e-02  9.197818080e-01  2.587838167e-01
5.515000000  9.210914438e-01  2.538709560e-01 -1.471983807e-02 -2.724816072e-02 -1.471983807e-02 -2.724816072e-02  9.210914438e-01  2.538709560e-01
5.520000000  9.223675315e-01  2.489498921e-01 -1.415673298e-02 -2.978912038e-02 -1.415673298e-02 -2.978912038e-02  9.223675315e-01  2.489498921e-01
5.525000000  9.236100062e-01  2.440209242e-01 -1.362117121e-02 -3.233622199e-02 -1.362117121e-02 -3.233622199e-02  9.236100062e-01  2.440209242e-01
5.530000000  9.248188126e-01  2.390843232e-01 -1.311320767e-02 -3.488919524e-02 -1.311320767e-02 -3.488919524e-02  9.248188126e-01  2.390843232e-01
5.535000000  9.259938951e-01  2.341403749e-01 -1.263289383e-02 -3.744776960e-02 -1.263289383e-02 -3.744776960e-02  9.259938951e-01  2.341403749e-01
5.540000000  9.271352008e-01  2.291893655e-01 -1.218027824e-02 -4.001167411e-02 -1.218027824e-02 -4.001167411e-02  9.271352008e-01  2.291893655e-01
5.545000000  9.282426799e-01  2.242315817e-01 -1.175540652e-02 -4.258063738e-02 -1.175540652e-02 -4.258063738e-02  9.282426799e-01  2.242315817e-01
5.545454545  9.283416808e-01  2.237805481e-01 -1.171815904e-02 -4.281442095e-02 -1.171815904e-02 -4.281442095e-02  9.283416808e-01  2.237805481e-01
5.550000000  9.293162850e-01  2.192673216e-01 -1.135832039e-02 -4.515438798e-02 -1.135832039e-02 -4.515438798e-02  9.293162850e-01  2.192673216e-01
5.555000000  9.303559731e-01  2.142968627e-01 -1.098906031e-02 -4.773265351e-02 -1.098906031e-02 -4.773265351e-02  9.303559731e-01  2.142968627e-01
5.560000000  9.313617032e-01  2.093204917e-01 -1.064766318e-02 -5.031516155e-02 -1.064766318e-02 -5.031516155e-02  9.313617032e-01  2.093204917e-01
5.565000000  9.323334377e-01  2.043384965e-01 -1.033416282e-02 -5.290163941e-02 -1.033416282e-02 -5.290163941e-02  9.323334377e-01  2.043384965e-01
5.570000000  9.332711415e-01  1.993511655e-01 -1.004859015e-02 -5.549181420e-02 -1.004859015e-02 -5.549181420e-02  9.332711415e-01  1.993511655e-01
5.575000000  9.341747849e-01  1.943587949e-01 -9.790971691e-03 -5.808541329e-02 -9.790971691e-03 -5.808541329e-02  9.341747849e-01  1.943587949e-01
5.580000000  9.350443387e-01  1.893616707e-01 -9.561332758e-03 -6.068216330e-02 -9.561332758e-03 -6.068216330e-02  9.350443387e-01  1.893616707e-01
5.585000000  9.358797755e-01  1.843600763e-01 -9.359696305e-03 -6.328179058e-02 -9.359696305e-03 -6.328179058e-02  9.358797755e-01  1.843600763e-01
5.590000000  9.366810724e-01  1.793543008e-01 -9.186081440e-03 -6.588402168e-02 -9.186081440e-03 -6.588402168e-02  9.366810724e-01  1.793543008e-01
5.595000000  9.374482094e-01  1.743446328e-01 -9.040504332e-03 -6.848858312e-02 -9.040504332e-03 -6.848858312e-02  9.374482094e-01  1.743446328e-01
5.600000000  9.381811695e-01  1.693313614e-01 -8.922978202e-03 -7.109520140e-02 -8.922978202e-03 -7.109520140e-02  9.381811695e-01  1.693313614e-01
5.605000000  9.388799386e-01  1.643147753e-01 -8.833513335e-03 -7.370360307e-02 -8.833513335e-03 -7.370360307e-02  9.388799386e-01  1.643147753e-01
5.610000000  9.395445058e-01  1.592951635e-01 -8.772117078e-03 -7.631351473e-02 -8.772117078e-03 -7.631351473e-02  9.395445058e-01  1.592951635e-01
5.615000000  9.401748630e-01  1.542728145e-01 -8.738793843e-03 -7.892466308e-02 -8.738793843e-03 -7.892466308e-02  9.401748630e-01  1.542728145e-01
5.620000000  9.407710050e-01  1.492480171e-01 -8.733545116e-03 -8.153677497e-02 -8.733545116e-03 -8.153677497e-02  9.407710050e-01  1.492480171e-01
5.625000000  9.413329320e-01  1.442210596e-01 -8.756368795e-03 -8.414957766e-02 -8.756368795e-03 -8.414957766e-02  9.413329320e-01  1.442210596e-01
5.630000000  9.418606516e-01  1.391922308e-01 -8.807258426e-03 -8.676279920e-02 -8.807258426e-03 -8.676279920e-02  9.418606516e-01  1.391922308e-01
5.635000000  9.423541590e-01  1.341618179e-01 -8.886209300e-03 -8.937616611e-02 -8.886209300e-03 -8.937616611e-02  9.423541590e-01  1.341618179e-01
5.640000000  9.428134609e-01  1.291301087e-01 -8.993211236e-03 -9.198940615e-02 -8.993211236e-03 -9.198940615e-02  9.428134609e-01  1.291301087e-01
5.645000000  9.432385668e-01  1.240973906e-01 -9.128251155e-03 -9.460224743e-02 -9.128251155e-03 -9.460224743e-02  9.432385668e-01  1.240973906e-01
5.650000000  9.436294895e-01  1.190639506e-01 -9.291313087e-03 -9.721441838e-02 -9.291313087e-03 -9.721441838e-02  9.436294895e-01  1.190639506e-01
5.655000000  9.439862443e-01  1.140300753e-01 -9.482378172e-03 -9.982564786e-02 -9.482378172e-03 -9.982564786e-02  9.439862443e-01  1.140300753e-01
5.660000000  9.443088497e-01  1.089960510e-01 -9.701424676e-03 -1.024356651e-01 -9.701424676e-03 -1.024356651e-01  9.443088497e-01  1.089960510e-01
5.665000000  9.445973270e-01  1.039621634e-01 -9.948427995e-03 -1.050441999e-01 -9.948427995e-03 -1.050441999e-01  9.445973270e-01  1.039621634e-01
5.670000000  9.448517005e-01  9.892869782e-02 -1.022336067e-02 -1.076509824e-01 -1.022336067e-02 -1.076509824e-01  9.448517005e-01  9.892869782e-02
5.675000000  9.450719972e-01  9.389593900e-02 -1.052619238e-02 -1.102557434e-01 -1.052619238e-02 -1.102557434e-01  9.450719972e-01  9.389593900e-02
5.680000000  9.452582536e-01  8.886416153e-02 -1.085688932e-02 -1.128582147e-01 -1.085688932e-02 -1.128582147e-01  9.452582536e-01  8.886416153e-02
5.685000000  9.454104978e-01  8.383365616e-02 -1.121541598e-02 -1.154581280e-01 -1.121541598e-02 -1.154581280e-01  9.454104978e-01  8.383365616e-02
5.690000000  9.455287639e-01  7.880470824e-02 -1.160173373e-02 -1.180552156e-01 -1.160173373e-02 -1.180552156e-01  9.455287639e-01  7.880470824e-02
5.695000000  9.456130905e-01  7.377760008e-02 -1.201580096e-02 -1.206492107e-01 -1.201580096e-02 -1.206492107e-01  9.456130905e-01  7.377760008e-02
5.700000000  9.456635188e-01  6.875261329e-02 -1.245757330e-02 -1.232398474e-01 -1.245757330e-02 -1.232398474e-01  9.456635188e-01  6.875261329e-02
5.705000000  9.456800932e-01  6.373002874e-02 -1.292700355e-02 -1.258268603e-01 -1.292700355e-02 -1.258268603e-01  9.456800932e-01  6.373002874e-02
5.710000000  9.456628606e-01  5.871012656e-02 -1.342404179e-02 -1.284099848e-01 -1.342404179e-02 -1.284099848e-01  9.456628606e-01  5.871012656e-02
5.715000000  9.456118708e-01  5.369318606e-02 -1.394863531e-02 -1.309889572e-01 -1.394863531e-02 -1.309889572e-01  9.456118708e-01  5.369318606e-02
5.720000000  9.455271764e-01  4.867948573e-02 -1.450072868e-02 -1.335635146e-01 -1.450072868e-02 -1.335635146e-01  9.455271764e-01  4.867948573e-02
5.725000000  9.454088327e-01  4.366930320e-02 -1.508026375e-02 -1.361333948e-01 -1.508026375e-02 -1.361333948e-01  9.454088327e-01  4.366930320e-02
5.730000000  9.452568976e-01  3.866291410e-02 -1.568717988e-02 -1.386983367e-01 -1.568717988e-02 -1.386983367e-01  9.452568976e-01  3.866291410e-02
5.735000000  9.450714317e-01  3.366059371e-02 -1.632141363e-02 -1.412580798e-01 -1.632141363e-02 -1.412580798e-01  9.450714317e-01  3.366059371e-02
5.740000000  9.448524989e-01  2.866261852e-02 -1.698289840e-02 -1.438123651e-01 -1.698289840e-02 -1.438123651e-01  9.448524989e-01  2.866261852e-02
5.745000000  9.446001655e-01  2.366926238e-02 -1.767156530e-02 -1.463609345e-01 -1.767156530e-02 -1.463609345e-01  9.446001655e-01  2.366926238e-02
5.750000000  9.443145004e-01  1.868079814e-02 -1.838734277e-02 -1.489035307e-01 -1.838734277e-02 -1.489035307e-01  9.443145004e-01  1.868079814e-02
5.755000000  9.439955751e-01  1.369749757e-02 -1.913015663e-02 -1.514398975e-01 -1.913015663e-02 -1.514398975e-01  9.439955751e-01  1.369749757e-02
5.760000000  9.436434640e-01  8.719631367e-03 -1.989993008e-02 -1.539697798e-01 -1.989993008e-02 -1.539697798e-01  9.436434640e-01  8.719631367e-03
5.765000000  9.432582438e-01  3.747469129e-03 -2.069658374e-02 -1.564929237e-01 -2.069658374e-02 -1.564929237e-01  9.432582438e-01  3.747469129e-03
5.770000000  9.428399941e-01 -1.218720707e-03 -2.152003563e-02 -1.590090763e-01 -2.152003563e-02 -1.590090763e-01  9.428399941e-01 -1.218720707e-03
5.775000000  9.423887969e-01 -6.178670868e-03 -2.237020126e-02 -1.615179861e-01 -2.237020126e-02 -1.615179861e-01  9.423887969e-01 -6.178670868e-03
5.780000000  9.419047369e-01 -1.113211529e-02 -2.324699355e-02 -1.640194026e-01 -2.324699355e-02 -1.640194026e-01  9.419047369e-01 -1.113211529e-02
5.785000000  9.413879015e-01 -1.607877283e-02 -2.415032006e-02 -1.665130770e-01 -2.415032006e-02 -1.665130770e-01  9.413879015e-01 -1.607877283e-02
5.790000000  9.408383804e-01 -2.101839623e-02 -2.508009151e-02 -1.689987610e-01 -2.508009151e-02 -1.689987610e-01  9.408383804e-01 -2.101839623e-02
5.795000000  9.402562660e-01 -2.595072321e-02 -2.603621334e-02 -1.714762080e-01 -2.603621334e-02 -1.714762080e-01  9.402562660e-01 -2.595072321e-02
5.800000000  9.396416528e-01 -3.087549278e-02 -2.701858853e-02 -1.739451727e-01 -2.701858853e-02 -1.739451727e-01  9.396416528e-01 -3.087549278e-02
5.805000000  9.389946382e-01 -3.579244532e-02 -2.802711765e-02 -1.764054111e-01 -2.802711765e-02 -1.764054111e-01  9.389946382e-01 -3.579244532e-02
5.810000000  9.383153219e-01 -4.070132258e-02 -2.906169882e-02 -1.788566806e-01 -2.906169882e-02 -1.788566806e-01  9.383153219e-01 -4.070132258e-02
5.815000000  9.376038060e-01 -4.560186768e-02 -3.012222780e-02 -1.812987400e-01 -3.012222780e-02 -1.812987400e-01  9.376038060e-01 -4.560186768e-02
5.820000000  9.368601950e-01 -5.049382519e-02 -3.120859795e-02 -1.837313496e-01 -3.120859795e-02 -1.837313496e-01  9.368601950e-01 -5.049382519e-02
5.825000000  9.360845958e-01 -5.537694112e-02 -3.232070029e-02 -1.861542711e-01 -3.232070029e-02 -1.861542711e-01  9.360845958e-01 -5.537694112e-02
5.830000000  9.352771177e-01 -6.025096296e-02 -3.345842351e-02 -1.885672676e-01 -3.345842351e-02 -1.885672676e-01  9.352771177e-01 -6.025096296e-02
5.835000000  9.344378801e-01 -6.511562808e-02 -3.462164922e-02 -1.909701062e-01 -3.462164922e-02 -1.909701062e-01  9.344378801e-01 -6.511562808e-02
5.840000000  9.335669947e-01 -6.997069104e-02 -3.581026300e-02 -1.933625526e-01 -3.581026300e-02 -1.933625526e-01  9.335669947e-01 -6.997069104e-02
5.845000000  9.326645726e-01 -7.481591169e-02 -3.702414987e-02 -1.957443728e-01 -3.702414987e-02 -1.957443728e-01  9.326645726e-01 -7.481591169e-02
5.850000000  9.317307323e-01 -7.965104365e-02 -3.826318944e-02 -1.981153363e-01 -3.826318944e-02 -1.981153363e-01  9.317307323e-01 -7.965104365e-02
5.855000000  9.307655947e-01 -8.447584218e-02 -3.952725912e-02 -2.004752140e-01 -3.952725912e-02 -2.004752140e-01  9.307655947e-01 -8.447584218e-02
5.860000000  9.297692827e-01 -8.929006412e-02 -4.081623413e-02 -2.028237785e-01 -4.081623413e-02 -2.028237785e-01  9.297692827e-01 -8.929006412e-02
5.865000000  9.287419215e-01 -9.409346798e-02 -4.212998753e-02 -2.051608039e-01 -4.212998753e-02 -2.051608039e-01  9.287419215e-01 -9.409346798e-02
5.870000000  9.276836385e-01 -9.888581394e-02 -4.346839022e-02 -2.074860663e-01 -4.346839022e-02 -2.074860663e-01  9.276836385e-01 -9.888581394e-02
5.875000000  9.265945631e-01 -1.036668638e-01 -4.483131103e-02 -2.097993430e-01 -4.483131103e-02 -2.097993430e-01  9.265945631e-01 -1.036668638e-01
5.880000000  9.254748271e-01 -1.084363812e-01 -4.621861666e-02 -2.121004136e-01 -4.621861666e-02 -2.121004136e-01  9.254748271e-01 -1.084363812e-01
5.885000000  9.243245675e-01 -1.131941307e-01 -4.763017048e-02 -2.143890598e-01 -4.763017048e-02 -2.143890598e-01  9.243245675e-01 -1.131941307e-01
5.890000000  9.231439299e-01 -1.179398774e-01 -4.906583120e-02 -2.166650677e-01 -4.906583120e-02 -2.166650677e-01  9.231439299e-01 -1.179398774e-01
5.895000000  9.219330394e-01 -1.226733930e-01 -5.052546459e-02 -2.189282179e-01 -5.052546459e-02 -2.189282179e-01  9.219330394e-01 -1.226733930e-01
5.900000000  9.206920357e-01 -1.273944481e-01 -5.200892927e-02 -2.211782967e-01 -5.200892927e-02 -2.211782967e-01  9.206920357e-01 -1.273944481e-01
5.905000000  9.194210609e-01 -1.321028152e-01 -5.351608192e-02 -2.234150924e-01 -5.351608192e-02 -2.234150924e-01  9.194210609e-01 -1.321028152e-01
5.909090909  9.183589802e-01 -1.359455203e-01 -5.476672452e-02 -2.252351711e-01 -5.476672452e-02 -2.252351711e-01  9.183589802e-01 -1.359455203e-01
5.910000000  9.181202605e-01 -1.367982694e-01 -5.504677677e-02 -2.256383954e-01 -5.504677677e-02 -2.256383954e-01  9.181202605e-01 -1.367982694e-01
5.915000000  9.167897871e-01 -1.414805901e-01 -5.660086491e-02 -2.278479994e-01 -5.660086491e-02 -2.278479994e-01  9.167897871e-01 -1.414805901e-01
5.920000000  9.154297800e-01 -1.461495513e-01 -5.817819955e-02 -2.300436960e-01 -5.817819955e-02 -2.300436960e-01  9.154297800e-01 -1.461495513e-01
5.925000000  9.140403887e-01 -1.508049327e-01 -5.977862980e-02 -2.322252806e-01 -5.977862980e-02 -2.322252806e-01  9.140403887e-01 -1.508049327e-01
5.930000000  9.126217647e-01 -1.554465162e-01 -6.140200294e-02 -2.343925509e-01 -6.140200294e-02 -2.343925509e-01  9.126217647e-01 -1.554465162e-01
5.935000000  9.111740613e-01 -1.600740854e-01 -6.304816446e-02 -2.365453063e-01 -6.304816446e-02 -2.365453063e-01  9.111740613e-01 -1.600740854e-01
5.940000000  9.096974406e-01 -1.646874363e-01 -6.471695745e-02 -2.386833494e-01 -6.471695745e-02 -2.386833494e-01  9.096974406e-01 -1.646874363e-01
5.945000000  9.081920542e-01 -1.692863486e-01 -6.640822438e-02 -2.408064826e-01 -6.640822438e-02 -2.408064826e-01  9.081920542e-01 -1.692863486e-01
5.950000000  9.066580591e-01 -1.738706095e-01 -6.812180566e-02 -2.429145109e-01 -6.812180566e-02 -2.429145109e-01  9.066580591e-01 -1.738706095e-01
5.955000000  9.050956157e-01 -1.784400104e-01 -6.985753988e-02 -2.450072416e-01 -6.985753988e-02 -2.450072416e-01  9.050956157e-01 -1.784400104e-01
5.960000000  9.035048859e-01 -1.829943448e-01 -7.161526394e-02 -2.470844840e-01 -7.161526394e-02 -2.470844840e-01  9.035048859e-01 -1.829943448e-01
5.965000000  9.018860334e-01 -1.875334084e-01 -7.339481314e-02 -2.491460494e-01 -7.339481314e-02 -2.491460494e-01  9.018860334e-01 -1.875334084e-01
5.970000000  9.002392238e-01 -1.920569985e-01 -7.519602116e-02 -2.511917511e-01 -7.519602116e-02 -2.511917511e-01  9.002392238e-01 -1.920569985e-01
5.975000000  8.985646239e-01 -1.965649149e-01 -7.701872012e-02 -2.532214044e-01 -7.701872012e-02 -2.532214044e-01  8.985646239e-01 -1.965649149e-01
5.980000000  8.968624023e-01 -2.010569591e-01 -7.886274059e-02 -2.552348268e-01 -7.886274059e-02 -2.552348268e-01  8.968624023e-01 -2.010569591e-01
5.985000000  8.951327291e-01 -2.055329349e-01 -8.072791160e-02 -2.572318377e-01 -8.072791160e-02 -2.572318377e-01  8.951327291e-01 -2.055329349e-01
5.990000000  8.933757757e-01 -2.099926516e-01 -8.261406135e-02 -2.592122579e-01 -8.261406135e-02 -2.592122579e-01  8.933757757e-01 -2.099926516e-01
5.995000000  8.915917152e-01 -2.144359187e-01 -8.452101625e-02 -2.611759103e-01 -8.452101625e-02 -2.611759103e-01  8.915917152e-01 -2.144359187e-01
6.000000000  8.897807224e-01 -2.188625408e-01 -8.644860000e-02 -2.631226222e-01 -8.644860000e-02 -2.631226222e-01  8.897807224e-01 -2.188625408e-01
6.005000000  8.879429735e-01 -2.232723302e-01 -8.839663587e-02 -2.650522214e-01 -8.839663587e-02 -2.650522214e-01  8.879429735e-01 -2.232723302e-01
6.010000000  8.860786459e-01 -2.276651010e-01 -9.036494576e-02 -2.669645379e-01 -9.036494576e-02 -2.669645379e-01  8.860786459e-01 -2.276651010e-01
6.015000000  8.841879184e-01 -2.320406694e-01 -9.235335020e-02 -2.688594037e-01 -9.235335020e-02 -2.688594037e-01  8.841879184e-01 -2.320406694e-01
6.020000000  8.822709714e-01 -2.363988541e-01 -9.436166843e-02 -2.707366532e-01 -9.436166843e-02 -2.707366532e-01  8.822709714e-01 -2.363988541e-01
6.025000000  8.803279862e-01 -2.407394755e-01 -9.638971838e-02 -2.725961227e-01 -9.638971838e-02 -2.725961227e-01  8.803279862e-01 -2.407394755e-01
6.030000000  8.783591458e-01 -2.450623565e-01 -9.843731674e-02 -2.744376509e-01 -9.843731674e-02 -2.744376509e-01  8.783591458e-01 -2.450623565e-01
6.035000000  8.763646342e-01 -2.493673220e-01 -1.005042789e-01 -2.762610783e-01 -1.005042789e-01 -2.762610783e-01  8.763646342e-01 -2.493673220e-01
6.040000000  8.743446368e-01 -2.536541991e-01 -1.025904193e-01 -2.780662481e-01 -1.025904193e-01 -2.780662481e-01  8.743446368e-01 -2.536541991e-01
6.045000000  8.722993389e-01 -2.579228058e-01 -1.046955485e-01 -2.798530038e-01 -1.046955485e-01 -2.798530038e-01  8.722993389e-01 -2.579228058e-01
6.050000000  8.702289294e-01 -2.621729849e-01 -1.068194807e-01 -2.816211941e-01 -1.068194807e-01 -2.816211941e-01  8.702289294e-01 -2.621729849e-01
6.055000000  8.681335974e-01 -2.664045699e-01 -1.089620268e-01 -2.833706684e-01 -1.089620268e-01 -2.833706684e-01  8.681335974e-01 -2.664045699e-01
6.060000000  8.660135329e-01 -2.706173970e-01 -1.111229965e-01 -2.851012785e-01 -1.111229965e-01 -2.851012785e-01  8.660135329e-01 -2.706173970e-01
6.065000000  8.638689269e-01 -2.748113040e-01 -1.133021984e-01 -2.868128782e-01 -1.133021984e-01 -2.868128782e-01  8.638689269e-01 -2.748113040e-01
6.070000000  8.616999717e-01 -2.789861313e-01 -1.154994402e-01 -2.885053236e-01 -1.154994402e-01 -2.885053236e-01  8.616999717e-01 -2.789861313e-01
6.075000000  8.595068604e-01 -2.831417215e-01 -1.177145285e-01 -2.901784730e-01 -1.177145285e-01 -2.901784730e-01  8.595068604e-01 -2.831417215e-01
6.080000000  8.572897872e-01 -2.872779192e-01 -1.199472690e-01 -2.918321869e-01 -1.199472690e-01 -2.918321869e-01  8.572897872e-01 -2.872779192e-01
6.085000000  8.550489475e-01 -2.913945714e-01 -1.221974665e-01 -2.934663281e-01 -1.221974665e-01 -2.934663281e-01  8.550489475e-01 -2.913945714e-01
6.090000000  8.527845373e-01 -2.954915273e-01 -1.244649247e-01 -2.950807616e-01 -1.244649247e-01 -2.950807616e-01  8.527845373e-01 -2.954915273e-01
6.095000000  8.504967624e-01 -2.995686283e-01 -1.267494416e-01 -2.966753591e-01 -1.267494416e-01 -2.966753591e-01  8.504967624e-01 -2.995686283e-01
6.100000000  8.481858182e-01 -3.036257315e-01 -1.290508209e-01 -2.982499886e-01 -1.290508209e-01 -2.982499886e-01  8.481858182e-01 -3.036257315e-01
6.105000000  8.458518977e-01 -3.076626996e-01 -1.313688671e-01 -2.998045190e-01 -1.313688671e-01 -2.998045190e-01  8.458518977e-01 -3.076626996e-01
6.110000000  8.434952004e-01 -3.116793908e-01 -1.337033808e-01 -3.013388241e-01 -1.337033808e-01 -3.013388241e-01  8.434952004e-01 -3.116793908e-01
6.115000000  8.411159270e-01 -3.156756653e-01 -1.360541616e-01 -3.028527801e-01 -1.360541616e-01 -3.028527801e-01  8.411159270e-01 -3.156756653e-01
6.120000000  8.387142786e-01 -3.196513859e-01 -1.384210084e-01 -3.043462654e-01 -1.384210084e-01 -3.043462654e-01  8.387142786e-01 -3.196513859e-01
6.125000000  8.362904574e-01 -3.236064173e-01 -1.408037194e-01 -3.058191606e-01 -1.408037194e-01 -3.058191606e-01  8.362904574e-01 -3.236064173e-01
6.130000000  8.338446661e-01 -3.275406268e-01 -1.432020921e-01 -3.072713486e-01 -1.432020921e-01 -3.072713486e-01  8.338446661e-01 -3.275406268e-01
6.135000000  8.313771082e-01 -3.314538836e-01 -1.456159234e-01 -3.087027146e-01 -1.456159234e-01 -3.087027146e-01  8.313771082e-01 -3.314538836e-01
6.140000000  8.288879878e-01 -3.353460592e-01 -1.480450095e-01 -3.101131460e-01 -1.480450095e-01 -3.101131460e-01  8.288879878e-01 -3.353460592e-01
6.145000000  8.263775151e-01 -3.392170279e-01 -1.504891443e-01 -3.115025351e-01 -1.504891443e-01 -3.115025351e-01  8.263775151e-01 -3.392170279e-01
6.150000000  8.238459120e-01 -3.430666667e-01 -1.529481183e-01 -3.128707822e-01 -1.529481183e-01 -3.128707822e-01  8.238459120e-01 -3.430666667e-01
6.155000000  8.212933626e-01 -3.468948530e-01 -1.554217324e-01 -3.142177706e-01 -1.554217324e-01 -3.142177706e-01  8.212933626e-01 -3.468948530e-01
6.160000000  8.187200737e-01 -3.507014673e-01 -1.579097804e-01 -3.155433965e-01 -1.579097804e-01 -3.155433965e-01  8.187200737e-01 -3.507014673e-01
6.165000000  8.161262522e-01 -3.544863925e-01 -1.604120559e-01 -3.168475585e-01 -1.604120559e-01 -3.168475585e-01  8.161262522e-01 -3.544863925e-01
6.170000000  8.135121057e-01 -3.582495137e-01 -1.629283518e-01 -3.181301573e-01 -1.629283518e-01 -3.181301573e-01  8.135121057e-01 -3.582495137e-01
6.175000000  8.108778424e-01 -3.619907180e-01 -1.654584607e-01 -3.193910962e-01 -1.654584607e-01 -3.193910962e-01  8.108778424e-01 -3.619907180e-01
6.180000000  8.082236708e-01 -3.657098949e-01 -1.680021746e-01 -3.206302802e-01 -1.680021746e-01 -3.206302802e-01  8.082236708e-01 -3.657098949e-01
6.185000000  8.055498000e-01 -3.694069363e-01 -1.705592853e-01 -3.218476169e-01 -1.705592853e-01 -3.218476169e-01  8.055498000e-01 -3.694069363e-01
6.190000000  8.028564391e-01 -3.730817360e-01 -1.731295842e-01 -3.230430160e-01 -1.731295842e-01 -3.230430160e-01  8.028564391e-01 -3.730817360e-01
6.195000000  8.001437982e-01 -3.767341902e-01 -1.757128621e-01 -3.242163895e-01 -1.757128621e-01 -3.242163895e-01  8.001437982e-01 -3.767341902e-01
6.200000000  7.974121029e-01 -3.803642130e-01 -1.783089086e-01 -3.253676579e-01 -1.783089086e-01 -3.253676579e-01  7.974121029e-01 -3.803642130e-01
6.205000000  7.946615520e-01 -3.839716934e-01 -1.809175150e-01 -3.264967328e-01 -1.809175150e-01 -3.264967328e-01  7.946615520e-01 -3.839716934e-01
6.210000000  7.918923522e-01 -3.875565302e-01 -1.835384720e-01 -3.276035312e-01 -1.835384720e-01 -3.276035312e-01  7.918923522e-01 -3.875565302e-01
6.215000000  7.891047147e-01 -3.911186285e-01 -1.861715693e-01 -3.286879739e-01 -1.861715693e-01 -3.286879739e-01  7.891047147e-01 -3.911186285e-01
6.220000000  7.862988506e-01 -3.946578954e-01 -1.888165967e-01 -3.297499837e-01 -1.888165967e-01 -3.297499837e-01  7.862988506e-01 -3.946578954e-01
6.225000000  7.834749716e-01 -3.981742404e-01 -1.914733436e-01 -3.307894859e-01 -1.914733436e-01 -3.307894859e-01  7.834749716e-01 -3.981742404e-01
6.230000000  7.806332893e-01 -4.016675749e-01 -1.941415993e-01 -3.318064076e-01 -1.941415993e-01 -3.318064076e-01  7.806332893e-01 -4.016675749e-01
6.235000000  7.777740156e-01 -4.051378128e-01 -1.968211531e-01 -3.328006785e-01 -1.968211531e-01 -3.328006785e-01  7.777740156e-01 -4.051378128e-01
6.240000000  7.748973626e-01 -4.085848699e-01 -1.995117940e-01 -3.337722302e-01 -1.995117940e-01 -3.337722302e-01  7.748973626e-01 -4.085848699e-01
6.245000000  7.720035424e-01 -4.120086643e-01 -2.022133109e-01 -3.347209964e-01 -2.022133109e-01 -3.347209964e-01  7.720035424e-01 -4.120086643e-01
6.250000000  7.690927686e-01 -4.154091215e-01 -2.049254932e-01 -3.356469125e-01 -2.049254932e-01 -3.356469125e-01  7.690927686e-01 -4.154091215e-01
6.255000000  7.661652540e-01 -4.187861663e-01 -2.076481300e-01 -3.365499160e-01 -2.076481300e-01 -3.365499160e-01  7.661652540e-01 -4.187861663e-01
6.260000000  7.632212095e-01 -4.221397156e-01 -2.103810093e-01 -3.374299483e-01 -2.103810093e-01 -3.374299483e-01  7.632212095e-01 -4.221397156e-01
6.265000000  7.602608474e-01 -4.254696959e-01 -2.131239201e-01 -3.382869520e-01 -2.131239201e-01 -3.382869520e-01  7.602608474e-01 -4.254696959e-01
6.270000000  7.572843804e-01 -4.287760361e-01 -2.158766511e-01 -3.391208714e-01 -2.158766511e-01 -3.391208714e-01  7.572843804e-01 -4.287760361e-01
6.272727273  7.556541408e-01 -4.305695056e-01 -2.173822044e-01 -3.395659877e-01 -2.173822044e-01 -3.395659877e-01  7.556541408e-01 -4.305695056e-01
6.275000000  7.542920195e-01 -4.320586680e-01 -2.186389913e-01 -3.399316514e-01 -2.186389913e-01 -3.399316514e-01  7.542920195e-01 -4.320586680e-01
6.280000000  7.512839772e-01 -4.353175245e-01 -2.214107295e-01 -3.407192403e-01 -2.214107295e-01 -3.407192403e-01  7.512839772e-01 -4.353175245e-01
6.285000000  7.482604673e-01 -4.385525399e-01 -2.241916548e-01 -3.414835912e-01 -2.241916548e-01 -3.414835912e-01  7.482604673e-01 -4.385525399e-01
6.290000000  7.452217021e-01 -4.417636513e-01 -2.269815563e-01 -3.422246568e-01 -2.269815563e-01 -3.422246568e-01  7.452217021e-01 -4.417636513e-01
6.295000000  7.421678939e-01 -4.449507980e-01 -2.297802233e-01 -3.429423923e-01 -2.297802233e-01 -3.429423923e-01  7.421678939e-01 -4.449507980e-01
6.300000000  7.390992548e-01 -4.481139215e-01 -2.325874454e-01 -3.436367547e-01 -2.325874454e-01 -3.436367547e-01  7.390992548e-01 -4.481139215e-01
6.305000000  7.360159941e-01 -4.512529563e-01 -2.354030089e-01 -3.443076993e-01 -2.354030089e-01 -3.443076993e-01  7.360159941e-01 -4.512529563e-01
6.310000000  7.329183265e-01 -4.543678566e-01 -2.382267066e-01 -3.449551911e-01 -2.382267066e-01 -3.449551911e-01  7.329183265e-01 -4.543678566e-01
6.315000000  7.298064636e-01 -4.574585700e-01 -2.410583288e-01 -3.455791932e-01 -2.410583288e-01 -3.455791932e-01  7.298064636e-01 -4.574585700e-01
6.320000000  7.266806167e-01 -4.605250460e-01 -2.438976655e-01 -3.461796710e-01 -2.438976655e-01 -3.461796710e-01  7.266806167e-01 -4.605250460e-01
6.325000000  7.235409972e-01 -4.635672362e-01 -2.467445075e-01 -3.467565917e-01 -2.467445075e-01 -3.467565917e-01  7.235409972e-01 -4.635672362e-01
6.330000000  7.203878159e-01 -4.665850941e-01 -2.495986454e-01 -3.473099246e-01 -2.495986454e-01 -3.473099246e-01  7.203878159e-01 -4.665850941e-01
6.335000000  7.172212837e-01 -4.695785754e-01 -2.524598704e-01 -3.478396409e-01 -2.524598704e-01 -3.478396409e-01  7.172212837e-01 -4.695785754e-01
6.340000000  7.140416109e-01 -4.725476376e-01 -2.553279741e-01 -3.483457138e-01 -2.553279741e-01 -3.483457138e-01  7.140416109e-01 -4.725476376e-01
6.345000000  7.108490077e-01 -4.754922402e-01 -2.582027480e-01 -3.488281186e-01 -2.582027480e-01 -3.488281186e-01  7.108490077e-01 -4.754922402e-01
6.350000000  7.076436839e-01 -4.784123448e-01 -2.610839845e-01 -3.492868325e-01 -2.610839845e-01 -3.492868325e-01  7.076436839e-01 -4.784123448e-01
6.355000000  7.044258555e-01 -4.813079052e-01 -2.639714716e-01 -3.497218389e-01 -2.639714716e-01 -3.497218389e-01  7.044258555e-01 -4.813079052e-01
6.360000000  7.011957297e-01 -4.841788901e-01 -2.668650037e-01 -3.501331176e-01 -2.668650037e-01 -3.501331176e-01  7.011957297e-01 -4.841788901e-01
6.365000000  6.979535106e-01 -4.870252733e-01 -2.697643771e-01 -3.505206486e-01 -2.697643771e-01 -3.505206486e-01  6.979535106e-01 -4.870252733e-01
6.370000000  6.946994067e-01 -4.898470241e-01 -2.726693856e-01 -3.508844168e-01 -2.726693856e-01 -3.508844168e-01  6.946994067e-01 -4.898470241e-01
6.375000000  6.914336259e-01 -4.926441136e-01 -2.755798233e-01 -3.512244091e-01 -2.755798233e-01 -3.512244091e-01  6.914336259e-01 -4.926441136e-01
6.380000000  6.881563757e-01 -4.954165149e-01 -2.784954850e-01 -3.515406141e-01 -2.784954850e-01 -3.515406141e-01  6.881563757e-01 -4.954165149e-01
6.385000000  6.848678631e-01 -4.981642029e-01 -2.814161657e-01 -3.518330223e-01 -2.814161657e-01 -3.518330223e-01  6.848678631e-01 -4.981642029e-01
6.390000000  6.815682947e-01 -5.008871545e-01 -2.843416613e-01 -3.521016263e-01 -2.843416613e-01 -3.521016263e-01  6.815682947e-01 -5.008871545e-01
6.395000000  6.782578766e-01 -5.035853482e-01 -2.872717679e-01 -3.523464202e-01 -2.872717679e-01 -3.523464202e-01  6.782578766e-01 -5.035853482e-01
6.400000000  6.749368145e-01 -5.062587645e-01 -2.902062822e-01 -3.525674001e-01 -2.902062822e-01 -3.525674001e-01  6.749368145e-01 -5.062587645e-01
6.405000000  6.716053187e-01 -5.089073862e-01 -2.931450008e-01 -3.527645680e-01 -2.931450008e-01 -3.527645680e-01  6.716053187e-01 -5.089073862e-01
6.410000000  6.682636099e-01 -5.115311986e-01 -2.960877195e-01 -3.529379353e-01 -2.960877195e-01 -3.529379353e-01  6.682636099e-01 -5.115311986e-01
6.415000000  6.649118706e-01 -5.141301864e-01 -2.990342399e-01 -3.530874880e-01 -2.990342399e-01 -3.530874880e-01  6.649118706e-01 -5.141301864e-01
6.420000000  6.615503043e-01 -5.167043371e-01 -3.019843609e-01 -3.532132293e-01 -3.019843609e-01 -3.532132293e-01  6.615503043e-01 -5.167043371e-01
6.425000000  6.581791137e-01 -5.192536405e-01 -3.049378822e-01 -3.533151645e-01 -3.049378822e-01 -3.533151645e-01  6.581791137e-01 -5.192536405e-01
6.430000000  6.547985012e-01 -5.217780876e-01 -3.078946042e-01 -3.533933002e-01 -3.078946042e-01 -3.533933002e-01  6.547985012e-01 -5.217780876e-01
6.435000000  6.514086685e-01 -5.242776715e-01 -3.108543277e-01 -3.534476451e-01 -3.108543277e-01 -3.534476451e-01  6.514086685e-01 -5.242776715e-01
6.440000000  6.480098164e-01 -5.267523869e-01 -3.138168543e-01 -3.534782095e-01 -3.138168543e-01 -3.534782095e-01  6.480098164e-01 -5.267523869e-01
6.445000000  6.446021454e-01 -5.292022304e-01 -3.167819864e-01 -3.534850053e-01 -3.167819864e-01 -3.534850053e-01  6.446021454e-01 -5.292022304e-01
6.450000000  6.411858553e-01 -5.316271999e-01 -3.197495270e-01 -3.534680463e-01 -3.197495270e-01 -3.534680463e-01  6.411858553e-01 -5.316271999e-01
6.455000000  6.377611452e-01 -5.340272955e-01 -3.227192796e-01 -3.534273479e-01 -3.227192796e-01 -3.534273479e-01  6.377611452e-01 -5.340272955e-01
6.460000000  6.343282321e-01 -5.364025372e-01 -3.256910509e-01 -3.533629383e-01 -3.256910509e-01 -3.533629383e-01  6.343282321e-01 -5.364025372e-01
6.465000000  6.308872997e-01 -5.387529143e-01 -3.286646447e-01 -3.532748277e-01 -3.286646447e-01 -3.532748277e-01  6.308872997e-01 -5.387529143e-01
6.470000000  6.274385402e-01 -5.410784271e-01 -3.316398662e-01 -3.531630338e-01 -3.316398662e-01 -3.531630338e-01  6.274385402e-01 -5.410784271e-01
6.475000000  6.239821497e-01 -5.433790820e-01 -3.346165221e-01 -3.530275786e-01 -3.346165221e-01 -3.530275786e-01  6.239821497e-01 -5.433790820e-01
6.480000000  6.205183240e-01 -5.456548871e-01 -3.375944198e-01 -3.528684856e-01 -3.375944198e-01 -3.528684856e-01  6.205183240e-01 -5.456548871e-01
6.485000000  6.170472576e-01 -5.479058521e-01 -3.405733675e-01 -3.526857800e-01 -3.405733675e-01 -3.526857800e-01  6.170472576e-01 -5.479058521e-01
6.490000000  6.135691447e-01 -5.501319882e-01 -3.435531743e-01 -3.524794886e-01 -3.435531743e-01 -3.524794886e-01  6.135691447e-01 -5.501319882e-01
6.495000000  6.100841786e-01 -5.523333082e-01 -3.465336498e-01 -3.522496396e-01 -3.465336498e-01 -3.522496396e-01  6.100841786e-01 -5.523333082e-01
6.500000000  6.065925515e-01 -5.545098267e-01 -3.495146048e-01 -3.519962631e-01 -3.495146048e-01 -3.519962631e-01  6.065925515e-01 -5.545098267e-01
6.505000000  6.030944554e-01 -5.566615595e-01 -3.524958506e-01 -3.517193903e-01 -3.524958506e-01 -3.517193903e-01  6.030944554e-01 -5.566615595e-01
6.510000000  5.995900832e-01 -5.587885321e-01 -3.554771999e-01 -3.514190529e-01 -3.554771999e-01 -3.514190529e-01  5.995900832e-01 -5.587885321e-01
6.515000000  5.960796262e-01 -5.608907676e-01 -3.584584660e-01 -3.510952844e-01 -3.584584660e-01 -3.510952844e-01  5.960796262e-01 -5.608907676e-01
6.520000000  5.925632702e-01 -5.629682742e-01 -3.614394623e-01 -3.507481230e-01 -3.614394623e-01 -3.507481230e-01  5.925632702e-01 -5.629682742e-01
6.525000000  5.890412036e-01 -5.650210741e-01 -3.644200038e-01 -3.503776061e-01 -3.644200038e-01 -3.503776061e-01  5.890412036e-01 -5.650210741e-01
6.530000000  5.855136140e-01 -5.670491906e-01 -3.673999062e-01 -3.499837724e-01 -3.673999062e-01 -3.499837724e-01  5.855136140e-01 -5.670491906e-01
6.535000000  5.819806879e-01 -5.690526485e-01 -3.703789862e-01 -3.495666624e-01 -3.703789862e-01 -3.495666624e-01  5.819806879e-01 -5.690526485e-01
6.540000000  5.784426112e-01 -5.710314743e-01 -3.733570614e-01 -3.491263178e-01 -3.733570614e-01 -3.491263178e-01  5.784426112e-01 -5.710314743e-01
6.545000000  5.748995689e-01 -5.729856957e-01 -3.763339502e-01 -3.486627817e-01 -3.763339502e-01 -3.486627817e-01  5.748995689e-01 -5.729856957e-01
6.550000000  5.713517449e-01 -5.749153417e-01 -3.793094721e-01 -3.481760986e-01 -3.793094721e-01 -3.481760986e-01  5.713517449e-01 -5.749153417e-01
6.555000000  5.677993224e-01 -5.768204430e-01 -3.822834475e-01 -3.476663146e-01 -3.822834475e-01 -3.476663146e-01  5.677993224e-01 -5.768204430e-01
6.560000000  5.642424837e-01 -5.787010314e-01 -3.852556976e-01 -3.471334769e-01 -3.852556976e-01 -3.471334769e-01  5.642424837e-01 -5.787010314e-01
6.565000000  5.606814062e-01 -5.805571368e-01 -3.882260368e-01 -3.465776244e-01 -3.882260368e-01 -3.465776244e-01  5.606814062e-01 -5.805571368e-01
6.570000000  5.571162744e-01 -5.823887972e-01 -3.911942961e-01 -3.459988169e-01 -3.911942961e-01 -3.459988169e-01  5.571162744e-01 -5.823887972e-01
6.575000000  5.535472676e-01 -5.841960486e-01 -3.941602994e-01 -3.453971059e-01 -3.941602994e-01 -3.453971059e-01  5.535472676e-01 -5.841960486e-01
6.580000000  5.499745644e-01 -5.859789283e-01 -3.971238721e-01 -3.447725439e-01 -3.971238721e-01 -3.447725439e-01  5.499745644e-01 -5.859789283e-01
6.585000000  5.463983424e-01 -5.877374749e-01 -4.000848402e-01 -3.441251848e-01 -4.000848402e-01 -3.441251848e-01  5.463983424e-01 -5.877374749e-01
6.590000000  5.428187782e-01 -5.894717283e-01 -4.030430309e-01 -3.434550838e-01 -4.030430309e-01 -3.434550838e-01  5.428187782e-01 -5.894717283e-01
6.595000000  5.392360474e-01 -5.911817296e-01 -4.059982723e-01 -3.427622975e-01 -4.059982723e-01 -3.427622975e-01  5.392360474e-01 -5.911817296e-01
6.600000000  5.356503248e-01 -5.928675211e-01 -4.089503936e-01 -3.420468835e-01 -4.089503936e-01 -3.420468835e-01  5.356503248e-01 -5.928675211e-01
6.605000000  5.320617840e-01 -5.945291464e-01 -4.118992250e-01 -3.413089007e-01 -4.118992250e-01 -3.413089007e-01  5.320617840e-01 -5.945291464e-01
6.610000000  5.284705977e-01 -5.961666506e-01 -4.148445976e-01 -3.405484093e-01 -4.148445976e-01 -3.405484093e-01  5.284705977e-01 -5.961666506e-01
6.615000000  5.248769391e-01 -5.977800716e-01 -4.177863388e-01 -3.397654709e-01 -4.177863388e-01 -3.397654709e-01  5.248769391e-01 -5.977800716e-01
6.620000000  5.212809786e-01 -5.993694596e-01 -4.207242836e-01 -3.389601481e-01 -4.207242836e-01 -3.389601481e-01  5.212809786e-01 -5.993694596e-01
6.625000000  5.176828849e-01 -6.009348680e-01 -4.236582692e-01 -3.381325045e-01 -4.236582692e-01 -3.381325045e-01  5.176828849e-01 -6.009348680e-01
6.630000000  5.140828267e-01 -6.024763466e-01 -4.265881311e-01 -3.372826047e-01 -4.265881311e-01 -3.372826047e-01  5.140828267e-01 -6.024763466e-01
6.635000000  5.104809718e-01 -6.039939461e-01 -4.295137057e-01 -3.364105149e-01 -4.295137057e-01 -3.364105149e-01  5.104809718e-01 -6.039939461e-01
6.636363636  5.094983578e-01 -6.044036994e-01 -4.303108242e-01 -3.361688299e-01 -4.303108242e-01 -3.361688299e-01  5.094983578e-01 -6.044036994e-01
6.640000000  5.068774924e-01 -6.054877130e-01 -4.324348282e-01 -3.355163074e-01 -4.324348282e-01 -3.355163074e-01  5.068774924e-01 -6.054877130e-01
6.645000000  5.032725507e-01 -6.069577036e-01 -4.353513386e-01 -3.346000472e-01 -4.353513386e-01 -3.346000472e-01  5.032725507e-01 -6.069577036e-01
6.650000000  4.996663092e-01 -6.084039741e-01 -4.382630772e-01 -3.336618016e-01 -4.382630772e-01 -3.336618016e-01  4.996663092e-01 -6.084039741e-01
6.655000000  4.960589315e-01 -6.098265797e-01 -4.411698848e-01 -3.327016411e-01 -4.411698848e-01 -3.327016411e-01  4.960589315e-01 -6.098265797e-01
6.660000000  4.924505802e-01 -6.112255767e-01 -4.440716030e-01 -3.317196370e-01 -4.440716030e-01 -3.317196370e-01  4.924505802e-01 -6.112255767e-01
6.665000000  4.888414205e-01 -6.126010225e-01 -4.469680751e-01 -3.307158654e-01 -4.469680751e-01 -3.307158654e-01  4.888414205e-01 -6.126010225e-01
6.670000000  4.852316245e-01 -6.139529763e-01 -4.498591466e-01 -3.296904101e-01 -4.498591466e-01 -3.296904101e-01  4.852316245e-01 -6.139529763e-01
6.675000000  4.816213361e-01 -6.152814966e-01 -4.527446608e-01 -3.286433318e-01 -4.527446608e-01 -3.286433318e-01  4.816213361e-01 -6.152814966e-01
6.680000000  4.780107137e-01 -6.165866437e-01 -4.556244636e-01 -3.275747060e-01 -4.556244636e-01 -3.275747060e-01  4.780107137e-01 -6.165866437e-01
6.685000000  4.743999143e-01 -6.178684791e-01 -4.584984024e-01 -3.264846095e-01 -4.584984024e-01 -3.264846095e-01  4.743999143e-01 -6.178684791e-01
6.690000000  4.707890944e-01 -6.191270651e-01 -4.613663253e-01 -3.253731195e-01 -4.613663253e-01 -3.253731195e-01  4.707890944e-01 -6.191270651e-01
6.695000000  4.671784089e-01 -6.203624650e-01 -4.642280818e-01 -3.242403147e-01 -4.642280818e-01 -3.242403147e-01  4.671784089e-01 -6.203624650e-01
6.700000000  4.635680120e-01 -6.215747432e-01 -4.670835224e-01 -3.230862745e-01 -4.670835224e-01 -3.230862745e-01  4.635680120e-01 -6.215747432e-01
6.705000000  4.599580567e-01 -6.227639649e-01 -4.699324988e-01 -3.219110791e-01 -4.699324988e-01 -3.219110791e-01  4.599580567e-01 -6.227639649e-01
6.710000000  4.563486947e-01 -6.239301962e-01 -4.727748636e-01 -3.207148098e-01 -4.727748636e-01 -3.207148098e-01  4.563486947e-01 -6.239301962e-01
6.715000000  4.527400770e-01 -6.250735041e-01 -4.756104708e-01 -3.194975488e-01 -4.756104708e-01 -3.194975488e-01  4.527400770e-01 -6.250735041e-01
6.720000000  4.491323735e-01 -6.261939753e-01 -4.784391837e-01 -3.182593929e-01 -4.784391837e-01 -3.182593929e-01  4.491323735e-01 -6.261939753e-01
6.725000000  4.455257176e-01 -6.272916645e-01 -4.812608525e-01 -3.170004155e-01 -4.812608525e-01 -3.170004155e-01  4.455257176e-01 -6.272916645e-01
6.730000000  4.419202517e-01 -6.283666371e-01 -4.840753321e-01 -3.157206980e-01 -4.840753321e-01 -3.157206980e-01  4.419202517e-01 -6.283666371e-01
6.735000000  4.383161224e-01 -6.294189634e-01 -4.868824810e-01 -3.144203259e-01 -4.868824810e-01 -3.144203259e-01  4.383161224e-01 -6.294189634e-01
6.740000000  4.347134751e-01 -6.304487150e-01 -4.896821587e-01 -3.130993856e-01 -4.896821587e-01 -3.130993856e-01  4.347134751e-01 -6.304487150e-01
6.745000000  4.311124540e-01 -6.314559639e-01 -4.924742257e-01 -3.117579645e-01 -4.924742257e-01 -3.117579645e-01  4.311124540e-01 -6.314559639e-01
6.750000000  4.275132022e-01 -6.324407834e-01 -4.952585437e-01 -3.103961505e-01 -4.952585437e-01 -3.103961505e-01  4.275132022e-01 -6.324407834e-01
6.755000000  4.239158620e-01 -6.334032472e-01 -4.980349758e-01 -3.090140326e-01 -4.980349758e-01 -3.090140326e-01  4.239158620e-01 -6.334032472e-01
6.760000000  4.203205743e-01 -6.343434299e-01 -5.008033859e-01 -3.076117003e-01 -5.008033859e-01 -3.076117003e-01  4.203205743e-01 -6.343434299e-01
6.765000000  4.167274790e-01 -6.352614070e-01 -5.035636391e-01 -3.061892440e-01 -5.035636391e-01 -3.061892440e-01  4.167274790e-01 -6.352614070e-01
6.770000000  4.131367192e-01 -6.361572654e-01 -5.063156031e-01 -3.047467542e-01 -5.063156031e-01 -3.047467542e-01  4.131367192e-01 -6.361572654e-01
6.775000000  4.095484349e-01 -6.370310876e-01 -5.090591461e-01 -3.032843225e-01 -5.090591461e-01 -3.032843225e-01  4.095484349e-01 -6.370310876e-01
6.780000000  4.059627560e-01 -6.378829347e-01 -5.117941345e-01 -3.018020423e-01 -5.117941345e-01 -3.018020423e-01  4.059627560e-01 -6.378829347e-01
6.785000000  4.023798181e-01 -6.387128852e-01 -5.145204380e-01 -3.003000068e-01 -5.145204380e-01 -3.003000068e-01  4.023798181e-01 -6.387128852e-01
6.790000000  3.987997555e-01 -6.395210181e-01 -5.172379274e-01 -2.987783101e-01 -5.172379274e-01 -2.987783101e-01  3.987997555e-01 -6.395210181e-01
6.795000000  3.952227016e-01 -6.403074131e-01 -5.199464747e-01 -2.972370467e-01 -5.199464747e-01 -2.972370467e-01  3.952227016e-01 -6.403074131e-01
6.800000000  3.916487884e-01 -6.410721507e-01 -5.226459531e-01 -2.956763119e-01 -5.226459531e-01 -2.956763119e-01  3.916487884e-01 -6.410721507e-01
6.805000000  3.880781470e-01 -6.418153120e-01 -5.253362368e-01 -2.940962019e-01 -5.253362368e-01 -2.940962019e-01  3.880781470e-01 -6.418153120e-01
6.810000000  3.845109075e-01 -6.425369786e-01 -5.280172012e-01 -2.924968130e-01 -5.280172012e-01 -2.924968130e-01  3.845109075e-01 -6.425369786e-01
6.815000000  3.809471987e-01 -6.432372329e-01 -5.306887228e-01 -2.908782427e-01 -5.306887228e-01 -2.908782427e-01  3.809471987e-01 -6.432372329e-01
6.820000000  3.773871482e-01 -6.439161581e-01 -5.333506794e-01 -2.892405887e-01 -5.333506794e-01 -2.892405887e-01  3.773871482e-01 -6.439161581e-01
6.825000000  3.738308812e-01 -6.445738424e-01 -5.360029366e-01 -2.875839394e-01 -5.360029366e-01 -2.875839394e-01  3.738308812e-01 -6.445738424e-01
6.830000000  3.702785250e-01 -6.452103655e-01 -5.386453872e-01 -2.859084042e-01 -5.386453872e-01 -2.859084042e-01  3.702785250e-01 -6.452103655e-01
6.835000000  3.667302039e-01 -6.458258120e-01 -5.412779124e-01 -2.842140826e-01 -5.412779124e-01 -2.842140826e-01  3.667302039e-01 -6.458258120e-01
6.840000000  3.631860414e-01 -6.464202675e-01 -5.439003945e-01 -2.825010749e-01 -5.439003945e-01 -2.825010749e-01  3.631860414e-01 -6.464202675e-01
6.845000000  3.596461597e-01 -6.469938177e-01 -5.465127168e-01 -2.807694818e-01 -5.465127168e-01 -2.807694818e-01  3.596461597e-01 -6.469938177e-01
6.850000000  3.561106800e-01 -6.475465493e-01 -5.491147638e-01 -2.790194045e-01 -5.491147638e-01 -2.790194045e-01  3.561106800e-01 -6.475465493e-01
6.855000000  3.525797223e-01 -6.480785492e-01 -5.517064213e-01 -2.772509449e-01 -5.517064213e-01 -2.772509449e-01  3.525797223e-01 -6.480785492e-01
6.860000000  3.490534055e-01 -6.485899051e-01 -5.542875758e-01 -2.754642053e-01 -5.542875758e-01 -2.754642053e-01  3.490534055e-01 -6.485899051e-01
6.865000000  3.455318476e-01 -6.490807050e-01 -5.568581155e-01 -2.736592884e-01 -5.568581155e-01 -2.736592884e-01  3.455318476e-01 -6.490807050e-01
6.870000000  3.420151652e-01 -6.495510376e-01 -5.594179293e-01 -2.718362976e-01 -5.594179293e-01 -2.718362976e-01  3.420151652e-01 -6.495510376e-01
6.875000000  3.385034756e-01 -6.500009822e-01 -5.619668974e-01 -2.699953385e-01 -5.619668974e-01 -2.699953385e-01  3.385034756e-01 -6.500009822e-01
6.880000000  3.349968930e-01 -6.504306319e-01 -5.645049146e-01 -2.681365150e-01 -5.645049146e-01 -2.681365150e-01  3.349968930e-01 -6.504306319e-01
6.885000000  3.314955297e-01 -6.508400831e-01 -5.670318797e-01 -2.662599306e-01 -5.670318797e-01 -2.662599306e-01  3.314955297e-01 -6.508400831e-01
6.890000000  3.279994983e-01 -6.512294262e-01 -5.695476862e-01 -2.643656906e-01 -5.695476862e-01 -2.643656906e-01  3.279994983e-01 -6.512294262e-01
6.895000000  3.245089100e-01 -6.515987524e-01 -5.720522289e-01 -2.624539005e-01 -5.720522289e-01 -2.624539005e-01  3.245089100e-01 -6.515987524e-01
6.900000000  3.210238750e-01 -6.519481528e-01 -5.745454035e-01 -2.605246663e-01 -5.745454035e-01 -2.605246663e-01  3.210238750e-01 -6.519481528e-01
6.905000000  3.175445025e-01 -6.522777194e-01 -5.770271070e-01 -2.585780945e-01 -5.770271070e-01 -2.585780945e-01  3.175445025e-01 -6.522777194e-01
6.910000000  3.140709007e-01 -6.525875444e-01 -5.794972373e-01 -2.566142918e-01 -5.794972373e-01 -2.566142918e-01  3.140709007e-01 -6.525875444e-01
6.915000000  3.106031764e-01 -6.528777204e-01 -5.819556935e-01 -2.546333656e-01 -5.819556935e-01 -2.546333656e-01  3.106031764e-01 -6.528777204e-01
6.920000000  3.071414356e-01 -6.531483403e-01 -5.844023760e-01 -2.526354234e-01 -5.844023760e-01 -2.526354234e-01  3.071414356e-01 -6.531483403e-01
6.925000000  3.036857869e-01 -6.533994958e-01 -5.868371863e-01 -2.506205770e-01 -5.868371863e-01 -2.506205770e-01  3.036857869e-01 -6.533994958e-01
6.930000000  3.002363449e-01 -6.536312750e-01 -5.892600279e-01 -2.485889463e-01 -5.892600279e-01 -2.485889463e-01  3.002363449e-01 -6.536312750e-01
6.935000000  2.967931978e-01 -6.538437796e-01 -5.916708033e-01 -2.465406246e-01 -5.916708033e-01 -2.465406246e-01  2.967931978e-01 -6.538437796e-01
6.940000000  2.933564471e-01 -6.540371042e-01 -5.940694171e-01 -2.444757207e-01 -5.940694171e-01 -2.444757207e-01  2.933564471e-01 -6.540371042e-01
6.945000000  2.899261935e-01 -6.542113434e-01 -5.964557750e-01 -2.423943441e-01 -5.964557750e-01 -2.423943441e-01  2.899261935e-01 -6.542113434e-01
6.950000000  2.865025366e-01 -6.543665924e-01 -5.988297839e-01 -2.402966044e-01 -5.988297839e-01 -2.402966044e-01  2.865025366e-01 -6.543665924e-01
6.955000000  2.830855748e-01 -6.545029467e-01 -6.011913517e-01 -2.381826115e-01 -6.011913517e-01 -2.381826115e-01  2.830855748e-01 -6.545029467e-01
6.960000000  2.796754054e-01 -6.546205021e-01 -6.035403874e-01 -2.360524756e-01 -6.035403874e-01 -2.360524756e-01  2.796754054e-01 -6.546205021e-01
6.965000000  2.762721251e-01 -6.547193546e-01 -6.058768011e-01 -2.339063073e-01 -6.058768011e-01 -2.339063073e-01  2.762721251e-01 -6.547193546e-01
6.970000000  2.728758289e-01 -6.547996006e-01 -6.082005040e-01 -2.317442172e-01 -6.082005040e-01 -2.317442172e-01  2.728758289e-01 -6.547996006e-01
6.975000000  2.694866113e-01 -6.548613367e-01 -6.105114084e-01 -2.295663166e-01 -6.105114084e-01 -2.295663166e-01  2.694866113e-01 -6.548613367e-01
6.980000000  2.661045813e-01 -6.549046674e-01 -6.128094382e-01 -2.273727278e-01 -6.128094382e-01 -2.273727278e-01  2.661045813e-01 -6.549046674e-01
6.985000000  2.627298192e-01 -6.549296841e-01 -6.150944999e-01 -2.251635537e-01 -6.150944999e-01 -2.251635537e-01  2.627298192e-01 -6.549296841e-01
6.990000000  2.593624122e-01 -6.549364824e-01 -6.173665064e-01 -2.229389034e-01 -6.173665064e-01 -2.229389034e-01  2.593624122e-01 -6.549364824e-01
6.995000000  2.560024506e-01 -6.549251599e-01 -6.196253743e-01 -2.206988890e-01 -6.196253743e-01 -2.206988890e-01  2.560024506e-01 -6.549251599e-01
7.000000000  2.526500235e-01 -6.548958146e-01 -6.218710211e-01 -2.184436225e-01 -6.218710211e-01 -2.184436225e-01  2.526500235e-01 -6.548958146e-01
