! yapnr Order 0 O0-W: O0-W B04 W dL34 (line, family W)
! stackup OSHPARK-4L-EM528, nominal parameters; geometry of the OSHPARK-4L-FR408HR design
! model: 2D quasi-static RLGC (Djordjevic-Sarkar, Huray roughness, Wheeler loss); generated by python -m yapnr.rf.coupons expected --stackup OSHPARK-4L-FR408HR --upload W
! reference planes 10 mm from each end; 50 ohm (from the W line's Zc)
# GHz S DB R 50
0.03 -53.107 -88.36 -0.0027974 -2.15 -0.0027974 -2.15 -53.107 -88.36
0.06 -47.004 -92.27 -0.0044657 -4.29 -0.0044657 -4.29 -47.004 -92.27
0.09 -43.473 -95.16 -0.0059975 -6.42 -0.0059975 -6.42 -43.473 -95.16
0.12 -40.986 -97.74 -0.0074796 -8.55 -0.0074796 -8.55 -40.986 -97.74
0.15 -39.07 -100.17 -0.0089449 -10.68 -0.0089449 -10.68 -39.07 -100.17
0.18 -37.516 -102.52 -0.010409 -12.81 -0.010409 -12.81 -37.516 -102.52
0.21 -36.212 -104.82 -0.011881 -14.94 -0.011881 -14.94 -36.212 -104.82
0.24 -35.091 -107.08 -0.013365 -17.07 -0.013365 -17.07 -35.091 -107.08
0.27 -34.112 -109.32 -0.014863 -19.20 -0.014863 -19.20 -34.112 -109.32
0.3 -33.245 -111.54 -0.016378 -21.33 -0.016378 -21.33 -33.245 -111.54
0.33 -32.468 -113.75 -0.017908 -23.46 -0.017908 -23.46 -32.468 -113.75
0.36 -31.768 -115.94 -0.019455 -25.58 -0.019455 -25.58 -31.768 -115.94
0.39 -31.132 -118.13 -0.021015 -27.71 -0.021015 -27.71 -31.132 -118.13
0.42 -30.552 -120.31 -0.022588 -29.84 -0.022588 -29.84 -30.552 -120.31
0.45 -30.02 -122.48 -0.024173 -31.96 -0.024173 -31.96 -30.02 -122.48
0.48 -29.531 -124.65 -0.025766 -34.09 -0.025766 -34.09 -29.531 -124.65
0.51 -29.08 -126.82 -0.027366 -36.22 -0.027366 -36.22 -29.08 -126.82
0.54 -28.664 -128.98 -0.02897 -38.34 -0.02897 -38.34 -28.664 -128.98
0.57 -28.278 -131.13 -0.030576 -40.47 -0.030576 -40.47 -28.278 -131.13
0.6 -27.92 -133.29 -0.032181 -42.59 -0.032181 -42.59 -27.92 -133.29
0.63 -27.589 -135.44 -0.033782 -44.72 -0.033782 -44.72 -27.589 -135.44
0.66 -27.281 -137.59 -0.035376 -46.85 -0.035376 -46.85 -27.281 -137.59
0.69 -26.996 -139.73 -0.036961 -48.97 -0.036961 -48.97 -26.996 -139.73
0.72 -26.732 -141.88 -0.038534 -51.10 -0.038534 -51.10 -26.732 -141.88
0.75 -26.488 -144.02 -0.040091 -53.22 -0.040091 -53.22 -26.488 -144.02
0.78 -26.262 -146.16 -0.041631 -55.35 -0.041631 -55.35 -26.262 -146.16
0.81 -26.053 -148.30 -0.043151 -57.47 -0.043151 -57.47 -26.053 -148.30
0.84 -25.861 -150.44 -0.044648 -59.60 -0.044648 -59.60 -25.861 -150.44
0.87 -25.686 -152.57 -0.046119 -61.72 -0.046119 -61.72 -25.686 -152.57
0.9 -25.525 -154.71 -0.047562 -63.85 -0.047562 -63.85 -25.525 -154.71
0.93 -25.38 -156.85 -0.048976 -65.97 -0.048976 -65.97 -25.38 -156.85
0.96 -25.248 -158.98 -0.050357 -68.10 -0.050357 -68.10 -25.248 -158.98
0.99 -25.13 -161.11 -0.051704 -70.22 -0.051704 -70.22 -25.13 -161.11
1.02 -25.026 -163.24 -0.053015 -72.35 -0.053015 -72.35 -25.026 -163.24
1.05 -24.935 -165.37 -0.054289 -74.47 -0.054289 -74.47 -24.935 -165.37
1.08 -24.857 -167.50 -0.055524 -76.60 -0.055524 -76.60 -24.857 -167.50
1.11 -24.791 -169.63 -0.056719 -78.72 -0.056719 -78.72 -24.791 -169.63
1.14 -24.737 -171.76 -0.057873 -80.85 -0.057873 -80.85 -24.737 -171.76
1.17 -24.696 -173.89 -0.058985 -82.97 -0.058985 -82.97 -24.696 -173.89
1.2 -24.667 -176.02 -0.060055 -85.10 -0.060055 -85.10 -24.667 -176.02
1.23 -24.65 -178.15 -0.061082 -87.23 -0.061082 -87.23 -24.65 -178.15
1.26 -24.644 179.73 -0.062066 -89.35 -0.062066 -89.35 -24.644 179.73
1.29 -24.651 177.60 -0.063007 -91.48 -0.063007 -91.48 -24.651 177.60
1.32 -24.67 175.48 -0.063906 -93.61 -0.063906 -93.61 -24.67 175.48
1.35 -24.7 173.35 -0.064763 -95.74 -0.064763 -95.74 -24.7 173.35
1.38 -24.743 171.23 -0.065579 -97.87 -0.065579 -97.87 -24.743 171.23
1.41 -24.798 169.10 -0.066354 -99.99 -0.066354 -99.99 -24.798 169.10
1.44 -24.865 166.98 -0.067091 -102.12 -0.067091 -102.12 -24.865 166.98
1.47 -24.944 164.86 -0.067789 -104.25 -0.067789 -104.25 -24.944 164.86
1.5 -25.037 162.73 -0.068452 -106.38 -0.068452 -106.38 -25.037 162.73
1.53 -25.142 160.61 -0.069081 -108.51 -0.069081 -108.51 -25.142 160.61
1.56 -25.261 158.49 -0.069677 -110.65 -0.069677 -110.65 -25.261 158.49
1.59 -25.393 156.37 -0.070243 -112.78 -0.070243 -112.78 -25.393 156.37
1.62 -25.54 154.25 -0.07078 -114.91 -0.07078 -114.91 -25.54 154.25
1.65 -25.701 152.13 -0.071293 -117.04 -0.071293 -117.04 -25.701 152.13
1.68 -25.878 150.01 -0.071782 -119.18 -0.071782 -119.18 -25.878 150.01
1.71 -26.07 147.90 -0.072251 -121.31 -0.072251 -121.31 -26.07 147.90
1.74 -26.279 145.78 -0.072702 -123.44 -0.072702 -123.44 -26.279 145.78
1.77 -26.505 143.67 -0.073139 -125.58 -0.073139 -125.58 -26.505 143.67
1.8 -26.749 141.55 -0.073564 -127.72 -0.073564 -127.72 -26.749 141.55
1.83 -27.013 139.44 -0.07398 -129.85 -0.07398 -129.85 -27.013 139.44
1.86 -27.297 137.33 -0.074391 -131.99 -0.074391 -131.99 -27.297 137.33
1.89 -27.604 135.23 -0.074799 -134.13 -0.074799 -134.13 -27.604 135.23
1.92 -27.933 133.12 -0.075207 -136.27 -0.075207 -136.27 -27.933 133.12
1.95 -28.289 131.02 -0.075619 -138.40 -0.075619 -138.40 -28.289 131.02
1.98 -28.671 128.92 -0.076037 -140.54 -0.076037 -140.54 -28.671 128.92
2.01 -29.084 126.83 -0.076465 -142.68 -0.076465 -142.68 -29.084 126.83
2.04 -29.53 124.74 -0.076905 -144.83 -0.076905 -144.83 -29.53 124.74
2.07 -30.013 122.66 -0.077361 -146.97 -0.077361 -146.97 -30.013 122.66
2.1 -30.537 120.59 -0.077835 -149.11 -0.077835 -149.11 -30.537 120.59
2.13 -31.107 118.53 -0.078329 -151.25 -0.078329 -151.25 -31.107 118.53
2.16 -31.73 116.48 -0.078847 -153.40 -0.078847 -153.40 -31.73 116.48
2.19 -32.413 114.45 -0.079391 -155.54 -0.079391 -155.54 -32.413 114.45
2.22 -33.168 112.43 -0.079962 -157.68 -0.079962 -157.68 -33.168 112.43
2.25 -34.008 110.45 -0.080564 -159.83 -0.080564 -159.83 -34.008 110.45
2.28 -34.951 108.50 -0.081198 -161.98 -0.081198 -161.98 -34.951 108.50
2.31 -36.022 106.60 -0.081865 -164.12 -0.081865 -164.12 -36.022 106.60
2.34 -37.257 104.78 -0.082568 -166.27 -0.082568 -166.27 -37.257 104.78
2.37 -38.71 103.09 -0.083308 -168.42 -0.083308 -168.42 -38.71 103.09
2.4 -40.469 101.59 -0.084085 -170.56 -0.084085 -170.56 -40.469 101.59
2.43 -42.69 100.48 -0.084902 -172.71 -0.084902 -172.71 -42.69 100.48
2.46 -45.689 100.23 -0.085757 -174.86 -0.085757 -174.86 -45.689 100.23
2.49 -50.286 102.63 -0.086653 -177.01 -0.086653 -177.01 -50.286 102.63
2.52 -59.788 124.19 -0.087589 -179.16 -0.087589 -179.16 -59.788 124.19
2.55 -56.819 -116.51 -0.088565 178.69 -0.088565 178.69 -56.819 -116.51
2.58 -49.054 -104.32 -0.089581 176.54 -0.089581 176.54 -49.054 -104.32
2.61 -44.943 -102.85 -0.090637 174.39 -0.090637 174.39 -44.943 -102.85
2.64 -42.163 -103.37 -0.091732 172.24 -0.091732 172.24 -42.163 -103.37
2.67 -40.067 -104.59 -0.092865 170.09 -0.092865 170.09 -40.067 -104.59
2.7 -38.39 -106.15 -0.094035 167.93 -0.094035 167.93 -38.39 -106.15
2.73 -36.995 -107.88 -0.09524 165.78 -0.09524 165.78 -36.995 -107.88
2.76 -35.805 -109.72 -0.09648 163.63 -0.09648 163.63 -35.805 -109.72
2.79 -34.769 -111.63 -0.097752 161.48 -0.097752 161.48 -34.769 -111.63
2.82 -33.855 -113.59 -0.099055 159.32 -0.099055 159.32 -33.855 -113.59
2.85 -33.04 -115.59 -0.10039 157.17 -0.10039 157.17 -33.04 -115.59
2.88 -32.306 -117.61 -0.10174 155.02 -0.10174 155.02 -32.306 -117.61
2.91 -31.641 -119.65 -0.10313 152.86 -0.10313 152.86 -31.641 -119.65
2.94 -31.035 -121.71 -0.10453 150.71 -0.10453 150.71 -31.035 -121.71
2.97 -30.48 -123.78 -0.10595 148.55 -0.10595 148.55 -30.48 -123.78
3 -29.971 -125.86 -0.10739 146.40 -0.10739 146.40 -29.971 -125.86
3.03 -29.501 -127.94 -0.10884 144.25 -0.10884 144.25 -29.501 -127.94
3.06 -29.068 -130.04 -0.1103 142.09 -0.1103 142.09 -29.068 -130.04
3.09 -28.667 -132.14 -0.11177 139.94 -0.11177 139.94 -28.667 -132.14
3.12 -28.295 -134.24 -0.11324 137.78 -0.11324 137.78 -28.295 -134.24
3.15 -27.951 -136.35 -0.11472 135.63 -0.11472 135.63 -27.951 -136.35
3.18 -27.632 -138.46 -0.11619 133.47 -0.11619 133.47 -27.632 -138.46
3.21 -27.336 -140.58 -0.11766 131.31 -0.11766 131.31 -27.336 -140.58
3.24 -27.062 -142.69 -0.11912 129.16 -0.11912 129.16 -27.062 -142.69
3.27 -26.809 -144.81 -0.12057 127.00 -0.12057 127.00 -26.809 -144.81
3.3 -26.574 -146.93 -0.122 124.85 -0.122 124.85 -26.574 -146.93
3.33 -26.358 -149.06 -0.12342 122.69 -0.12342 122.69 -26.358 -149.06
3.36 -26.159 -151.18 -0.12482 120.53 -0.12482 120.53 -26.159 -151.18
3.39 -25.977 -153.31 -0.1262 118.38 -0.1262 118.38 -25.977 -153.31
3.42 -25.811 -155.43 -0.12756 116.22 -0.12756 116.22 -25.811 -155.43
3.45 -25.66 -157.56 -0.12888 114.06 -0.12888 114.06 -25.66 -157.56
3.48 -25.523 -159.69 -0.13018 111.90 -0.13018 111.90 -25.523 -159.69
3.51 -25.401 -161.82 -0.13145 109.75 -0.13145 109.75 -25.401 -161.82
3.54 -25.293 -163.95 -0.13269 107.59 -0.13269 107.59 -25.293 -163.95
3.57 -25.198 -166.08 -0.13389 105.43 -0.13389 105.43 -25.198 -166.08
3.6 -25.117 -168.21 -0.13505 103.27 -0.13505 103.27 -25.117 -168.21
3.63 -25.049 -170.34 -0.13618 101.11 -0.13618 101.11 -25.049 -170.34
3.66 -24.993 -172.47 -0.13727 98.95 -0.13727 98.95 -24.993 -172.47
3.69 -24.95 -174.60 -0.13832 96.79 -0.13832 96.79 -24.95 -174.60
3.72 -24.92 -176.74 -0.13933 94.63 -0.13933 94.63 -24.92 -176.74
3.75 -24.902 -178.87 -0.1403 92.47 -0.1403 92.47 -24.902 -178.87
3.78 -24.896 179.00 -0.14123 90.31 -0.14123 90.31 -24.896 179.00
3.81 -24.903 176.87 -0.14212 88.15 -0.14212 88.15 -24.903 176.87
3.84 -24.922 174.73 -0.14297 85.98 -0.14297 85.98 -24.922 174.73
3.87 -24.953 172.60 -0.14378 83.82 -0.14378 83.82 -24.953 172.60
3.9 -24.997 170.47 -0.14455 81.66 -0.14455 81.66 -24.997 170.47
3.93 -25.054 168.34 -0.14529 79.49 -0.14529 79.49 -25.054 168.34
3.96 -25.124 166.21 -0.14598 77.33 -0.14598 77.33 -25.124 166.21
3.99 -25.206 164.08 -0.14664 75.16 -0.14664 75.16 -25.206 164.08
4.02 -25.302 161.95 -0.14727 73.00 -0.14727 73.00 -25.302 161.95
4.05 -25.411 159.82 -0.14786 70.83 -0.14786 70.83 -25.411 159.82
4.08 -25.535 157.69 -0.14843 68.66 -0.14843 68.66 -25.535 157.69
4.11 -25.672 155.56 -0.14896 66.50 -0.14896 66.50 -25.672 155.56
4.14 -25.825 153.44 -0.14947 64.33 -0.14947 64.33 -25.825 153.44
4.17 -25.993 151.31 -0.14996 62.16 -0.14996 62.16 -25.993 151.31
4.2 -26.177 149.19 -0.15043 59.99 -0.15043 59.99 -26.177 149.19
4.23 -26.377 147.07 -0.15087 57.82 -0.15087 57.82 -26.377 147.07
4.26 -26.596 144.95 -0.15131 55.65 -0.15131 55.65 -26.596 144.95
4.29 -26.832 142.83 -0.15173 53.47 -0.15173 53.47 -26.832 142.83
4.32 -27.088 140.72 -0.15214 51.30 -0.15214 51.30 -27.088 140.72
4.35 -27.364 138.61 -0.15254 49.13 -0.15254 49.13 -27.364 138.61
4.38 -27.663 136.51 -0.15294 46.95 -0.15294 46.95 -27.663 136.51
4.41 -27.984 134.41 -0.15334 44.78 -0.15334 44.78 -27.984 134.41
4.44 -28.332 132.31 -0.15374 42.60 -0.15374 42.60 -28.332 132.31
4.47 -28.706 130.22 -0.15415 40.43 -0.15415 40.43 -28.706 130.22
4.5 -29.111 128.15 -0.15456 38.25 -0.15456 38.25 -29.111 128.15
4.53 -29.549 126.08 -0.15499 36.07 -0.15499 36.07 -29.549 126.08
4.56 -30.022 124.02 -0.15543 33.89 -0.15543 33.89 -30.022 124.02
4.59 -30.537 121.98 -0.15589 31.71 -0.15589 31.71 -30.537 121.98
4.62 -31.097 119.96 -0.15637 29.53 -0.15637 29.53 -31.097 119.96
4.65 -31.709 117.95 -0.15687 27.35 -0.15687 27.35 -31.709 117.95
4.68 -32.38 115.98 -0.15739 25.17 -0.15739 25.17 -32.38 115.98
4.71 -33.122 114.05 -0.15795 22.99 -0.15795 22.99 -33.122 114.05
4.74 -33.946 112.16 -0.15853 20.80 -0.15853 20.80 -33.946 112.16
4.77 -34.87 110.34 -0.15914 18.62 -0.15914 18.62 -34.87 110.34
4.8 -35.918 108.61 -0.15979 16.44 -0.15979 16.44 -35.918 108.61
4.83 -37.124 107.02 -0.16047 14.25 -0.16047 14.25 -37.124 107.02
4.86 -38.537 105.64 -0.16119 12.06 -0.16119 12.06 -38.537 105.64
4.89 -40.237 104.60 -0.16195 9.88 -0.16195 9.88 -40.237 104.60
4.92 -42.362 104.20 -0.16274 7.69 -0.16274 7.69 -42.362 104.20
4.95 -45.178 105.18 -0.16357 5.50 -0.16357 5.50 -45.178 105.18
4.98 -49.296 110.03 -0.16445 3.32 -0.16445 3.32 -49.296 110.03
5.01 -56.236 133.80 -0.16536 1.13 -0.16536 1.13 -56.236 133.80
5.04 -56.473 -138.37 -0.16631 -1.06 -0.16631 -1.06 -56.473 -138.37
5.07 -49.44 -113.36 -0.16731 -3.25 -0.16731 -3.25 -49.44 -113.36
5.1 -45.274 -108.32 -0.16834 -5.44 -0.16834 -5.44 -45.274 -108.32
5.13 -42.435 -107.29 -0.16941 -7.63 -0.16941 -7.63 -42.435 -107.29
5.16 -40.297 -107.66 -0.17052 -9.82 -0.17052 -9.82 -40.297 -107.66
5.19 -38.59 -108.69 -0.17167 -12.01 -0.17167 -12.01 -38.59 -108.69
5.22 -37.172 -110.07 -0.17285 -14.21 -0.17285 -14.21 -37.172 -110.07
5.25 -35.964 -111.66 -0.17407 -16.40 -0.17407 -16.40 -35.964 -111.66
5.28 -34.914 -113.39 -0.17532 -18.59 -0.17532 -18.59 -34.914 -113.39
5.31 -33.989 -115.21 -0.1766 -20.78 -0.1766 -20.78 -33.989 -115.21
5.34 -33.165 -117.10 -0.17791 -22.98 -0.17791 -22.98 -33.165 -117.10
5.37 -32.424 -119.05 -0.17924 -25.17 -0.17924 -25.17 -32.424 -119.05
5.4 -31.753 -121.02 -0.1806 -27.36 -0.1806 -27.36 -31.753 -121.02
5.43 -31.142 -123.03 -0.18198 -29.56 -0.18198 -29.56 -31.142 -123.03
5.46 -30.583 -125.07 -0.18338 -31.75 -0.18338 -31.75 -30.583 -125.07
5.49 -30.07 -127.12 -0.18479 -33.94 -0.18479 -33.94 -30.07 -127.12
5.52 -29.598 -129.18 -0.18622 -36.14 -0.18622 -36.14 -29.598 -129.18
5.55 -29.162 -131.26 -0.18765 -38.33 -0.18765 -38.33 -29.162 -131.26
5.58 -28.76 -133.35 -0.1891 -40.53 -0.1891 -40.53 -28.76 -133.35
5.61 -28.387 -135.45 -0.19054 -42.73 -0.19054 -42.73 -28.387 -135.45
5.64 -28.043 -137.56 -0.19199 -44.92 -0.19199 -44.92 -28.043 -137.56
5.67 -27.723 -139.67 -0.19344 -47.12 -0.19344 -47.12 -27.723 -139.67
5.7 -27.428 -141.79 -0.19488 -49.31 -0.19488 -49.31 -27.428 -141.79
5.73 -27.154 -143.91 -0.19631 -51.51 -0.19631 -51.51 -27.154 -143.91
5.76 -26.902 -146.04 -0.19773 -53.71 -0.19773 -53.71 -26.902 -146.04
5.79 -26.669 -148.17 -0.19914 -55.90 -0.19914 -55.90 -26.669 -148.17
5.82 -26.454 -150.30 -0.20053 -58.10 -0.20053 -58.10 -26.454 -150.30
5.85 -26.258 -152.44 -0.2019 -60.30 -0.2019 -60.30 -26.258 -152.44
5.88 -26.078 -154.58 -0.20324 -62.50 -0.20324 -62.50 -26.078 -154.58
5.91 -25.914 -156.72 -0.20457 -64.69 -0.20457 -64.69 -25.914 -156.72
5.94 -25.766 -158.87 -0.20586 -66.89 -0.20586 -66.89 -25.766 -158.87
5.97 -25.634 -161.01 -0.20712 -69.09 -0.20712 -69.09 -25.634 -161.01
6 -25.515 -163.16 -0.20836 -71.29 -0.20836 -71.29 -25.515 -163.16
