! yapnr rf: line-osh-w-w3p00-l60-w-eq, footprint re-simulated (optimization grid)
! spec sha256 60ca90b75f6ede52711dd7cf3d5b6c520f2e55c1a6071e47c2fda53d67121304
! 2 ports renormalized to 50 ohm, e^(+jwt) convention
# GHz S RI R 50
3.000000000 -2.129736235e-04  1.259277651e-03  9.214832854e-01 -1.667743481e-01  9.214832854e-01 -1.667743481e-01 -2.129736235e-04  1.259277651e-03
3.025000000 -5.107254255e-05  1.501958464e-03  9.110305004e-01 -2.166203787e-01  9.110305004e-01 -2.166203787e-01 -5.107254255e-05  1.501958464e-03
3.050000000  1.437189291e-04  1.746727794e-03  8.978808205e-01 -2.658321894e-01  8.978808205e-01 -2.658321894e-01  1.437189291e-04  1.746727794e-03
3.075000000  3.722715638e-04  1.991010875e-03  8.820708151e-01 -3.142665527e-01  8.820708151e-01 -3.142665527e-01  3.722715638e-04  1.991010875e-03
3.100000000  6.354130865e-04  2.229062119e-03  8.636475435e-01 -3.617746180e-01  8.636475435e-01 -3.617746180e-01  6.354130865e-04  2.229062119e-03
3.125000000  9.332164712e-04  2.457470975e-03  8.426623987e-01 -4.082198838e-01  8.426623987e-01 -4.082198838e-01  9.332164712e-04  2.457470975e-03
3.150000000  1.265527169e-03  2.670860644e-03  8.191788306e-01 -4.534586270e-01  8.191788306e-01 -4.534586270e-01  1.265527169e-03  2.670860644e-03
3.175000000  1.630918369e-03  2.864918834e-03  7.932627717e-01 -4.973610178e-01  7.932627717e-01 -4.973610178e-01  1.630918369e-03  2.864918834e-03
3.200000000  2.028233904e-03  3.034406126e-03  7.649925660e-01 -5.397917318e-01  7.649925660e-01 -5.397917318e-01  2.028233904e-03  3.034406126e-03
3.225000000  2.454402298e-03  3.175154669e-03  7.344484885e-01 -5.806280081e-01  7.344484885e-01 -5.806280081e-01  2.454402298e-03  3.175154669e-03
3.250000000  2.906999608e-03  3.282580215e-03  7.017219376e-01 -6.197453406e-01  7.017219376e-01 -6.197453406e-01  2.906999608e-03  3.282580215e-03
3.275000000  3.381761188e-03  3.353086489e-03  6.669071934e-01 -6.570289360e-01  6.669071934e-01 -6.570289360e-01  3.381761188e-03  3.353086489e-03
3.300000000  3.875040518e-03  3.383316432e-03  6.301075145e-01 -6.923660594e-01  6.301075145e-01 -6.923660594e-01  3.875040518e-03  3.383316432e-03
3.325000000  4.381824871e-03  3.370408541e-03  5.914301929e-01 -7.256516584e-01  5.914301929e-01 -7.256516584e-01  4.381824871e-03  3.370408541e-03
3.350000000  4.897394556e-03  3.312185086e-03  5.509897884e-01 -7.567851523e-01  5.509897884e-01 -7.567851523e-01  4.897394556e-03  3.312185086e-03
3.375000000  5.416270589e-03  3.206803673e-03  5.089051823e-01 -7.856731512e-01  5.089051823e-01 -7.856731512e-01  5.416270589e-03  3.206803673e-03
3.400000000  5.932691166e-03  3.053050436e-03  4.653012653e-01 -8.122281511e-01  4.653012653e-01 -8.122281511e-01  5.932691166e-03  3.053050436e-03
3.425000000  6.440883906e-03  2.850423622e-03  4.203072370e-01 -8.363698474e-01  4.203072370e-01 -8.363698474e-01  6.440883906e-03  2.850423622e-03
3.450000000  6.934294174e-03  2.598910523e-03  3.740562519e-01 -8.580252472e-01  3.740562519e-01 -8.580252472e-01  6.934294174e-03  2.598910523e-03
3.475000000  7.407035511e-03  2.299583196e-03  3.266867440e-01 -8.771281423e-01  3.266867440e-01 -8.771281423e-01  7.407035511e-03  2.299583196e-03
3.500000000  7.852201381e-03  1.953919199e-03  2.783366404e-01 -8.936214428e-01  2.783366404e-01 -8.936214428e-01  7.852201381e-03  1.953919199e-03
3.525000000  8.264808443e-03  1.565043003e-03  2.291545911e-01 -9.074531980e-01  2.291545911e-01 -9.074531980e-01  8.264808443e-03  1.565043003e-03
3.550000000  8.638163218e-03  1.135880522e-03  1.792817960e-01 -9.185825045e-01  1.792817960e-01 -9.185825045e-01  8.638163218e-03  1.135880522e-03
3.575000000  8.967969518e-03  6.710620138e-04  1.288697232e-01 -9.269741908e-01  1.288697232e-01 -9.269741908e-01  8.967969518e-03  6.710620138e-04
3.600000000  9.248074042e-03  1.748339549e-04  7.806468165e-02 -9.326025161e-01  7.806468165e-02 -9.326025161e-01  9.248074042e-03  1.748339549e-04
3.625000000  9.476525581e-03 -3.466870043e-04  2.702174876e-02 -9.354488759e-01  2.702174876e-02 -9.354488759e-01  9.476525581e-03 -3.466870043e-04
3.650000000  9.646755594e-03 -8.882785960e-04 -2.411112682e-02 -9.355036074e-01 -2.411112682e-02 -9.355036074e-01  9.646755594e-03 -8.882785960e-04
3.675000000  9.759205771e-03 -1.443091823e-03 -7.517709285e-02 -9.327650589e-01 -7.517709285e-02 -9.327650589e-01  9.759205771e-03 -1.443091823e-03
3.700000000  9.807482840e-03 -2.004555511e-03 -1.260283343e-01 -9.272397042e-01 -1.260283343e-01 -9.272397042e-01  9.807482840e-03 -2.004555511e-03
3.725000000  9.793719628e-03 -2.565502365e-03 -1.765070616e-01 -9.189432246e-01 -1.765070616e-01 -9.189432246e-01  9.793719628e-03 -2.565502365e-03
3.750000000  9.713292255e-03 -3.118140051e-03 -2.264680435e-01 -9.078980825e-01 -2.264680435e-01 -9.078980825e-01  9.713292255e-03 -3.118140051e-03
3.775000000  9.568921631e-03 -3.654778025e-03 -2.757554047e-01 -8.941372740e-01 -2.757554047e-01 -8.941372740e-01  9.568921631e-03 -3.654778025e-03
3.800000000  9.359223621e-03 -4.167311711e-03 -3.242271515e-01 -8.776990472e-01 -3.242271515e-01 -8.776990472e-01  9.359223621e-03 -4.167311711e-03
3.825000000  9.088200167e-03 -4.647669192e-03 -3.717324543e-01 -8.586330435e-01 -3.717324543e-01 -8.586330435e-01  9.088200167e-03 -4.647669192e-03
3.850000000  8.757059866e-03 -5.088179653e-03 -4.181334769e-01 -8.369931259e-01 -4.181334769e-01 -8.369931259e-01  8.757059866e-03 -5.088179653e-03
3.875000000  8.371888504e-03 -5.481341890e-03 -4.632870518e-01 -8.128443999e-01 -4.632870518e-01 -8.128443999e-01  8.371888504e-03 -5.481341890e-03
3.900000000  7.935840272e-03 -5.820156553e-03 -5.070605335e-01 -7.862561695e-01 -5.070605335e-01 -7.862561695e-01  7.935840272e-03 -5.820156553e-03
3.925000000  7.456652759e-03 -6.098605118e-03 -5.493199859e-01 -7.573079008e-01 -5.493199859e-01 -7.573079008e-01  7.456652759e-03 -6.098605118e-03
3.950000000  6.939381018e-03 -6.310589917e-03 -5.899396759e-01 -7.260838176e-01 -5.899396759e-01 -7.260838176e-01  6.939381018e-03 -6.310589917e-03
3.975000000  6.392146425e-03 -6.451522734e-03 -6.287960248e-01 -6.926767528e-01 -6.287960248e-01 -6.926767528e-01  6.392146425e-03 -6.451522734e-03
4.000000000  5.822137458e-03 -6.516791717e-03 -6.657721225e-01 -6.571849662e-01 -6.657721225e-01 -6.571849662e-01  5.822137458e-03 -6.516791717e-03
4.025000000  5.239018012e-03 -6.503926360e-03 -7.007538532e-01 -6.197157845e-01 -7.007538532e-01 -6.197157845e-01  5.239018012e-03 -6.503926360e-03
4.050000000  4.649989213e-03 -6.409327793e-03 -7.336370719e-01 -5.803784468e-01 -7.336370719e-01 -5.803784468e-01  4.649989213e-03 -6.409327793e-03
4.075000000  4.064645214e-03 -6.231538921e-03 -7.643208739e-01 -5.392909215e-01 -7.643208739e-01 -5.392909215e-01  4.064645214e-03 -6.231538921e-03
4.100000000  3.492843003e-03 -5.970334032e-03 -7.927112713e-01 -4.965763947e-01 -7.927112713e-01 -4.965763947e-01  3.492843003e-03 -5.970334032e-03
4.125000000  2.944002947e-03 -5.625936059e-03 -8.187222150e-01 -4.523613879e-01 -8.187222150e-01 -4.523613879e-01  2.944002947e-03 -5.625936059e-03
4.150000000  2.428417554e-03 -5.200536739e-03 -8.422730338e-01 -4.067799310e-01 -8.422730338e-01 -4.067799310e-01  2.428417554e-03 -5.200536739e-03
4.175000000  1.955221710e-03 -4.696839711e-03 -8.632926996e-01 -3.599659692e-01 -8.632926996e-01 -3.599659692e-01  1.955221710e-03 -4.696839711e-03
4.200000000  1.534605723e-03 -4.119562208e-03 -8.817151560e-01 -3.120626853e-01 -8.817151560e-01 -3.120626853e-01  1.534605723e-03 -4.119562208e-03
4.225000000  1.174450534e-03 -3.473481398e-03 -8.974848234e-01 -2.632099722e-01 -8.974848234e-01 -2.632099722e-01  1.174450534e-03 -3.473481398e-03
4.250000000  8.839832867e-04 -2.765675259e-03 -9.105515469e-01 -2.135574241e-01 -9.105515469e-01 -2.135574241e-01  8.839832867e-04 -2.765675259e-03
4.275000000  6.705946300e-04 -2.003574807e-03 -9.208745646e-01 -1.632538381e-01 -9.208745646e-01 -1.632538381e-01  6.705946300e-04 -2.003574807e-03
4.300000000  5.409647546e-04 -1.195488945e-03 -9.284211422e-01 -1.124508885e-01 -9.284211422e-01 -1.124508885e-01  5.409647546e-04 -1.195488945e-03
4.325000000  5.003986141e-04 -3.496716488e-04 -9.331671841e-01 -6.129847747e-02 -9.331671841e-01 -6.129847747e-02  5.003986141e-04 -3.496716488e-04
4.350000000  5.545072743e-04  5.229187893e-04 -9.350962219e-01 -9.956562362e-03 -9.350962219e-01 -9.956562362e-03  5.545072743e-04  5.229187893e-04
4.375000000  7.065129086e-04  1.412843098e-03 -9.342010489e-01  4.142549070e-02 -9.342010489e-01  4.142549070e-02  7.065129086e-04  1.412843098e-03
4.400000000  9.595188298e-04  2.308375668e-03 -9.304829743e-01  9.268557853e-02 -9.304829743e-01  9.268557853e-02  9.595188298e-04  2.308375668e-03
4.425000000  1.314574175e-03  3.198617828e-03 -9.239513507e-01  1.436748224e-01 -9.239513507e-01  1.436748224e-01  1.314574175e-03  3.198617828e-03
4.450000000  1.772090408e-03  4.071558661e-03 -9.146253391e-01  1.942323956e-01 -9.146253391e-01  1.942323956e-01  1.772090408e-03  4.071558661e-03
4.475000000  2.330508973e-03  4.915594837e-03 -9.025308536e-01  2.442105148e-01 -9.025308536e-01  2.442105148e-01  2.330508973e-03  4.915594837e-03
4.500000000  2.987333243e-03  5.718929754e-03 -8.877038292e-01  2.934542909e-01 -8.877038292e-01  2.934542909e-01  2.987333243e-03  5.718929754e-03
4.525000000  3.738542399e-03  6.470206484e-03 -8.701882011e-01  3.418137564e-01 -8.701882011e-01  3.418137564e-01  3.738542399e-03  6.470206484e-03
4.550000000  4.578771292e-03  7.158536720e-03 -8.500357131e-01  3.891426380e-01 -8.500357131e-01  3.891426380e-01  4.578771292e-03  7.158536720e-03
4.575000000  5.501231370e-03  7.773292727e-03 -8.273053632e-01  4.352988833e-01 -8.273053632e-01  4.352988833e-01  5.501231370e-03  7.773292727e-03
4.600000000  6.498284409e-03  8.305077127e-03 -8.020659350e-01  4.801398023e-01 -8.020659350e-01  4.801398023e-01  6.498284409e-03  8.305077127e-03
4.625000000  7.560799881e-03  8.744795704e-03 -7.743921623e-01  5.235301138e-01 -7.743921623e-01  5.235301138e-01  7.560799881e-03  8.744795704e-03
4.650000000  8.678848667e-03  9.084700622e-03 -7.443677107e-01  5.653363521e-01 -7.443677107e-01  5.653363521e-01  8.678848667e-03  9.084700622e-03
4.675000000  9.841367090e-03  9.317870450e-03 -7.120823935e-01  6.054315027e-01 -7.120823935e-01  6.054315027e-01  9.841367090e-03  9.317870450e-03
4.700000000  1.103640597e-02  9.438619245e-03 -6.776337771e-01  6.436926144e-01 -6.776337771e-01  6.436926144e-01  1.103640597e-02  9.438619245e-03
4.725000000  1.225142755e-02  9.442724054e-03 -6.411259129e-01  6.800025974e-01 -6.411259129e-01  6.800025974e-01  1.225142755e-02  9.442724054e-03
4.750000000  1.347297519e-02  9.326946434e-03 -6.026676406e-01  7.142516356e-01 -6.026676406e-01  7.142516356e-01  1.347297519e-02  9.326946434e-03
4.775000000  1.468777510e-02  9.090685805e-03 -5.623786552e-01  7.463319593e-01 -5.623786552e-01  7.463319593e-01  1.468777510e-02  9.090685805e-03
4.800000000  1.588176067e-02  8.733547792e-03 -5.203774778e-01  7.761481543e-01 -5.203774778e-01  7.761481543e-01  1.588176067e-02  8.733547792e-03
4.825000000  1.704134305e-02  8.257840272e-03 -4.767930388e-01  8.036074822e-01 -4.767930388e-01  8.036074822e-01  1.704134305e-02  8.257840272e-03
4.850000000  1.815268951e-02  7.666411087e-03 -4.317547737e-01  8.286271943e-01 -4.317547737e-01  8.286271943e-01  1.815268951e-02  7.666411087e-03
4.875000000  1.920321793e-02  6.965219541e-03 -3.854019517e-01  8.511287677e-01 -3.854019517e-01  8.511287677e-01  1.920321793e-02  6.965219541e-03
4.900000000  2.017939514e-02  6.159556205e-03 -3.378713902e-01  8.710446404e-01 -3.378713902e-01  8.710446404e-01  2.017939514e-02  6.159556205e-03
4.925000000  2.107057364e-02  5.258642118e-03 -2.893107313e-01  8.883117473e-01 -2.893107313e-01  8.883117473e-01  2.107057364e-02  5.258642118e-03
4.950000000  2.186388537e-02  4.270313564e-03 -2.398630116e-01  9.028780723e-01 -2.398630116e-01  9.028780723e-01  2.186388537e-02  4.270313564e-03
4.975000000  2.255102265e-02  3.206432956e-03 -1.896829670e-01  9.146968214e-01 -1.896829670e-01  9.146968214e-01  2.255102265e-02  3.206432956e-03
5.000000000  2.312074965e-02  2.077485018e-03 -1.389175124e-01  9.237322304e-01 -1.389175124e-01  9.237322304e-01  2.312074965e-02  2.077485018e-03
5.025000000  2.356712940e-02  8.975163632e-04 -8.772733840e-02  9.299545037e-01 -8.772733840e-02  9.299545037e-01  2.356712940e-02  8.975163632e-04
5.050000000  2.388192601e-02 -3.206940599e-04 -3.626126852e-02  9.333444195e-01 -3.626126852e-02  9.333444195e-01  2.388192601e-02 -3.206940599e-04
5.075000000  2.406162847e-02 -1.561404839e-03  1.531758079e-02  9.338899714e-01  1.531758079e-02  9.338899714e-01  2.406162847e-02 -1.561404839e-03
5.100000000  2.410191565e-02 -2.810292215e-03  6.685853656e-02  9.315883664e-01  6.685853656e-02  9.315883664e-01  2.410191565e-02 -2.810292215e-03
5.125000000  2.400258059e-02 -4.050623519e-03  1.181992924e-01  9.264454679e-01  1.181992924e-01  9.264454679e-01  2.400258059e-02 -4.050623519e-03
5.150000000  2.376295544e-02 -5.267424283e-03  1.691884124e-01  9.184750998e-01  1.691884124e-01  9.184750998e-01  2.376295544e-02 -5.267424283e-03
5.175000000  2.338665269e-02 -6.444106292e-03  2.196667430e-01  9.077005536e-01  2.196667430e-01  9.077005536e-01  2.338665269e-02 -6.444106292e-03
5.200000000  2.287651567e-02 -7.565651804e-03  2.694835856e-01  8.941524251e-01  2.694835856e-01  8.941524251e-01  2.287651567e-02 -7.565651804e-03
5.225000000  2.223939544e-02 -8.616649201e-03  3.184847823e-01  8.778707989e-01  3.184847823e-01  8.778707989e-01  2.223939544e-02 -8.616649201e-03
5.250000000  2.148191493e-02 -9.582694474e-03  3.665222486e-01  8.589029984e-01  3.665222486e-01  8.589029984e-01  2.148191493e-02 -9.582694474e-03
5.275000000  2.061456268e-02 -1.045001542e-02  4.134457966e-01  8.373063969e-01  4.134457966e-01  8.373063969e-01  2.061456268e-02 -1.045001542e-02
5.300000000  1.964650418e-02 -1.120585245e-02  4.591147494e-01  8.131437502e-01  4.591147494e-01  8.131437502e-01  1.964650418e-02 -1.120585245e-02
5.325000000  1.859036562e-02 -1.183845558e-02  5.033869806e-01  7.864879301e-01  5.033869806e-01  7.864879301e-01  1.859036562e-02 -1.183845558e-02
5.350000000  1.745967469e-02 -1.233750223e-02  5.461264589e-01  7.574185515e-01  5.461264589e-01  7.574185515e-01  1.745967469e-02 -1.233750223e-02
5.375000000  1.626904312e-02 -1.269399544e-02  5.872013555e-01  7.260228207e-01  5.872013555e-01  7.260228207e-01  1.626904312e-02 -1.269399544e-02
5.400000000  1.503450747e-02 -1.290076892e-02  6.264840915e-01  6.923957159e-01  6.264840915e-01  6.923957159e-01  1.503450747e-02 -1.290076892e-02
5.425000000  1.377261891e-02 -1.295240111e-02  6.638541245e-01  6.566376625e-01  6.638541245e-01  6.566376625e-01  1.377261891e-02 -1.295240111e-02
5.450000000  1.250109172e-02 -1.284538377e-02  6.991940224e-01  6.188581231e-01  6.991940224e-01  6.188581231e-01  1.250109172e-02 -1.284538377e-02
5.475000000  1.123734794e-02 -1.257828984e-02  7.323959217e-01  5.791691912e-01  7.323959217e-01  5.791691912e-01  1.123734794e-02 -1.257828984e-02
5.500000000  9.999837773e-03 -1.215163869e-02  7.633546192e-01  5.376930422e-01  7.633546192e-01  5.376930422e-01  9.999837773e-03 -1.215163869e-02
5.525000000  8.806603929e-03 -1.156812122e-02  7.919733341e-01  4.945558174e-01  7.919733341e-01  4.945558174e-01  8.806603929e-03 -1.156812122e-02
5.550000000  7.675191314e-03 -1.083231091e-02  8.181626229e-01  4.498884359e-01  8.181626229e-01  4.498884359e-01  7.675191314e-03 -1.083231091e-02
5.575000000  6.622459899e-03 -9.950538876e-03  8.418410273e-01  4.038250924e-01  8.418410273e-01  4.038250924e-01  6.622459899e-03 -9.950538876e-03
5.600000000  5.665486689e-03 -8.931627964e-03  8.629316251e-01  3.565105278e-01  8.629316251e-01  3.565105278e-01  5.665486689e-03 -8.931627964e-03
5.625000000  4.819416189e-03 -7.785572833e-03  8.813692667e-01  3.080854559e-01  8.813692667e-01  3.080854559e-01  4.819416189e-03 -7.785572833e-03
5.650000000  4.099100008e-03 -6.524828034e-03  8.970930010e-01  2.587040502e-01  8.970930010e-01  2.587040502e-01  4.099100008e-03 -6.524828034e-03
5.675000000  3.517483423e-03 -5.162986749e-03  9.100541270e-01  2.085124880e-01  9.100541270e-01  2.085124880e-01  3.517483423e-03 -5.162986749e-03
5.700000000  3.086306195e-03 -3.715648384e-03  9.202089912e-01  1.576720656e-01  9.202089912e-01  1.576720656e-01  3.086306195e-03 -3.715648384e-03
5.725000000  2.815483731e-03 -2.199429969e-03  9.275256395e-01  1.063333805e-01  9.275256395e-01  1.063333805e-01  2.815483731e-03 -2.199429969e-03
5.750000000  2.712985859e-03 -6.323667238e-04  9.319788904e-01  5.465936821e-02  9.319788904e-01  5.465936821e-02  2.712985859e-03 -6.323667238e-04
5.775000000  2.784746164e-03  9.667072678e-04  9.335534547e-01  2.809584325e-03  9.335534547e-01  2.809584325e-03  2.784746164e-03  9.667072678e-04
5.800000000  3.034555555e-03  2.578335034e-03  9.322429703e-01 -4.905535106e-02  9.322429703e-01 -4.905535106e-02  3.034555555e-03  2.578335034e-03
5.825000000  3.464348863e-03  4.182472939e-03  9.280497789e-01 -1.007774666e-01  9.280497789e-01 -1.007774666e-01  3.464348863e-03  4.182472939e-03
5.850000000  4.073295697e-03  5.759147736e-03  9.209856135e-01 -1.521931024e-01  9.209856135e-01 -1.521931024e-01  4.073295697e-03  5.759147736e-03
5.875000000  4.858817369e-03  7.288050742e-03  9.110707026e-01 -2.031448273e-01  9.110707026e-01 -2.031448273e-01  4.858817369e-03  7.288050742e-03
5.900000000  5.815734272e-03  8.749513464e-03  8.983349034e-01 -2.534722904e-01  8.983349034e-01 -2.534722904e-01  5.815734272e-03  8.749513464e-03
5.925000000  6.936859186e-03  1.012405726e-02  8.828162741e-01 -3.030202683e-01  8.828162741e-01 -3.030202683e-01  6.936859186e-03  1.012405726e-02
5.950000000  8.212593072e-03  1.139309083e-02  8.645624438e-01 -3.516330865e-01  8.645624438e-01 -3.516330865e-01  8.212593072e-03  1.139309083e-02
5.975000000  9.631361810e-03  1.253905510e-02  8.436290414e-01 -3.991599986e-01  8.436290414e-01 -3.991599986e-01  9.631361810e-03  1.253905510e-02
6.000000000  1.117953221e-02  1.354552399e-02  8.200800271e-01 -4.454535029e-01  8.200800271e-01 -4.454535029e-01  1.117953221e-02  1.354552399e-02
6.025000000  1.284105438e-02  1.439789470e-02  7.939897837e-01 -4.903661501e-01  7.939897837e-01 -4.903661501e-01  1.284105438e-02  1.439789470e-02
6.050000000  1.459902354e-02  1.508312991e-02  7.654373997e-01 -5.337609186e-01  7.654373997e-01 -5.337609186e-01  1.459902354e-02  1.508312991e-02
6.075000000  1.643453225e-02  1.559029642e-02  7.345118418e-01 -5.755016676e-01  7.345118418e-01 -5.755016676e-01  1.643453225e-02  1.559029642e-02
6.100000000  1.832795169e-02  1.591050759e-02  7.013077506e-01 -6.154598348e-01  7.013077506e-01 -6.154598348e-01  1.832795169e-02  1.591050759e-02
6.125000000  2.025794146e-02  1.603748850e-02  6.659293944e-01 -6.535093715e-01  6.659293944e-01 -6.535093715e-01  2.025794146e-02  1.603748850e-02
6.150000000  2.220348151e-02  1.596651536e-02  6.284842341e-01 -6.895341063e-01  6.284842341e-01 -6.895341063e-01  2.220348151e-02  1.596651536e-02
6.175000000  2.414213464e-02  1.569647537e-02  5.890901677e-01 -7.234200979e-01  5.890901677e-01 -7.234200979e-01  2.414213464e-02  1.569647537e-02
6.200000000  2.605193477e-02  1.522696049e-02  5.478666784e-01 -7.550640409e-01  5.478666784e-01 -7.550640409e-01  2.605193477e-02  1.522696049e-02
6.225000000  2.791050034e-02  1.456197791e-02  5.049439809e-01 -7.843655043e-01  5.049439809e-01 -7.843655043e-01  2.791050034e-02  1.456197791e-02
6.250000000  2.969583272e-02  1.370595527e-02  4.604518263e-01 -8.112354296e-01  4.604518263e-01 -8.112354296e-01  2.969583272e-02  1.370595527e-02
6.275000000  3.138625659e-02  1.266770486e-02  4.145318397e-01 -8.355878878e-01  4.145318397e-01 -8.355878878e-01  3.138625659e-02  1.266770486e-02
6.300000000  3.296144776e-02  1.145683459e-02  3.673214795e-01 -8.573495122e-01  3.673214795e-01 -8.573495122e-01  3.296144776e-02  1.145683459e-02
6.325000000  3.440100620e-02  1.008685865e-02  3.189726704e-01 -8.764499256e-01  3.189726704e-01 -8.764499256e-01  3.440100620e-02  1.008685865e-02
6.350000000  3.568792354e-02  8.572078501e-03  2.696286919e-01 -8.928320540e-01  2.696286919e-01 -8.928320540e-01  3.568792354e-02  8.572078501e-03
6.375000000  3.680466375e-02  6.930468120e-03  2.194479971e-01 -9.064427946e-01  2.194479971e-01 -9.064427946e-01  3.680466375e-02  6.930468120e-03
6.400000000  3.773798011e-02  5.180056486e-03  1.685799269e-01 -9.172410220e-01  1.685799269e-01 -9.172410220e-01  3.773798011e-02  5.180056486e-03
6.425000000  3.847498933e-02  3.342410057e-03  1.171860338e-01 -9.251916742e-01  1.171860338e-01 -9.251916742e-01  3.847498933e-02  3.342410057e-03
6.450000000  3.900631553e-02  1.438410772e-03  6.542082458e-02 -9.302699643e-01  6.542082458e-02 -9.302699643e-01  3.900631553e-02  1.438410772e-03
6.475000000  3.932451976e-02 -5.082651440e-04  1.344661610e-02 -9.324588307e-01  1.344661610e-02 -9.324588307e-01  3.932451976e-02 -5.082651440e-04
6.500000000  3.942461367e-02 -2.474492608e-03 -3.857847678e-02 -9.317503576e-01 -3.857847678e-02 -9.317503576e-01  3.942461367e-02 -2.474492608e-03
6.525000000  3.930459051e-02 -4.435373942e-03 -9.049086837e-02 -9.281453896e-01 -9.049086837e-02 -9.281453896e-01  3.930459051e-02 -4.435373942e-03
6.550000000  3.896449960e-02 -6.366952525e-03 -1.421331395e-01 -9.216533193e-01 -1.421331395e-01 -9.216533193e-01  3.896449960e-02 -6.366952525e-03
6.575000000  3.840736521e-02 -8.244324013e-03 -1.933432327e-01 -9.122927271e-01 -1.933432327e-01 -9.122927271e-01  3.840736521e-02 -8.244324013e-03
6.600000000  3.763908180e-02 -1.004327263e-02 -2.439634372e-01 -9.000905668e-01 -2.439634372e-01 -9.000905668e-01  3.763908180e-02 -1.004327263e-02
6.625000000  3.666794892e-02 -1.173992753e-02 -2.938354641e-01 -8.850829658e-01 -2.938354641e-01 -8.850829658e-01  3.666794892e-02 -1.173992753e-02
6.650000000  3.550535879e-02 -1.331155476e-02 -3.428045454e-01 -8.673143385e-01 -3.428045454e-01 -8.673143385e-01  3.550535879e-02 -1.331155476e-02
6.675000000  3.416513104e-02 -1.473658103e-02 -3.907181925e-01 -8.468376345e-01 -3.907181925e-01 -8.468376345e-01  3.416513104e-02 -1.473658103e-02
6.700000000  3.266355969e-02 -1.599500418e-02 -4.374261544e-01 -8.237145423e-01 -4.374261544e-01 -8.237145423e-01  3.266355969e-02 -1.599500418e-02
6.725000000  3.101942449e-02 -1.706890182e-02 -4.827837784e-01 -7.980138368e-01 -4.827837784e-01 -7.980138368e-01  3.101942449e-02 -1.706890182e-02
6.750000000  2.925320564e-02 -1.794214698e-02 -5.266473310e-01 -7.698139171e-01 -5.266473310e-01 -7.698139171e-01  2.925320564e-02 -1.794214698e-02
6.775000000  2.738748097e-02 -1.860127572e-02 -5.688809887e-01 -7.391987052e-01 -5.688809887e-01 -7.391987052e-01  2.738748097e-02 -1.860127572e-02
6.800000000  2.544606248e-02 -1.903502284e-02 -6.093497909e-01 -7.062623416e-01 -6.093497909e-01 -7.062623416e-01  2.544606248e-02 -1.903502284e-02
6.825000000  2.345416645e-02 -1.923485352e-02 -6.479275259e-01 -6.711035009e-01 -6.479275259e-01 -6.711035009e-01  2.345416645e-02 -1.923485352e-02
6.850000000  2.143787212e-02 -1.919502821e-02 -6.844898404e-01 -6.338311584e-01 -6.844898404e-01 -6.338311584e-01  2.143787212e-02 -1.919502821e-02
6.875000000  1.942402199e-02 -1.891253540e-02 -7.189217611e-01 -5.945577975e-01 -7.189217611e-01 -5.945577975e-01  1.942402199e-02 -1.891253540e-02
6.900000000  1.743974390e-02 -1.838756481e-02 -7.511107567e-01 -5.534068298e-01 -7.511107567e-01 -5.534068298e-01  1.743974390e-02 -1.838756481e-02
6.925000000  1.551232711e-02 -1.762317621e-02 -7.809554627e-01 -5.105024571e-01 -7.809554627e-01 -5.105024571e-01  1.551232711e-02 -1.762317621e-02
6.950000000  1.366854164e-02 -1.662587089e-02 -8.083564114e-01 -4.659821836e-01 -8.083564114e-01 -4.659821836e-01  1.366854164e-02 -1.662587089e-02
6.975000000  1.193475069e-02 -1.540471946e-02 -8.332276451e-01 -4.199796425e-01 -8.332276451e-01 -4.199796425e-01  1.193475069e-02 -1.540471946e-02
7.000000000  1.033587533e-02 -1.397242985e-02 -8.554857234e-01 -3.726425549e-01 -8.554857234e-01 -3.726425549e-01  1.033587533e-02 -1.397242985e-02
