! yapnr Order 0 O0-M: O0-M A10 M-MK 30 (variant, family M-MK)
! stackup OSHPARK-4L-EM528, nominal parameters; geometry of the OSHPARK-4L-FR408HR design
! model: 2D quasi-static RLGC (Djordjevic-Sarkar, Huray roughness, Wheeler loss); generated by python -m yapnr.rf.coupons expected --stackup OSHPARK-4L-FR408HR --upload M
! reference planes 10 mm from each end; 50 ohm (from the M line's Zc)
# GHz S DB R 50
0.03 -57.181 -49.05 -0.0099164 -1.93 -0.0099164 -1.93 -57.181 -49.05
0.06 -51.065 -66.86 -0.014523 -3.82 -0.014523 -3.82 -51.065 -66.86
0.09 -47.323 -75.23 -0.018374 -5.71 -0.018374 -5.71 -47.323 -75.23
0.12 -44.668 -80.72 -0.021848 -7.59 -0.021848 -7.59 -44.668 -80.72
0.15 -42.623 -84.93 -0.025091 -9.47 -0.025091 -9.47 -42.623 -84.93
0.18 -40.966 -88.47 -0.02818 -11.34 -0.02818 -11.34 -40.966 -88.47
0.21 -39.579 -91.59 -0.031159 -13.22 -0.031159 -13.22 -39.579 -91.59
0.24 -38.389 -94.44 -0.034055 -15.09 -0.034055 -15.09 -38.389 -94.44
0.27 -37.349 -97.10 -0.03689 -16.96 -0.03689 -16.96 -37.349 -97.10
0.3 -36.429 -99.63 -0.039675 -18.84 -0.039675 -18.84 -36.429 -99.63
0.33 -35.605 -102.06 -0.042421 -20.71 -0.042421 -20.71 -35.605 -102.06
0.36 -34.862 -104.40 -0.045136 -22.58 -0.045136 -22.58 -34.862 -104.40
0.39 -34.186 -106.68 -0.047825 -24.45 -0.047825 -24.45 -34.186 -106.68
0.42 -33.568 -108.91 -0.050493 -26.31 -0.050493 -26.31 -33.568 -108.91
0.45 -33.001 -111.10 -0.053141 -28.18 -0.053141 -28.18 -33.001 -111.10
0.48 -32.477 -113.26 -0.055774 -30.05 -0.055774 -30.05 -32.477 -113.26
0.51 -31.993 -115.38 -0.058393 -31.92 -0.058393 -31.92 -31.993 -115.38
0.54 -31.543 -117.48 -0.060998 -33.78 -0.060998 -33.78 -31.543 -117.48
0.57 -31.125 -119.56 -0.063591 -35.65 -0.063591 -35.65 -31.125 -119.56
0.6 -30.736 -121.62 -0.066172 -37.51 -0.066172 -37.51 -30.736 -121.62
0.63 -30.372 -123.66 -0.068742 -39.38 -0.068742 -39.38 -30.372 -123.66
0.66 -30.033 -125.69 -0.0713 -41.24 -0.0713 -41.24 -30.033 -125.69
0.69 -29.715 -127.70 -0.073845 -43.11 -0.073845 -43.11 -29.715 -127.70
0.72 -29.419 -129.71 -0.076379 -44.97 -0.076379 -44.97 -29.419 -129.71
0.75 -29.141 -131.70 -0.0789 -46.84 -0.0789 -46.84 -29.141 -131.70
0.78 -28.881 -133.68 -0.081407 -48.70 -0.081407 -48.70 -28.881 -133.68
0.81 -28.638 -135.66 -0.0839 -50.56 -0.0839 -50.56 -28.638 -135.66
0.84 -28.411 -137.62 -0.086379 -52.42 -0.086379 -52.42 -28.411 -137.62
0.87 -28.199 -139.58 -0.088841 -54.29 -0.088841 -54.29 -28.199 -139.58
0.9 -28.002 -141.54 -0.091287 -56.15 -0.091287 -56.15 -28.002 -141.54
0.93 -27.818 -143.48 -0.093716 -58.01 -0.093716 -58.01 -27.818 -143.48
0.96 -27.647 -145.42 -0.096125 -59.87 -0.096125 -59.87 -27.647 -145.42
0.99 -27.489 -147.36 -0.098516 -61.73 -0.098516 -61.73 -27.489 -147.36
1.02 -27.342 -149.29 -0.10089 -63.59 -0.10089 -63.59 -27.342 -149.29
1.05 -27.208 -151.21 -0.10324 -65.45 -0.10324 -65.45 -27.208 -151.21
1.08 -27.085 -153.14 -0.10556 -67.31 -0.10556 -67.31 -27.085 -153.14
1.11 -26.973 -155.05 -0.10787 -69.17 -0.10787 -69.17 -26.973 -155.05
1.14 -26.871 -156.97 -0.11015 -71.03 -0.11015 -71.03 -26.871 -156.97
1.17 -26.78 -158.88 -0.11241 -72.89 -0.11241 -72.89 -26.78 -158.88
1.2 -26.699 -160.78 -0.11464 -74.75 -0.11464 -74.75 -26.699 -160.78
1.23 -26.628 -162.69 -0.11684 -76.61 -0.11684 -76.61 -26.628 -162.69
1.26 -26.567 -164.59 -0.11903 -78.47 -0.11903 -78.47 -26.567 -164.59
1.29 -26.515 -166.48 -0.12118 -80.33 -0.12118 -80.33 -26.515 -166.48
1.32 -26.473 -168.38 -0.12331 -82.18 -0.12331 -82.18 -26.473 -168.38
1.35 -26.44 -170.27 -0.12541 -84.04 -0.12541 -84.04 -26.44 -170.27
1.38 -26.417 -172.16 -0.12748 -85.90 -0.12748 -85.90 -26.417 -172.16
1.41 -26.403 -174.04 -0.12952 -87.76 -0.12952 -87.76 -26.403 -174.04
1.44 -26.398 -175.92 -0.13154 -89.62 -0.13154 -89.62 -26.398 -175.92
1.47 -26.403 -177.80 -0.13353 -91.47 -0.13353 -91.47 -26.403 -177.80
1.5 -26.416 -179.68 -0.13549 -93.33 -0.13549 -93.33 -26.416 -179.68
1.53 -26.439 178.44 -0.13743 -95.19 -0.13743 -95.19 -26.439 178.44
1.56 -26.471 176.57 -0.13933 -97.05 -0.13933 -97.05 -26.471 176.57
1.59 -26.512 174.70 -0.14122 -98.90 -0.14122 -98.90 -26.512 174.70
1.62 -26.563 172.83 -0.14307 -100.76 -0.14307 -100.76 -26.563 172.83
1.65 -26.624 170.97 -0.1449 -102.62 -0.1449 -102.62 -26.624 170.97
1.68 -26.693 169.10 -0.1467 -104.47 -0.1467 -104.47 -26.693 169.10
1.71 -26.773 167.24 -0.14848 -106.33 -0.14848 -106.33 -26.773 167.24
1.74 -26.863 165.38 -0.15024 -108.19 -0.15024 -108.19 -26.863 165.38
1.77 -26.963 163.53 -0.15197 -110.05 -0.15197 -110.05 -26.963 163.53
1.8 -27.073 161.68 -0.15368 -111.90 -0.15368 -111.90 -27.073 161.68
1.83 -27.194 159.83 -0.15537 -113.76 -0.15537 -113.76 -27.194 159.83
1.86 -27.325 157.98 -0.15704 -115.62 -0.15704 -115.62 -27.325 157.98
1.89 -27.468 156.13 -0.15869 -117.48 -0.15869 -117.48 -27.468 156.13
1.92 -27.623 154.29 -0.16032 -119.33 -0.16032 -119.33 -27.623 154.29
1.95 -27.789 152.46 -0.16194 -121.19 -0.16194 -121.19 -27.789 152.46
1.98 -27.969 150.62 -0.16354 -123.05 -0.16354 -123.05 -27.969 150.62
2.01 -28.161 148.79 -0.16513 -124.91 -0.16513 -124.91 -28.161 148.79
2.04 -28.366 146.96 -0.1667 -126.76 -0.1667 -126.76 -28.366 146.96
2.07 -28.586 145.14 -0.16826 -128.62 -0.16826 -128.62 -28.586 145.14
2.1 -28.821 143.32 -0.16982 -130.48 -0.16982 -130.48 -28.821 143.32
2.13 -29.072 141.51 -0.17136 -132.34 -0.17136 -132.34 -29.072 141.51
2.16 -29.34 139.71 -0.1729 -134.20 -0.1729 -134.20 -29.34 139.71
2.19 -29.625 137.91 -0.17444 -136.05 -0.17444 -136.05 -29.625 137.91
2.22 -29.929 136.11 -0.17597 -137.91 -0.17597 -137.91 -29.929 136.11
2.25 -30.254 134.33 -0.17749 -139.77 -0.17749 -139.77 -30.254 134.33
2.28 -30.6 132.55 -0.17902 -141.63 -0.17902 -141.63 -30.6 132.55
2.31 -30.97 130.79 -0.18055 -143.49 -0.18055 -143.49 -30.97 130.79
2.34 -31.366 129.03 -0.18207 -145.35 -0.18207 -145.35 -31.366 129.03
2.37 -31.791 127.30 -0.1836 -147.21 -0.1836 -147.21 -31.791 127.30
2.4 -32.246 125.57 -0.18514 -149.07 -0.18514 -149.07 -32.246 125.57
2.43 -32.736 123.87 -0.18668 -150.92 -0.18668 -150.92 -32.736 123.87
2.46 -33.264 122.19 -0.18823 -152.78 -0.18823 -152.78 -33.264 122.19
2.49 -33.836 120.53 -0.18979 -154.64 -0.18979 -154.64 -33.836 120.53
2.52 -34.458 118.92 -0.19135 -156.50 -0.19135 -156.50 -34.458 118.92
2.55 -35.136 117.34 -0.19293 -158.36 -0.19293 -158.36 -35.136 117.34
2.58 -35.882 115.82 -0.19452 -160.22 -0.19452 -160.22 -35.882 115.82
2.61 -36.707 114.37 -0.19612 -162.08 -0.19612 -162.08 -36.707 114.37
2.64 -37.627 113.02 -0.19773 -163.94 -0.19773 -163.94 -37.627 113.02
2.67 -38.665 111.81 -0.19936 -165.80 -0.19936 -165.80 -38.665 111.81
2.7 -39.852 110.79 -0.20101 -167.66 -0.20101 -167.66 -39.852 110.79
2.73 -41.234 110.06 -0.20267 -169.52 -0.20267 -169.52 -41.234 110.06
2.76 -42.883 109.81 -0.20435 -171.38 -0.20435 -171.38 -42.883 109.81
2.79 -44.917 110.43 -0.20604 -173.24 -0.20604 -173.24 -44.917 110.43
2.82 -47.549 112.82 -0.20775 -175.10 -0.20775 -175.10 -47.549 112.82
2.85 -51.2 119.77 -0.20948 -176.96 -0.20948 -176.96 -51.2 119.77
2.88 -56.441 143.16 -0.21123 -178.82 -0.21123 -178.82 -56.441 143.16
2.91 -57.82 -152.64 -0.213 179.32 -0.213 179.32 -57.82 -152.64
2.94 -52.421 -119.42 -0.21478 177.46 -0.21478 177.46 -52.421 -119.42
2.97 -48.396 -110.10 -0.21659 175.60 -0.21659 175.60 -48.396 -110.10
3 -45.555 -106.92 -0.21841 173.74 -0.21841 173.74 -45.555 -106.92
3.03 -43.396 -105.96 -0.22025 171.88 -0.22025 171.88 -43.396 -105.96
3.06 -41.666 -106.02 -0.22211 170.02 -0.22211 170.02 -41.666 -106.02
3.09 -40.228 -106.64 -0.22399 168.16 -0.22399 168.16 -40.228 -106.64
3.12 -39 -107.59 -0.22588 166.31 -0.22588 166.31 -39 -107.59
3.15 -37.931 -108.75 -0.22779 164.45 -0.22779 164.45 -37.931 -108.75
3.18 -36.988 -110.06 -0.22972 162.59 -0.22972 162.59 -36.988 -110.06
3.21 -36.145 -111.48 -0.23166 160.73 -0.23166 160.73 -36.145 -111.48
3.24 -35.386 -112.97 -0.23362 158.87 -0.23362 158.87 -35.386 -112.97
3.27 -34.696 -114.52 -0.23559 157.01 -0.23559 157.01 -34.696 -114.52
3.3 -34.065 -116.11 -0.23757 155.15 -0.23757 155.15 -34.065 -116.11
3.33 -33.486 -117.74 -0.23957 153.29 -0.23957 153.29 -33.486 -117.74
3.36 -32.952 -119.40 -0.24157 151.43 -0.24157 151.43 -32.952 -119.40
3.39 -32.458 -121.08 -0.24359 149.57 -0.24359 149.57 -32.458 -121.08
3.42 -31.999 -122.78 -0.24562 147.72 -0.24562 147.72 -31.999 -122.78
3.45 -31.572 -124.49 -0.24765 145.86 -0.24765 145.86 -31.572 -124.49
3.48 -31.175 -126.22 -0.24969 144.00 -0.24969 144.00 -31.175 -126.22
3.51 -30.803 -127.96 -0.25174 142.14 -0.25174 142.14 -30.803 -127.96
3.54 -30.456 -129.71 -0.25379 140.28 -0.25379 140.28 -30.456 -129.71
3.57 -30.131 -131.47 -0.25584 138.42 -0.25584 138.42 -30.131 -131.47
3.6 -29.827 -133.23 -0.2579 136.57 -0.2579 136.57 -29.827 -133.23
3.63 -29.542 -135.01 -0.25995 134.71 -0.25995 134.71 -29.542 -135.01
3.66 -29.275 -136.78 -0.26201 132.85 -0.26201 132.85 -29.275 -136.78
3.69 -29.025 -138.56 -0.26406 130.99 -0.26406 130.99 -29.025 -138.56
3.72 -28.791 -140.34 -0.26611 129.14 -0.26611 129.14 -28.791 -140.34
3.75 -28.572 -142.13 -0.26815 127.28 -0.26815 127.28 -28.572 -142.13
3.78 -28.368 -143.92 -0.27019 125.42 -0.27019 125.42 -28.368 -143.92
3.81 -28.177 -145.72 -0.27222 123.57 -0.27222 123.57 -28.177 -145.72
3.84 -28 -147.51 -0.27424 121.71 -0.27424 121.71 -28 -147.51
3.87 -27.835 -149.31 -0.27626 119.85 -0.27626 119.85 -27.835 -149.31
3.9 -27.682 -151.11 -0.27826 118.00 -0.27826 118.00 -27.682 -151.11
3.93 -27.541 -152.91 -0.28025 116.14 -0.28025 116.14 -27.541 -152.91
3.96 -27.411 -154.71 -0.28222 114.29 -0.28222 114.29 -27.411 -154.71
3.99 -27.292 -156.51 -0.28418 112.43 -0.28418 112.43 -27.292 -156.51
4.02 -27.184 -158.31 -0.28613 110.57 -0.28613 110.57 -27.184 -158.31
4.05 -27.086 -160.11 -0.28806 108.72 -0.28806 108.72 -27.086 -160.11
4.08 -26.999 -161.92 -0.28997 106.86 -0.28997 106.86 -26.999 -161.92
4.11 -26.921 -163.72 -0.29187 105.01 -0.29187 105.01 -26.921 -163.72
4.14 -26.853 -165.53 -0.29374 103.15 -0.29374 103.15 -26.853 -165.53
4.17 -26.795 -167.33 -0.2956 101.30 -0.2956 101.30 -26.795 -167.33
4.2 -26.746 -169.14 -0.29744 99.44 -0.29744 99.44 -26.746 -169.14
4.23 -26.706 -170.94 -0.29926 97.58 -0.29926 97.58 -26.706 -170.94
4.26 -26.676 -172.74 -0.30106 95.73 -0.30106 95.73 -26.676 -172.74
4.29 -26.655 -174.55 -0.30283 93.87 -0.30283 93.87 -26.655 -174.55
4.32 -26.643 -176.35 -0.30459 92.02 -0.30459 92.02 -26.643 -176.35
4.35 -26.64 -178.15 -0.30632 90.16 -0.30632 90.16 -26.64 -178.15
4.38 -26.646 -179.95 -0.30804 88.31 -0.30804 88.31 -26.646 -179.95
4.41 -26.662 178.25 -0.30973 86.45 -0.30973 86.45 -26.662 178.25
4.44 -26.686 176.45 -0.3114 84.60 -0.3114 84.60 -26.686 176.45
4.47 -26.72 174.65 -0.31305 82.74 -0.31305 82.74 -26.72 174.65
4.5 -26.763 172.85 -0.31467 80.89 -0.31467 80.89 -26.763 172.85
4.53 -26.815 171.06 -0.31628 79.03 -0.31628 79.03 -26.815 171.06
4.56 -26.876 169.27 -0.31787 77.18 -0.31787 77.18 -26.876 169.27
4.59 -26.948 167.47 -0.31944 75.32 -0.31944 75.32 -26.948 167.47
4.62 -27.029 165.68 -0.32099 73.47 -0.32099 73.47 -27.029 165.68
4.65 -27.119 163.90 -0.32252 71.61 -0.32252 71.61 -27.119 163.90
4.68 -27.22 162.11 -0.32403 69.75 -0.32403 69.75 -27.22 162.11
4.71 -27.332 160.33 -0.32553 67.90 -0.32553 67.90 -27.332 160.33
4.74 -27.454 158.55 -0.32701 66.04 -0.32701 66.04 -27.454 158.55
4.77 -27.586 156.77 -0.32847 64.19 -0.32847 64.19 -27.586 156.77
4.8 -27.73 155.00 -0.32992 62.33 -0.32992 62.33 -27.73 155.00
4.83 -27.886 153.23 -0.33136 60.47 -0.33136 60.47 -27.886 153.23
4.86 -28.053 151.47 -0.33279 58.62 -0.33279 58.62 -28.053 151.47
4.89 -28.233 149.71 -0.3342 56.76 -0.3342 56.76 -28.233 149.71
4.92 -28.427 147.95 -0.33561 54.90 -0.33561 54.90 -28.427 147.95
4.95 -28.633 146.20 -0.337 53.05 -0.337 53.05 -28.633 146.20
4.98 -28.854 144.46 -0.33839 51.19 -0.33839 51.19 -28.854 144.46
5.01 -29.09 142.73 -0.33978 49.33 -0.33978 49.33 -29.09 142.73
5.04 -29.342 141.00 -0.34115 47.48 -0.34115 47.48 -29.342 141.00
5.07 -29.61 139.28 -0.34253 45.62 -0.34253 45.62 -29.61 139.28
5.1 -29.896 137.57 -0.3439 43.76 -0.3439 43.76 -29.896 137.57
5.13 -30.201 135.88 -0.34527 41.90 -0.34527 41.90 -30.201 135.88
5.16 -30.527 134.19 -0.34664 40.05 -0.34664 40.05 -30.527 134.19
5.19 -30.874 132.53 -0.34802 38.19 -0.34802 38.19 -30.874 132.53
5.22 -31.245 130.88 -0.34939 36.33 -0.34939 36.33 -31.245 130.88
5.25 -31.642 129.25 -0.35077 34.47 -0.35077 34.47 -31.642 129.25
5.28 -32.067 127.64 -0.35216 32.62 -0.35216 32.62 -32.067 127.64
5.31 -32.523 126.06 -0.35355 30.76 -0.35355 30.76 -32.523 126.06
5.34 -33.013 124.52 -0.35495 28.90 -0.35495 28.90 -33.013 124.52
5.37 -33.542 123.02 -0.35636 27.04 -0.35636 27.04 -33.542 123.02
5.4 -34.115 121.56 -0.35777 25.18 -0.35777 25.18 -34.115 121.56
5.43 -34.736 120.17 -0.3592 23.32 -0.3592 23.32 -34.736 120.17
5.46 -35.415 118.85 -0.36064 21.46 -0.36064 21.46 -35.415 118.85
5.49 -36.159 117.64 -0.3621 19.60 -0.3621 19.60 -36.159 117.64
5.52 -36.981 116.55 -0.36356 17.75 -0.36356 17.75 -36.981 116.55
5.55 -37.897 115.63 -0.36504 15.89 -0.36504 15.89 -37.897 115.63
5.58 -38.928 114.95 -0.36654 14.03 -0.36654 14.03 -38.928 114.95
5.61 -40.101 114.62 -0.36805 12.17 -0.36805 12.17 -40.101 114.62
5.64 -41.459 114.80 -0.36958 10.31 -0.36958 10.31 -41.459 114.80
5.67 -43.06 115.82 -0.37113 8.45 -0.37113 8.45 -43.06 115.82
5.7 -44.993 118.28 -0.37269 6.59 -0.37269 6.59 -44.993 118.28
5.73 -47.385 123.54 -0.37427 4.73 -0.37427 4.73 -47.385 123.54
5.76 -50.345 134.96 -0.37587 2.87 -0.37587 2.87 -50.345 134.96
5.79 -53.338 160.21 -0.37749 1.01 -0.37749 1.01 -53.338 160.21
5.82 -53.491 -160.78 -0.37912 -0.85 -0.37912 -0.85 -53.491 -160.78
5.85 -50.582 -134.21 -0.38077 -2.71 -0.38077 -2.71 -50.582 -134.21
5.88 -47.589 -122.12 -0.38245 -4.57 -0.38245 -4.57 -47.589 -122.12
5.91 -45.163 -116.56 -0.38414 -6.43 -0.38414 -6.43 -45.163 -116.56
5.94 -43.206 -113.95 -0.38584 -8.29 -0.38584 -8.29 -43.206 -113.95
5.97 -41.589 -112.86 -0.38757 -10.15 -0.38757 -10.15 -41.589 -112.86
6 -40.221 -112.62 -0.38931 -12.01 -0.38931 -12.01 -40.221 -112.62
