! yapnr Order 0 O0-W: O0-W B02 W dL5 (line, family W)
! stackup OSHPARK-4L-EM528, nominal parameters; geometry of the OSHPARK-4L-FR408HR design
! model: 2D quasi-static RLGC (Djordjevic-Sarkar, Huray roughness, Wheeler loss); generated by python -m yapnr.rf.coupons expected --stackup OSHPARK-4L-FR408HR --upload W
! reference planes 10 mm from each end; 50 ohm (from the W line's Zc)
# GHz S DB R 50
0.03 -69.75 -86.55 -0.00040782 -0.32 -0.00040782 -0.32 -69.75 -86.55
0.06 -63.639 -88.64 -0.00064332 -0.63 -0.00064332 -0.63 -63.639 -88.64
0.09 -60.095 -89.72 -0.00085292 -0.94 -0.00085292 -0.94 -60.095 -89.72
0.12 -57.593 -90.48 -0.0010496 -1.26 -0.0010496 -1.26 -57.593 -90.48
0.15 -55.658 -91.10 -0.0012385 -1.57 -0.0012385 -1.57 -55.658 -91.10
0.18 -54.08 -91.63 -0.0014222 -1.88 -0.0014222 -1.88 -54.08 -91.63
0.21 -52.749 -92.12 -0.0016021 -2.20 -0.0016021 -2.20 -52.749 -92.12
0.24 -51.597 -92.57 -0.0017793 -2.51 -0.0017793 -2.51 -51.597 -92.57
0.27 -50.583 -93.00 -0.0019545 -2.82 -0.0019545 -2.82 -50.583 -93.00
0.3 -49.676 -93.41 -0.0021281 -3.14 -0.0021281 -3.14 -49.676 -93.41
0.33 -48.857 -93.81 -0.0023005 -3.45 -0.0023005 -3.45 -48.857 -93.81
0.36 -48.11 -94.19 -0.0024721 -3.76 -0.0024721 -3.76 -48.11 -94.19
0.39 -47.423 -94.57 -0.0026429 -4.08 -0.0026429 -4.08 -47.423 -94.57
0.42 -46.788 -94.94 -0.0028133 -4.39 -0.0028133 -4.39 -46.788 -94.94
0.45 -46.196 -95.30 -0.0029833 -4.70 -0.0029833 -4.70 -46.196 -95.30
0.48 -45.644 -95.66 -0.0031531 -5.02 -0.0031531 -5.02 -45.644 -95.66
0.51 -45.125 -96.02 -0.0033228 -5.33 -0.0033228 -5.33 -45.125 -96.02
0.54 -44.636 -96.37 -0.0034924 -5.64 -0.0034924 -5.64 -44.636 -96.37
0.57 -44.174 -96.72 -0.0036621 -5.95 -0.0036621 -5.95 -44.174 -96.72
0.6 -43.736 -97.06 -0.0038319 -6.27 -0.0038319 -6.27 -43.736 -97.06
0.63 -43.32 -97.41 -0.0040018 -6.58 -0.0040018 -6.58 -43.32 -97.41
0.66 -42.923 -97.75 -0.004172 -6.89 -0.004172 -6.89 -42.923 -97.75
0.69 -42.544 -98.09 -0.0043424 -7.21 -0.0043424 -7.21 -42.544 -98.09
0.72 -42.182 -98.43 -0.004513 -7.52 -0.004513 -7.52 -42.182 -98.43
0.75 -41.834 -98.76 -0.004684 -7.83 -0.004684 -7.83 -41.834 -98.76
0.78 -41.5 -99.10 -0.0048554 -8.15 -0.0048554 -8.15 -41.5 -99.10
0.81 -41.18 -99.43 -0.0050271 -8.46 -0.0050271 -8.46 -41.18 -99.43
0.84 -40.871 -99.76 -0.0051992 -8.77 -0.0051992 -8.77 -40.871 -99.76
0.87 -40.573 -100.10 -0.0053717 -9.09 -0.0053717 -9.09 -40.573 -100.10
0.9 -40.285 -100.43 -0.0055446 -9.40 -0.0055446 -9.40 -40.285 -100.43
0.93 -40.007 -100.76 -0.005718 -9.71 -0.005718 -9.71 -40.007 -100.76
0.96 -39.738 -101.09 -0.0058918 -10.03 -0.0058918 -10.03 -39.738 -101.09
0.99 -39.478 -101.41 -0.0060661 -10.34 -0.0060661 -10.34 -39.478 -101.41
1.02 -39.225 -101.74 -0.0062409 -10.65 -0.0062409 -10.65 -39.225 -101.74
1.05 -38.98 -102.07 -0.0064162 -10.97 -0.0064162 -10.97 -38.98 -102.07
1.08 -38.742 -102.40 -0.006592 -11.28 -0.006592 -11.28 -38.742 -102.40
1.11 -38.511 -102.72 -0.0067683 -11.59 -0.0067683 -11.59 -38.511 -102.72
1.14 -38.286 -103.05 -0.0069451 -11.91 -0.0069451 -11.91 -38.286 -103.05
1.17 -38.067 -103.37 -0.0071224 -12.22 -0.0071224 -12.22 -38.067 -103.37
1.2 -37.854 -103.70 -0.0073003 -12.53 -0.0073003 -12.53 -37.854 -103.70
1.23 -37.646 -104.02 -0.0074787 -12.85 -0.0074787 -12.85 -37.646 -104.02
1.26 -37.444 -104.35 -0.0076576 -13.16 -0.0076576 -13.16 -37.444 -104.35
1.29 -37.246 -104.67 -0.007837 -13.48 -0.007837 -13.48 -37.246 -104.67
1.32 -37.053 -105.00 -0.008017 -13.79 -0.008017 -13.79 -37.053 -105.00
1.35 -36.865 -105.32 -0.0081976 -14.10 -0.0081976 -14.10 -36.865 -105.32
1.38 -36.681 -105.64 -0.0083787 -14.42 -0.0083787 -14.42 -36.681 -105.64
1.41 -36.501 -105.97 -0.0085603 -14.73 -0.0085603 -14.73 -36.501 -105.97
1.44 -36.325 -106.29 -0.0087425 -15.04 -0.0087425 -15.04 -36.325 -106.29
1.47 -36.153 -106.61 -0.0089252 -15.36 -0.0089252 -15.36 -36.153 -106.61
1.5 -35.984 -106.93 -0.0091084 -15.67 -0.0091084 -15.67 -35.984 -106.93
1.53 -35.819 -107.26 -0.0092923 -15.99 -0.0092923 -15.99 -35.819 -107.26
1.56 -35.658 -107.58 -0.0094766 -16.30 -0.0094766 -16.30 -35.658 -107.58
1.59 -35.499 -107.90 -0.0096615 -16.62 -0.0096615 -16.62 -35.499 -107.90
1.62 -35.344 -108.22 -0.009847 -16.93 -0.009847 -16.93 -35.344 -108.22
1.65 -35.192 -108.54 -0.010033 -17.24 -0.010033 -17.24 -35.192 -108.54
1.68 -35.043 -108.86 -0.010219 -17.56 -0.010219 -17.56 -35.043 -108.86
1.71 -34.896 -109.18 -0.010407 -17.87 -0.010407 -17.87 -34.896 -109.18
1.74 -34.752 -109.51 -0.010594 -18.19 -0.010594 -18.19 -34.752 -109.51
1.77 -34.611 -109.83 -0.010782 -18.50 -0.010782 -18.50 -34.611 -109.83
1.8 -34.473 -110.15 -0.010971 -18.82 -0.010971 -18.82 -34.473 -110.15
1.83 -34.337 -110.47 -0.01116 -19.13 -0.01116 -19.13 -34.337 -110.47
1.86 -34.203 -110.79 -0.01135 -19.45 -0.01135 -19.45 -34.203 -110.79
1.89 -34.071 -111.11 -0.01154 -19.76 -0.01154 -19.76 -34.071 -111.11
1.92 -33.942 -111.43 -0.011731 -20.08 -0.011731 -20.08 -33.942 -111.43
1.95 -33.815 -111.75 -0.011922 -20.39 -0.011922 -20.39 -33.815 -111.75
1.98 -33.69 -112.07 -0.012114 -20.71 -0.012114 -20.71 -33.69 -112.07
2.01 -33.567 -112.39 -0.012306 -21.02 -0.012306 -21.02 -33.567 -112.39
2.04 -33.447 -112.71 -0.012499 -21.34 -0.012499 -21.34 -33.447 -112.71
2.07 -33.328 -113.03 -0.012692 -21.65 -0.012692 -21.65 -33.328 -113.03
2.1 -33.211 -113.35 -0.012886 -21.97 -0.012886 -21.97 -33.211 -113.35
2.13 -33.095 -113.67 -0.01308 -22.28 -0.01308 -22.28 -33.095 -113.67
2.16 -32.982 -113.99 -0.013274 -22.60 -0.013274 -22.60 -32.982 -113.99
2.19 -32.87 -114.31 -0.01347 -22.91 -0.01347 -22.91 -32.87 -114.31
2.22 -32.76 -114.63 -0.013665 -23.23 -0.013665 -23.23 -32.76 -114.63
2.25 -32.652 -114.95 -0.013861 -23.54 -0.013861 -23.54 -32.652 -114.95
2.28 -32.545 -115.27 -0.014058 -23.86 -0.014058 -23.86 -32.545 -115.27
2.31 -32.44 -115.59 -0.014255 -24.17 -0.014255 -24.17 -32.44 -115.59
2.34 -32.336 -115.91 -0.014452 -24.49 -0.014452 -24.49 -32.336 -115.91
2.37 -32.234 -116.23 -0.01465 -24.80 -0.01465 -24.80 -32.234 -116.23
2.4 -32.134 -116.55 -0.014848 -25.12 -0.014848 -25.12 -32.134 -116.55
2.43 -32.034 -116.87 -0.015047 -25.44 -0.015047 -25.44 -32.034 -116.87
2.46 -31.937 -117.19 -0.015246 -25.75 -0.015246 -25.75 -31.937 -117.19
2.49 -31.84 -117.51 -0.015446 -26.07 -0.015446 -26.07 -31.84 -117.51
2.52 -31.745 -117.83 -0.015646 -26.38 -0.015646 -26.38 -31.745 -117.83
2.55 -31.651 -118.14 -0.015846 -26.70 -0.015846 -26.70 -31.651 -118.14
2.58 -31.558 -118.46 -0.016047 -27.01 -0.016047 -27.01 -31.558 -118.46
2.61 -31.467 -118.78 -0.016248 -27.33 -0.016248 -27.33 -31.467 -118.78
2.64 -31.377 -119.10 -0.01645 -27.65 -0.01645 -27.65 -31.377 -119.10
2.67 -31.288 -119.42 -0.016652 -27.96 -0.016652 -27.96 -31.288 -119.42
2.7 -31.2 -119.74 -0.016854 -28.28 -0.016854 -28.28 -31.2 -119.74
2.73 -31.114 -120.06 -0.017057 -28.60 -0.017057 -28.60 -31.114 -120.06
2.76 -31.028 -120.38 -0.01726 -28.91 -0.01726 -28.91 -31.028 -120.38
2.79 -30.944 -120.70 -0.017463 -29.23 -0.017463 -29.23 -30.944 -120.70
2.82 -30.86 -121.02 -0.017667 -29.54 -0.017667 -29.54 -30.86 -121.02
2.85 -30.778 -121.34 -0.017871 -29.86 -0.017871 -29.86 -30.778 -121.34
2.88 -30.697 -121.66 -0.018075 -30.18 -0.018075 -30.18 -30.697 -121.66
2.91 -30.617 -121.98 -0.01828 -30.49 -0.01828 -30.49 -30.617 -121.98
2.94 -30.538 -122.30 -0.018484 -30.81 -0.018484 -30.81 -30.538 -122.30
2.97 -30.459 -122.62 -0.01869 -31.13 -0.01869 -31.13 -30.459 -122.62
3 -30.382 -122.94 -0.018895 -31.44 -0.018895 -31.44 -30.382 -122.94
3.03 -30.306 -123.26 -0.019101 -31.76 -0.019101 -31.76 -30.306 -123.26
3.06 -30.23 -123.58 -0.019307 -32.08 -0.019307 -32.08 -30.23 -123.58
3.09 -30.156 -123.90 -0.019514 -32.39 -0.019514 -32.39 -30.156 -123.90
3.12 -30.082 -124.22 -0.01972 -32.71 -0.01972 -32.71 -30.082 -124.22
3.15 -30.01 -124.54 -0.019927 -33.03 -0.019927 -33.03 -30.01 -124.54
3.18 -29.938 -124.85 -0.020134 -33.35 -0.020134 -33.35 -29.938 -124.85
3.21 -29.867 -125.17 -0.020342 -33.66 -0.020342 -33.66 -29.867 -125.17
3.24 -29.797 -125.49 -0.020549 -33.98 -0.020549 -33.98 -29.797 -125.49
3.27 -29.728 -125.81 -0.020757 -34.30 -0.020757 -34.30 -29.728 -125.81
3.3 -29.659 -126.13 -0.020965 -34.62 -0.020965 -34.62 -29.659 -126.13
3.33 -29.591 -126.45 -0.021173 -34.93 -0.021173 -34.93 -29.591 -126.45
3.36 -29.524 -126.77 -0.021382 -35.25 -0.021382 -35.25 -29.524 -126.77
3.39 -29.458 -127.09 -0.02159 -35.57 -0.02159 -35.57 -29.458 -127.09
3.42 -29.393 -127.41 -0.021799 -35.89 -0.021799 -35.89 -29.393 -127.41
3.45 -29.328 -127.73 -0.022008 -36.20 -0.022008 -36.20 -29.328 -127.73
3.48 -29.265 -128.05 -0.022217 -36.52 -0.022217 -36.52 -29.265 -128.05
3.51 -29.201 -128.37 -0.022426 -36.84 -0.022426 -36.84 -29.201 -128.37
3.54 -29.139 -128.69 -0.022636 -37.16 -0.022636 -37.16 -29.139 -128.69
3.57 -29.077 -129.01 -0.022845 -37.47 -0.022845 -37.47 -29.077 -129.01
3.6 -29.016 -129.33 -0.023055 -37.79 -0.023055 -37.79 -29.016 -129.33
3.63 -28.956 -129.65 -0.023264 -38.11 -0.023264 -38.11 -28.956 -129.65
3.66 -28.896 -129.97 -0.023474 -38.43 -0.023474 -38.43 -28.896 -129.97
3.69 -28.838 -130.29 -0.023684 -38.75 -0.023684 -38.75 -28.838 -130.29
3.72 -28.779 -130.61 -0.023894 -39.07 -0.023894 -39.07 -28.779 -130.61
3.75 -28.722 -130.93 -0.024104 -39.38 -0.024104 -39.38 -28.722 -130.93
3.78 -28.665 -131.25 -0.024315 -39.70 -0.024315 -39.70 -28.665 -131.25
3.81 -28.608 -131.57 -0.024525 -40.02 -0.024525 -40.02 -28.608 -131.57
3.84 -28.553 -131.89 -0.024735 -40.34 -0.024735 -40.34 -28.553 -131.89
3.87 -28.497 -132.21 -0.024946 -40.66 -0.024946 -40.66 -28.497 -132.21
3.9 -28.443 -132.53 -0.025156 -40.98 -0.025156 -40.98 -28.443 -132.53
3.93 -28.389 -132.85 -0.025366 -41.29 -0.025366 -41.29 -28.389 -132.85
3.96 -28.336 -133.17 -0.025577 -41.61 -0.025577 -41.61 -28.336 -133.17
3.99 -28.283 -133.50 -0.025787 -41.93 -0.025787 -41.93 -28.283 -133.50
4.02 -28.231 -133.82 -0.025998 -42.25 -0.025998 -42.25 -28.231 -133.82
4.05 -28.179 -134.14 -0.026208 -42.57 -0.026208 -42.57 -28.179 -134.14
4.08 -28.128 -134.46 -0.026418 -42.89 -0.026418 -42.89 -28.128 -134.46
4.11 -28.078 -134.78 -0.026629 -43.21 -0.026629 -43.21 -28.078 -134.78
4.14 -28.028 -135.10 -0.026839 -43.53 -0.026839 -43.53 -28.028 -135.10
4.17 -27.979 -135.42 -0.027049 -43.85 -0.027049 -43.85 -27.979 -135.42
4.2 -27.93 -135.74 -0.02726 -44.17 -0.02726 -44.17 -27.93 -135.74
4.23 -27.882 -136.06 -0.02747 -44.49 -0.02747 -44.49 -27.882 -136.06
4.26 -27.834 -136.38 -0.02768 -44.80 -0.02768 -44.80 -27.834 -136.38
4.29 -27.787 -136.70 -0.02789 -45.12 -0.02789 -45.12 -27.787 -136.70
4.32 -27.74 -137.02 -0.0281 -45.44 -0.0281 -45.44 -27.74 -137.02
4.35 -27.694 -137.34 -0.028309 -45.76 -0.028309 -45.76 -27.694 -137.34
4.38 -27.649 -137.67 -0.028519 -46.08 -0.028519 -46.08 -27.649 -137.67
4.41 -27.604 -137.99 -0.028728 -46.40 -0.028728 -46.40 -27.604 -137.99
4.44 -27.559 -138.31 -0.028938 -46.72 -0.028938 -46.72 -27.559 -138.31
4.47 -27.515 -138.63 -0.029147 -47.04 -0.029147 -47.04 -27.515 -138.63
4.5 -27.471 -138.95 -0.029356 -47.36 -0.029356 -47.36 -27.471 -138.95
4.53 -27.428 -139.27 -0.029565 -47.68 -0.029565 -47.68 -27.428 -139.27
4.56 -27.385 -139.59 -0.029774 -48.00 -0.029774 -48.00 -27.385 -139.59
4.59 -27.343 -139.91 -0.029982 -48.32 -0.029982 -48.32 -27.343 -139.91
4.62 -27.302 -140.23 -0.030191 -48.64 -0.030191 -48.64 -27.302 -140.23
4.65 -27.26 -140.56 -0.030399 -48.96 -0.030399 -48.96 -27.26 -140.56
4.68 -27.219 -140.88 -0.030607 -49.28 -0.030607 -49.28 -27.219 -140.88
4.71 -27.179 -141.20 -0.030815 -49.60 -0.030815 -49.60 -27.179 -141.20
4.74 -27.139 -141.52 -0.031022 -49.92 -0.031022 -49.92 -27.139 -141.52
4.77 -27.1 -141.84 -0.03123 -50.25 -0.03123 -50.25 -27.1 -141.84
4.8 -27.061 -142.16 -0.031437 -50.57 -0.031437 -50.57 -27.061 -142.16
4.83 -27.022 -142.49 -0.031643 -50.89 -0.031643 -50.89 -27.022 -142.49
4.86 -26.984 -142.81 -0.03185 -51.21 -0.03185 -51.21 -26.984 -142.81
4.89 -26.947 -143.13 -0.032056 -51.53 -0.032056 -51.53 -26.947 -143.13
4.92 -26.909 -143.45 -0.032262 -51.85 -0.032262 -51.85 -26.909 -143.45
4.95 -26.872 -143.77 -0.032468 -52.17 -0.032468 -52.17 -26.872 -143.77
4.98 -26.836 -144.10 -0.032673 -52.49 -0.032673 -52.49 -26.836 -144.10
5.01 -26.8 -144.42 -0.032878 -52.81 -0.032878 -52.81 -26.8 -144.42
5.04 -26.765 -144.74 -0.033083 -53.13 -0.033083 -53.13 -26.765 -144.74
5.07 -26.729 -145.06 -0.033287 -53.45 -0.033287 -53.45 -26.729 -145.06
5.1 -26.695 -145.38 -0.033491 -53.78 -0.033491 -53.78 -26.695 -145.38
5.13 -26.66 -145.71 -0.033695 -54.10 -0.033695 -54.10 -26.66 -145.71
5.16 -26.626 -146.03 -0.033899 -54.42 -0.033899 -54.42 -26.626 -146.03
5.19 -26.593 -146.35 -0.034102 -54.74 -0.034102 -54.74 -26.593 -146.35
5.22 -26.56 -146.67 -0.034304 -55.06 -0.034304 -55.06 -26.56 -146.67
5.25 -26.527 -147.00 -0.034506 -55.38 -0.034506 -55.38 -26.527 -147.00
5.28 -26.495 -147.32 -0.034708 -55.71 -0.034708 -55.71 -26.495 -147.32
5.31 -26.463 -147.64 -0.03491 -56.03 -0.03491 -56.03 -26.463 -147.64
5.34 -26.431 -147.96 -0.035111 -56.35 -0.035111 -56.35 -26.431 -147.96
5.37 -26.4 -148.29 -0.035311 -56.67 -0.035311 -56.67 -26.4 -148.29
5.4 -26.369 -148.61 -0.035511 -56.99 -0.035511 -56.99 -26.369 -148.61
5.43 -26.339 -148.93 -0.035711 -57.32 -0.035711 -57.32 -26.339 -148.93
5.46 -26.309 -149.25 -0.035911 -57.64 -0.035911 -57.64 -26.309 -149.25
5.49 -26.279 -149.58 -0.036109 -57.96 -0.036109 -57.96 -26.279 -149.58
5.52 -26.25 -149.90 -0.036308 -58.28 -0.036308 -58.28 -26.25 -149.90
5.55 -26.221 -150.22 -0.036506 -58.60 -0.036506 -58.60 -26.221 -150.22
5.58 -26.192 -150.55 -0.036703 -58.93 -0.036703 -58.93 -26.192 -150.55
5.61 -26.164 -150.87 -0.0369 -59.25 -0.0369 -59.25 -26.164 -150.87
5.64 -26.136 -151.19 -0.037097 -59.57 -0.037097 -59.57 -26.136 -151.19
5.67 -26.109 -151.52 -0.037293 -59.89 -0.037293 -59.89 -26.109 -151.52
5.7 -26.082 -151.84 -0.037488 -60.22 -0.037488 -60.22 -26.082 -151.84
5.73 -26.055 -152.16 -0.037683 -60.54 -0.037683 -60.54 -26.055 -152.16
5.76 -26.029 -152.49 -0.037877 -60.86 -0.037877 -60.86 -26.029 -152.49
5.79 -26.002 -152.81 -0.038071 -61.19 -0.038071 -61.19 -26.002 -152.81
5.82 -25.977 -153.13 -0.038264 -61.51 -0.038264 -61.51 -25.977 -153.13
5.85 -25.951 -153.46 -0.038457 -61.83 -0.038457 -61.83 -25.951 -153.46
5.88 -25.926 -153.78 -0.038649 -62.15 -0.038649 -62.15 -25.926 -153.78
5.91 -25.902 -154.10 -0.038841 -62.48 -0.038841 -62.48 -25.902 -154.10
5.94 -25.877 -154.43 -0.039032 -62.80 -0.039032 -62.80 -25.877 -154.43
5.97 -25.853 -154.75 -0.039222 -63.12 -0.039222 -63.12 -25.853 -154.75
6 -25.83 -155.08 -0.039412 -63.45 -0.039412 -63.45 -25.83 -155.08
