! yapnr Order 0 O0-W: O0-W B03 W dL14 (line, family W)
! stackup OSHPARK-4L-EM528, nominal parameters; geometry of the OSHPARK-4L-FR408HR design
! model: 2D quasi-static RLGC (Djordjevic-Sarkar, Huray roughness, Wheeler loss); generated by python -m yapnr.rf.coupons expected --stackup OSHPARK-4L-FR408HR --upload W
! reference planes 10 mm from each end; 50 ohm (from the W line's Zc)
# GHz S DB R 50
0.03 -60.811 -87.10 -0.0011468 -0.88 -0.0011468 -0.88 -60.811 -87.10
0.06 -54.702 -89.75 -0.0018178 -1.76 -0.0018178 -1.76 -54.702 -89.75
0.09 -51.161 -91.39 -0.0024222 -2.64 -0.0024222 -2.64 -51.161 -91.39
0.12 -48.662 -92.71 -0.002996 -3.52 -0.002996 -3.52 -48.662 -92.71
0.15 -46.73 -93.89 -0.0035532 -4.40 -0.0035532 -4.40 -46.73 -93.89
0.18 -45.157 -94.99 -0.0041009 -5.28 -0.0041009 -5.28 -45.157 -94.99
0.21 -43.83 -96.03 -0.0046431 -6.15 -0.0046431 -6.15 -43.83 -96.03
0.24 -42.684 -97.05 -0.0051826 -7.03 -0.0051826 -7.03 -42.684 -97.05
0.27 -41.675 -98.03 -0.005721 -7.91 -0.005721 -7.91 -41.675 -98.03
0.3 -40.775 -99.01 -0.0062596 -8.78 -0.0062596 -8.78 -40.775 -99.01
0.33 -39.962 -99.96 -0.0067994 -9.66 -0.0067994 -9.66 -39.962 -99.96
0.36 -39.222 -100.91 -0.007341 -10.54 -0.007341 -10.54 -39.222 -100.91
0.39 -38.543 -101.85 -0.007885 -11.41 -0.007885 -11.41 -38.543 -101.85
0.42 -37.917 -102.78 -0.0084317 -12.29 -0.0084317 -12.29 -37.917 -102.78
0.45 -37.335 -103.71 -0.0089814 -13.17 -0.0089814 -13.17 -37.335 -103.71
0.48 -36.792 -104.63 -0.0095344 -14.04 -0.0095344 -14.04 -36.792 -104.63
0.51 -36.283 -105.54 -0.010091 -14.92 -0.010091 -14.92 -36.283 -105.54
0.54 -35.806 -106.46 -0.010651 -15.79 -0.010651 -15.79 -35.806 -106.46
0.57 -35.355 -107.37 -0.011214 -16.67 -0.011214 -16.67 -35.355 -107.37
0.6 -34.929 -108.28 -0.011781 -17.55 -0.011781 -17.55 -34.929 -108.28
0.63 -34.526 -109.18 -0.012352 -18.42 -0.012352 -18.42 -34.526 -109.18
0.66 -34.142 -110.08 -0.012926 -19.30 -0.012926 -19.30 -34.142 -110.08
0.69 -33.777 -110.99 -0.013504 -20.18 -0.013504 -20.18 -33.777 -110.99
0.72 -33.429 -111.88 -0.014085 -21.05 -0.014085 -21.05 -33.429 -111.88
0.75 -33.097 -112.78 -0.01467 -21.93 -0.01467 -21.93 -33.097 -112.78
0.78 -32.779 -113.68 -0.015259 -22.81 -0.015259 -22.81 -32.779 -113.68
0.81 -32.474 -114.58 -0.01585 -23.68 -0.01585 -23.68 -32.474 -114.58
0.84 -32.183 -115.47 -0.016445 -24.56 -0.016445 -24.56 -32.183 -115.47
0.87 -31.902 -116.36 -0.017043 -25.44 -0.017043 -25.44 -31.902 -116.36
0.9 -31.633 -117.26 -0.017644 -26.31 -0.017644 -26.31 -31.633 -117.26
0.93 -31.374 -118.15 -0.018248 -27.19 -0.018248 -27.19 -31.374 -118.15
0.96 -31.124 -119.04 -0.018854 -28.07 -0.018854 -28.07 -31.124 -119.04
0.99 -30.884 -119.93 -0.019463 -28.94 -0.019463 -28.94 -30.884 -119.93
1.02 -30.652 -120.82 -0.020075 -29.82 -0.020075 -29.82 -30.652 -120.82
1.05 -30.428 -121.71 -0.020688 -30.70 -0.020688 -30.70 -30.428 -121.71
1.08 -30.212 -122.60 -0.021304 -31.58 -0.021304 -31.58 -30.212 -122.60
1.11 -30.004 -123.49 -0.021922 -32.45 -0.021922 -32.45 -30.004 -123.49
1.14 -29.802 -124.38 -0.022541 -33.33 -0.022541 -33.33 -29.802 -124.38
1.17 -29.607 -125.26 -0.023162 -34.21 -0.023162 -34.21 -29.607 -125.26
1.2 -29.418 -126.15 -0.023785 -35.09 -0.023785 -35.09 -29.418 -126.15
1.23 -29.236 -127.04 -0.024409 -35.96 -0.024409 -35.96 -29.236 -127.04
1.26 -29.059 -127.93 -0.025034 -36.84 -0.025034 -36.84 -29.059 -127.93
1.29 -28.888 -128.81 -0.025659 -37.72 -0.025659 -37.72 -28.888 -128.81
1.32 -28.722 -129.70 -0.026286 -38.60 -0.026286 -38.60 -28.722 -129.70
1.35 -28.562 -130.58 -0.026912 -39.47 -0.026912 -39.47 -28.562 -130.58
1.38 -28.406 -131.47 -0.02754 -40.35 -0.02754 -40.35 -28.406 -131.47
1.41 -28.256 -132.35 -0.028167 -41.23 -0.028167 -41.23 -28.256 -132.35
1.44 -28.109 -133.24 -0.028794 -42.11 -0.028794 -42.11 -28.109 -133.24
1.47 -27.968 -134.12 -0.029421 -42.99 -0.029421 -42.99 -27.968 -134.12
1.5 -27.83 -135.01 -0.030047 -43.86 -0.030047 -43.86 -27.83 -135.01
1.53 -27.697 -135.89 -0.030673 -44.74 -0.030673 -44.74 -27.697 -135.89
1.56 -27.568 -136.78 -0.031297 -45.62 -0.031297 -45.62 -27.568 -136.78
1.59 -27.443 -137.66 -0.031921 -46.50 -0.031921 -46.50 -27.443 -137.66
1.62 -27.322 -138.55 -0.032543 -47.38 -0.032543 -47.38 -27.322 -138.55
1.65 -27.204 -139.43 -0.033164 -48.26 -0.033164 -48.26 -27.204 -139.43
1.68 -27.09 -140.31 -0.033783 -49.14 -0.033783 -49.14 -27.09 -140.31
1.71 -26.98 -141.20 -0.034401 -50.02 -0.034401 -50.02 -26.98 -141.20
1.74 -26.873 -142.08 -0.035016 -50.90 -0.035016 -50.90 -26.873 -142.08
1.77 -26.769 -142.97 -0.035629 -51.77 -0.035629 -51.77 -26.769 -142.97
1.8 -26.669 -143.85 -0.036239 -52.65 -0.036239 -52.65 -26.669 -143.85
1.83 -26.571 -144.73 -0.036847 -53.53 -0.036847 -53.53 -26.571 -144.73
1.86 -26.477 -145.62 -0.037452 -54.41 -0.037452 -54.41 -26.477 -145.62
1.89 -26.386 -146.50 -0.038054 -55.29 -0.038054 -55.29 -26.386 -146.50
1.92 -26.298 -147.38 -0.038653 -56.17 -0.038653 -56.17 -26.298 -147.38
1.95 -26.213 -148.27 -0.039248 -57.05 -0.039248 -57.05 -26.213 -148.27
1.98 -26.131 -149.15 -0.03984 -57.93 -0.03984 -57.93 -26.131 -149.15
2.01 -26.052 -150.03 -0.040427 -58.81 -0.040427 -58.81 -26.052 -150.03
2.04 -25.975 -150.92 -0.041011 -59.69 -0.041011 -59.69 -25.975 -150.92
2.07 -25.901 -151.80 -0.041591 -60.57 -0.041591 -60.57 -25.901 -151.80
2.1 -25.83 -152.68 -0.042167 -61.45 -0.042167 -61.45 -25.83 -152.68
2.13 -25.761 -153.56 -0.042738 -62.33 -0.042738 -62.33 -25.761 -153.56
2.16 -25.695 -154.45 -0.043304 -63.22 -0.043304 -63.22 -25.695 -154.45
2.19 -25.631 -155.33 -0.043866 -64.10 -0.043866 -64.10 -25.631 -155.33
2.22 -25.57 -156.21 -0.044423 -64.98 -0.044423 -64.98 -25.57 -156.21
2.25 -25.512 -157.10 -0.044975 -65.86 -0.044975 -65.86 -25.512 -157.10
2.28 -25.455 -157.98 -0.045521 -66.74 -0.045521 -66.74 -25.455 -157.98
2.31 -25.402 -158.86 -0.046062 -67.62 -0.046062 -67.62 -25.402 -158.86
2.34 -25.35 -159.75 -0.046598 -68.50 -0.046598 -68.50 -25.35 -159.75
2.37 -25.301 -160.63 -0.047128 -69.38 -0.047128 -69.38 -25.301 -160.63
2.4 -25.255 -161.51 -0.047652 -70.27 -0.047652 -70.27 -25.255 -161.51
2.43 -25.21 -162.40 -0.048171 -71.15 -0.048171 -71.15 -25.21 -162.40
2.46 -25.168 -163.28 -0.048683 -72.03 -0.048683 -72.03 -25.168 -163.28
2.49 -25.128 -164.16 -0.04919 -72.91 -0.04919 -72.91 -25.128 -164.16
2.52 -25.09 -165.04 -0.04969 -73.79 -0.04969 -73.79 -25.09 -165.04
2.55 -25.055 -165.93 -0.050184 -74.68 -0.050184 -74.68 -25.055 -165.93
2.58 -25.022 -166.81 -0.050671 -75.56 -0.050671 -75.56 -25.022 -166.81
2.61 -24.991 -167.69 -0.051152 -76.44 -0.051152 -76.44 -24.991 -167.69
2.64 -24.962 -168.58 -0.051627 -77.33 -0.051627 -77.33 -24.962 -168.58
2.67 -24.935 -169.46 -0.052095 -78.21 -0.052095 -78.21 -24.935 -169.46
2.7 -24.91 -170.34 -0.052556 -79.09 -0.052556 -79.09 -24.91 -170.34
2.73 -24.888 -171.23 -0.05301 -79.98 -0.05301 -79.98 -24.888 -171.23
2.76 -24.867 -172.11 -0.053458 -80.86 -0.053458 -80.86 -24.867 -172.11
2.79 -24.849 -172.99 -0.053898 -81.74 -0.053898 -81.74 -24.849 -172.99
2.82 -24.833 -173.88 -0.054332 -82.63 -0.054332 -82.63 -24.833 -173.88
2.85 -24.819 -174.76 -0.054759 -83.51 -0.054759 -83.51 -24.819 -174.76
2.88 -24.806 -175.65 -0.055179 -84.40 -0.055179 -84.40 -24.806 -175.65
2.91 -24.796 -176.53 -0.055591 -85.28 -0.055591 -85.28 -24.796 -176.53
2.94 -24.789 -177.41 -0.055997 -86.17 -0.055997 -86.17 -24.789 -177.41
2.97 -24.783 -178.30 -0.056396 -87.05 -0.056396 -87.05 -24.783 -178.30
3 -24.779 -179.18 -0.056787 -87.94 -0.056787 -87.94 -24.779 -179.18
3.03 -24.777 179.93 -0.057172 -88.82 -0.057172 -88.82 -24.777 179.93
3.06 -24.777 179.05 -0.057549 -89.71 -0.057549 -89.71 -24.777 179.05
3.09 -24.78 178.17 -0.057919 -90.59 -0.057919 -90.59 -24.78 178.17
3.12 -24.784 177.28 -0.058283 -91.48 -0.058283 -91.48 -24.784 177.28
3.15 -24.791 176.40 -0.058639 -92.36 -0.058639 -92.36 -24.791 176.40
3.18 -24.799 175.51 -0.058988 -93.25 -0.058988 -93.25 -24.799 175.51
3.21 -24.81 174.63 -0.059331 -94.14 -0.059331 -94.14 -24.81 174.63
3.24 -24.823 173.74 -0.059666 -95.02 -0.059666 -95.02 -24.823 173.74
3.27 -24.837 172.86 -0.059995 -95.91 -0.059995 -95.91 -24.837 172.86
3.3 -24.854 171.97 -0.060317 -96.80 -0.060317 -96.80 -24.854 171.97
3.33 -24.873 171.09 -0.060632 -97.68 -0.060632 -97.68 -24.873 171.09
3.36 -24.894 170.21 -0.06094 -98.57 -0.06094 -98.57 -24.894 170.21
3.39 -24.918 169.32 -0.061242 -99.46 -0.061242 -99.46 -24.918 169.32
3.42 -24.943 168.44 -0.061538 -100.35 -0.061538 -100.35 -24.943 168.44
3.45 -24.97 167.55 -0.061827 -101.23 -0.061827 -101.23 -24.97 167.55
3.48 -25 166.67 -0.062109 -102.12 -0.062109 -102.12 -25 166.67
3.51 -25.032 165.78 -0.062386 -103.01 -0.062386 -103.01 -25.032 165.78
3.54 -25.066 164.90 -0.062656 -103.90 -0.062656 -103.90 -25.066 164.90
3.57 -25.102 164.01 -0.06292 -104.79 -0.06292 -104.79 -25.102 164.01
3.6 -25.141 163.12 -0.063179 -105.68 -0.063179 -105.68 -25.141 163.12
3.63 -25.182 162.24 -0.063431 -106.57 -0.063431 -106.57 -25.182 162.24
3.66 -25.225 161.35 -0.063678 -107.46 -0.063678 -107.46 -25.225 161.35
3.69 -25.27 160.47 -0.06392 -108.35 -0.06392 -108.35 -25.27 160.47
3.72 -25.318 159.58 -0.064156 -109.24 -0.064156 -109.24 -25.318 159.58
3.75 -25.368 158.70 -0.064387 -110.13 -0.064387 -110.13 -25.368 158.70
3.78 -25.42 157.81 -0.064613 -111.02 -0.064613 -111.02 -25.42 157.81
3.81 -25.475 156.93 -0.064834 -111.91 -0.064834 -111.91 -25.475 156.93
3.84 -25.532 156.04 -0.06505 -112.80 -0.06505 -112.80 -25.532 156.04
3.87 -25.592 155.15 -0.065261 -113.69 -0.065261 -113.69 -25.592 155.15
3.9 -25.654 154.27 -0.065468 -114.58 -0.065468 -114.58 -25.654 154.27
3.93 -25.719 153.38 -0.065671 -115.47 -0.065671 -115.47 -25.719 153.38
3.96 -25.786 152.50 -0.06587 -116.36 -0.06587 -116.36 -25.786 152.50
3.99 -25.856 151.61 -0.066065 -117.25 -0.066065 -117.25 -25.856 151.61
4.02 -25.929 150.73 -0.066256 -118.15 -0.066256 -118.15 -25.929 150.73
4.05 -26.004 149.84 -0.066443 -119.04 -0.066443 -119.04 -26.004 149.84
4.08 -26.082 148.95 -0.066628 -119.93 -0.066628 -119.93 -26.082 148.95
4.11 -26.163 148.07 -0.066809 -120.83 -0.066809 -120.83 -26.163 148.07
4.14 -26.247 147.18 -0.066987 -121.72 -0.066987 -121.72 -26.247 147.18
4.17 -26.334 146.30 -0.067162 -122.61 -0.067162 -122.61 -26.334 146.30
4.2 -26.424 145.41 -0.067335 -123.51 -0.067335 -123.51 -26.424 145.41
4.23 -26.517 144.53 -0.067505 -124.40 -0.067505 -124.40 -26.517 144.53
4.26 -26.613 143.64 -0.067673 -125.29 -0.067673 -125.29 -26.613 143.64
4.29 -26.712 142.76 -0.067839 -126.19 -0.067839 -126.19 -26.712 142.76
4.32 -26.814 141.87 -0.068004 -127.08 -0.068004 -127.08 -26.814 141.87
4.35 -26.92 140.99 -0.068167 -127.98 -0.068167 -127.98 -26.92 140.99
4.38 -27.029 140.10 -0.068328 -128.87 -0.068328 -128.87 -27.029 140.10
4.41 -27.142 139.22 -0.068489 -129.77 -0.068489 -129.77 -27.142 139.22
4.44 -27.258 138.33 -0.068649 -130.66 -0.068649 -130.66 -27.258 138.33
4.47 -27.379 137.45 -0.068808 -131.56 -0.068808 -131.56 -27.379 137.45
4.5 -27.502 136.56 -0.068966 -132.46 -0.068966 -132.46 -27.502 136.56
4.53 -27.63 135.68 -0.069124 -133.35 -0.069124 -133.35 -27.63 135.68
4.56 -27.762 134.79 -0.069283 -134.25 -0.069283 -134.25 -27.762 134.79
4.59 -27.898 133.91 -0.069441 -135.15 -0.069441 -135.15 -27.898 133.91
4.62 -28.039 133.03 -0.0696 -136.04 -0.0696 -136.04 -28.039 133.03
4.65 -28.183 132.15 -0.06976 -136.94 -0.06976 -136.94 -28.183 132.15
4.68 -28.333 131.26 -0.06992 -137.84 -0.06992 -137.84 -28.333 131.26
4.71 -28.487 130.38 -0.070082 -138.74 -0.070082 -138.74 -28.487 130.38
4.74 -28.646 129.50 -0.070244 -139.63 -0.070244 -139.63 -28.646 129.50
4.77 -28.81 128.62 -0.070409 -140.53 -0.070409 -140.53 -28.81 128.62
4.8 -28.98 127.74 -0.070575 -141.43 -0.070575 -141.43 -28.98 127.74
4.83 -29.155 126.86 -0.070743 -142.33 -0.070743 -142.33 -29.155 126.86
4.86 -29.336 125.98 -0.070913 -143.23 -0.070913 -143.23 -29.336 125.98
4.89 -29.523 125.10 -0.071085 -144.13 -0.071085 -144.13 -29.523 125.10
4.92 -29.716 124.23 -0.07126 -145.03 -0.07126 -145.03 -29.716 124.23
4.95 -29.916 123.35 -0.071438 -145.93 -0.071438 -145.93 -29.916 123.35
4.98 -30.122 122.47 -0.071619 -146.83 -0.071619 -146.83 -30.122 122.47
5.01 -30.336 121.60 -0.071803 -147.73 -0.071803 -147.73 -30.336 121.60
5.04 -30.558 120.73 -0.07199 -148.63 -0.07199 -148.63 -30.558 120.73
5.07 -30.787 119.86 -0.07218 -149.53 -0.07218 -149.53 -30.787 119.86
5.1 -31.025 118.99 -0.072375 -150.43 -0.072375 -150.43 -31.025 118.99
5.13 -31.272 118.12 -0.072573 -151.33 -0.072573 -151.33 -31.272 118.12
5.16 -31.528 117.25 -0.072776 -152.23 -0.072776 -152.23 -31.528 117.25
5.19 -31.794 116.39 -0.072983 -153.14 -0.072983 -153.14 -31.794 116.39
5.22 -32.07 115.53 -0.073194 -154.04 -0.073194 -154.04 -32.07 115.53
5.25 -32.358 114.67 -0.073409 -154.94 -0.073409 -154.94 -32.358 114.67
5.28 -32.658 113.81 -0.07363 -155.84 -0.07363 -155.84 -32.658 113.81
5.31 -32.971 112.96 -0.073856 -156.75 -0.073856 -156.75 -32.971 112.96
5.34 -33.298 112.11 -0.074086 -157.65 -0.074086 -157.65 -33.298 112.11
5.37 -33.64 111.27 -0.074322 -158.55 -0.074322 -158.55 -33.64 111.27
5.4 -33.998 110.43 -0.074563 -159.46 -0.074563 -159.46 -33.998 110.43
5.43 -34.374 109.59 -0.07481 -160.36 -0.07481 -160.36 -34.374 109.59
5.46 -34.769 108.77 -0.075062 -161.26 -0.075062 -161.26 -34.769 108.77
5.49 -35.185 107.95 -0.07532 -162.17 -0.07532 -162.17 -35.185 107.95
5.52 -35.624 107.13 -0.075584 -163.07 -0.075584 -163.07 -35.624 107.13
5.55 -36.089 106.33 -0.075854 -163.98 -0.075854 -163.98 -36.089 106.33
5.58 -36.582 105.55 -0.076131 -164.88 -0.076131 -164.88 -36.582 105.55
5.61 -37.108 104.77 -0.076413 -165.79 -0.076413 -165.79 -37.108 104.77
5.64 -37.669 104.01 -0.076702 -166.69 -0.076702 -166.69 -37.669 104.01
5.67 -38.271 103.28 -0.076997 -167.60 -0.076997 -167.60 -38.271 103.28
5.7 -38.921 102.57 -0.077298 -168.51 -0.077298 -168.51 -38.921 102.57
5.73 -39.625 101.89 -0.077607 -169.41 -0.077607 -169.41 -39.625 101.89
5.76 -40.393 101.26 -0.077922 -170.32 -0.077922 -170.32 -40.393 101.26
5.79 -41.238 100.69 -0.078243 -171.22 -0.078243 -171.22 -41.238 100.69
5.82 -42.177 100.18 -0.078572 -172.13 -0.078572 -172.13 -42.177 100.18
5.85 -43.23 99.79 -0.078907 -173.04 -0.078907 -173.04 -43.23 99.79
5.88 -44.431 99.54 -0.079249 -173.95 -0.079249 -173.95 -44.431 99.54
5.91 -45.826 99.53 -0.079598 -174.85 -0.079598 -174.85 -45.826 99.53
5.94 -47.487 99.89 -0.079954 -175.76 -0.079954 -175.76 -47.487 99.89
5.97 -49.537 100.93 -0.080317 -176.67 -0.080317 -176.67 -49.537 100.93
6 -52.205 103.38 -0.080687 -177.58 -0.080687 -177.58 -52.205 103.38
