! yapnr Order 0 O0-W: O0-W B04 W dL34 (line, family W)
! stackup OSHPARK-4L-EM528, nominal parameters; geometry of the OSHPARK-4L-FR408HR design
! model: 2D quasi-static RLGC (Djordjevic-Sarkar, Huray roughness, Wheeler loss); generated by python -m yapnr.rf.coupons expected --stackup OSHPARK-4L-FR408HR --upload W
! reference planes 10 mm from each end; 50 ohm (from the W line's Zc)
# GHz S DB R 50
0.03 -53.104 -88.38 -0.0027912 -2.15 -0.0027912 -2.15 -53.104 -88.38
0.06 -47 -92.30 -0.0044486 -4.29 -0.0044486 -4.29 -47 -92.30
0.09 -43.468 -95.19 -0.005967 -6.42 -0.005967 -6.42 -43.468 -95.19
0.12 -40.981 -97.77 -0.0074338 -8.55 -0.0074338 -8.55 -40.981 -97.77
0.15 -39.064 -100.21 -0.0088821 -10.68 -0.0088821 -10.68 -39.064 -100.21
0.18 -37.51 -102.56 -0.010328 -12.81 -0.010328 -12.81 -37.51 -102.56
0.21 -36.205 -104.86 -0.01178 -14.94 -0.01178 -14.94 -36.205 -104.86
0.24 -35.084 -107.12 -0.013244 -17.07 -0.013244 -17.07 -35.084 -107.12
0.27 -34.105 -109.37 -0.014721 -19.20 -0.014721 -19.20 -34.105 -109.37
0.3 -33.237 -111.59 -0.016214 -21.33 -0.016214 -21.33 -33.237 -111.59
0.33 -32.46 -113.80 -0.017722 -23.46 -0.017722 -23.46 -32.46 -113.80
0.36 -31.76 -116.00 -0.019245 -25.58 -0.019245 -25.58 -31.76 -116.00
0.39 -31.124 -118.18 -0.020781 -27.71 -0.020781 -27.71 -31.124 -118.18
0.42 -30.543 -120.36 -0.02233 -29.84 -0.02233 -29.84 -30.543 -120.36
0.45 -30.011 -122.54 -0.023889 -31.96 -0.023889 -31.96 -30.011 -122.54
0.48 -29.522 -124.71 -0.025457 -34.09 -0.025457 -34.09 -29.522 -124.71
0.51 -29.071 -126.87 -0.027031 -36.21 -0.027031 -36.21 -29.071 -126.87
0.54 -28.654 -129.04 -0.028608 -38.34 -0.028608 -38.34 -28.654 -129.04
0.57 -28.268 -131.19 -0.030187 -40.47 -0.030187 -40.47 -28.268 -131.19
0.6 -27.91 -133.35 -0.031764 -42.59 -0.031764 -42.59 -27.91 -133.35
0.63 -27.578 -135.50 -0.033337 -44.72 -0.033337 -44.72 -27.578 -135.50
0.66 -27.271 -137.65 -0.034903 -46.84 -0.034903 -46.84 -27.271 -137.65
0.69 -26.985 -139.80 -0.036459 -48.97 -0.036459 -48.97 -26.985 -139.80
0.72 -26.721 -141.94 -0.038002 -51.09 -0.038002 -51.09 -26.721 -141.94
0.75 -26.476 -144.08 -0.03953 -53.22 -0.03953 -53.22 -26.476 -144.08
0.78 -26.25 -146.23 -0.04104 -55.34 -0.04104 -55.34 -26.25 -146.23
0.81 -26.042 -148.37 -0.042528 -57.47 -0.042528 -57.47 -26.042 -148.37
0.84 -25.85 -150.50 -0.043994 -59.59 -0.043994 -59.59 -25.85 -150.50
0.87 -25.674 -152.64 -0.045434 -61.72 -0.045434 -61.72 -25.674 -152.64
0.9 -25.513 -154.78 -0.046845 -63.84 -0.046845 -63.84 -25.513 -154.78
0.93 -25.367 -156.91 -0.048226 -65.97 -0.048226 -65.97 -25.367 -156.91
0.96 -25.236 -159.05 -0.049575 -68.09 -0.049575 -68.09 -25.236 -159.05
0.99 -25.118 -161.18 -0.050889 -70.22 -0.050889 -70.22 -25.118 -161.18
1.02 -25.013 -163.31 -0.052167 -72.34 -0.052167 -72.34 -25.013 -163.31
1.05 -24.922 -165.45 -0.053407 -74.47 -0.053407 -74.47 -24.922 -165.45
1.08 -24.844 -167.58 -0.054608 -76.59 -0.054608 -76.59 -24.844 -167.58
1.11 -24.778 -169.71 -0.055769 -78.72 -0.055769 -78.72 -24.778 -169.71
1.14 -24.724 -171.84 -0.056888 -80.84 -0.056888 -80.84 -24.724 -171.84
1.17 -24.682 -173.96 -0.057965 -82.97 -0.057965 -82.97 -24.682 -173.96
1.2 -24.653 -176.09 -0.058999 -85.09 -0.058999 -85.09 -24.653 -176.09
1.23 -24.636 -178.22 -0.05999 -87.22 -0.05999 -87.22 -24.636 -178.22
1.26 -24.63 179.65 -0.060938 -89.35 -0.060938 -89.35 -24.63 179.65
1.29 -24.637 177.53 -0.061843 -91.47 -0.061843 -91.47 -24.637 177.53
1.32 -24.655 175.40 -0.062705 -93.60 -0.062705 -93.60 -24.655 175.40
1.35 -24.686 173.27 -0.063525 -95.73 -0.063525 -95.73 -24.686 173.27
1.38 -24.728 171.15 -0.064304 -97.86 -0.064304 -97.86 -24.728 171.15
1.41 -24.783 169.03 -0.065042 -99.99 -0.065042 -99.99 -24.783 169.03
1.44 -24.85 166.90 -0.065741 -102.11 -0.065741 -102.11 -24.85 166.90
1.47 -24.929 164.78 -0.066402 -104.24 -0.066402 -104.24 -24.929 164.78
1.5 -25.021 162.65 -0.067027 -106.37 -0.067027 -106.37 -25.021 162.65
1.53 -25.126 160.53 -0.067617 -108.50 -0.067617 -108.50 -25.126 160.53
1.56 -25.245 158.41 -0.068175 -110.64 -0.068175 -110.64 -25.245 158.41
1.59 -25.377 156.29 -0.068702 -112.77 -0.068702 -112.77 -25.377 156.29
1.62 -25.524 154.17 -0.069201 -114.90 -0.069201 -114.90 -25.524 154.17
1.65 -25.685 152.05 -0.069675 -117.03 -0.069675 -117.03 -25.685 152.05
1.68 -25.861 149.93 -0.070125 -119.16 -0.070125 -119.16 -25.861 149.93
1.71 -26.053 147.81 -0.070555 -121.30 -0.070555 -121.30 -26.053 147.81
1.74 -26.262 145.70 -0.070968 -123.43 -0.070968 -123.43 -26.262 145.70
1.77 -26.488 143.58 -0.071366 -125.57 -0.071366 -125.57 -26.488 143.58
1.8 -26.732 141.47 -0.071751 -127.70 -0.071751 -127.70 -26.732 141.47
1.83 -26.995 139.35 -0.072129 -129.84 -0.072129 -129.84 -26.995 139.35
1.86 -27.279 137.24 -0.0725 -131.98 -0.0725 -131.98 -27.279 137.24
1.89 -27.585 135.14 -0.072869 -134.11 -0.072869 -134.11 -27.585 135.14
1.92 -27.915 133.03 -0.073238 -136.25 -0.073238 -136.25 -27.915 133.03
1.95 -28.27 130.93 -0.073611 -138.39 -0.073611 -138.39 -28.27 130.93
1.98 -28.652 128.83 -0.07399 -140.53 -0.07399 -140.53 -28.652 128.83
2.01 -29.065 126.73 -0.074379 -142.67 -0.074379 -142.67 -29.065 126.73
2.04 -29.511 124.65 -0.074781 -144.81 -0.074781 -144.81 -29.511 124.65
2.07 -29.993 122.56 -0.075198 -146.95 -0.075198 -146.95 -29.993 122.56
2.1 -30.516 120.49 -0.075633 -149.09 -0.075633 -149.09 -30.516 120.49
2.13 -31.086 118.42 -0.076089 -151.24 -0.076089 -151.24 -31.086 118.42
2.16 -31.708 116.37 -0.076568 -153.38 -0.076568 -153.38 -31.708 116.37
2.19 -32.391 114.33 -0.077074 -155.52 -0.077074 -155.52 -32.391 114.33
2.22 -33.146 112.32 -0.077607 -157.67 -0.077607 -157.67 -33.146 112.32
2.25 -33.985 110.32 -0.078171 -159.81 -0.078171 -159.81 -33.985 110.32
2.28 -34.927 108.37 -0.078767 -161.96 -0.078767 -161.96 -34.927 108.37
2.31 -35.996 106.47 -0.079397 -164.11 -0.079397 -164.11 -35.996 106.47
2.34 -37.23 104.64 -0.080062 -166.25 -0.080062 -166.25 -37.23 104.64
2.37 -38.681 102.92 -0.080764 -168.40 -0.080764 -168.40 -38.681 102.92
2.4 -40.437 101.41 -0.081504 -170.55 -0.081504 -170.55 -40.437 101.41
2.43 -42.653 100.26 -0.082284 -172.70 -0.082284 -172.70 -42.653 100.26
2.46 -45.645 99.94 -0.083102 -174.84 -0.083102 -174.84 -45.645 99.94
2.49 -50.228 102.16 -0.083961 -176.99 -0.083961 -176.99 -50.228 102.16
2.52 -59.728 122.72 -0.084861 -179.14 -0.084861 -179.14 -59.728 122.72
2.55 -56.948 -116.21 -0.0858 178.71 -0.0858 178.71 -56.948 -116.21
2.58 -49.089 -104.15 -0.08678 176.56 -0.08678 176.56 -49.089 -104.15
2.61 -44.957 -102.76 -0.0878 174.41 -0.0878 174.41 -44.957 -102.76
2.64 -42.167 -103.32 -0.088858 172.26 -0.088858 172.26 -42.167 -103.32
2.67 -40.067 -104.57 -0.089955 170.10 -0.089955 170.10 -40.067 -104.57
2.7 -38.386 -106.14 -0.091089 167.95 -0.091089 167.95 -38.386 -106.14
2.73 -36.989 -107.88 -0.092259 165.80 -0.092259 165.80 -36.989 -107.88
2.76 -35.797 -109.73 -0.093463 163.65 -0.093463 163.65 -35.797 -109.73
2.79 -34.76 -111.65 -0.094699 161.50 -0.094699 161.50 -34.76 -111.65
2.82 -33.845 -113.62 -0.095966 159.34 -0.095966 159.34 -33.845 -113.62
2.85 -33.029 -115.62 -0.097262 157.19 -0.097262 157.19 -33.029 -115.62
2.88 -32.294 -117.64 -0.098584 155.04 -0.098584 155.04 -32.294 -117.64
2.91 -31.629 -119.69 -0.09993 152.88 -0.09993 152.88 -31.629 -119.69
2.94 -31.022 -121.75 -0.1013 150.73 -0.1013 150.73 -31.022 -121.75
2.97 -30.467 -123.82 -0.10268 148.58 -0.10268 148.58 -30.467 -123.82
3 -29.957 -125.90 -0.10409 146.42 -0.10409 146.42 -29.957 -125.90
3.03 -29.487 -127.99 -0.1055 144.27 -0.1055 144.27 -29.487 -127.99
3.06 -29.053 -130.09 -0.10693 142.11 -0.10693 142.11 -29.053 -130.09
3.09 -28.652 -132.19 -0.10836 139.96 -0.10836 139.96 -28.652 -132.19
3.12 -28.28 -134.29 -0.1098 137.80 -0.1098 137.80 -28.28 -134.29
3.15 -27.935 -136.40 -0.11123 135.65 -0.11123 135.65 -27.935 -136.40
3.18 -27.616 -138.52 -0.11267 133.49 -0.11267 133.49 -27.616 -138.52
3.21 -27.32 -140.63 -0.1141 131.34 -0.1141 131.34 -27.32 -140.63
3.24 -27.046 -142.75 -0.11553 129.18 -0.11553 129.18 -27.046 -142.75
3.27 -26.792 -144.87 -0.11694 127.03 -0.11694 127.03 -26.792 -144.87
3.3 -26.557 -146.99 -0.11834 124.87 -0.11834 124.87 -26.557 -146.99
3.33 -26.341 -149.12 -0.11972 122.71 -0.11972 122.71 -26.341 -149.12
3.36 -26.142 -151.24 -0.12109 120.56 -0.12109 120.56 -26.142 -151.24
3.39 -25.959 -153.37 -0.12243 118.40 -0.12243 118.40 -25.959 -153.37
3.42 -25.793 -155.50 -0.12374 116.24 -0.12374 116.24 -25.793 -155.50
3.45 -25.641 -157.63 -0.12503 114.09 -0.12503 114.09 -25.641 -157.63
3.48 -25.505 -159.75 -0.1263 111.93 -0.1263 111.93 -25.505 -159.75
3.51 -25.383 -161.88 -0.12753 109.77 -0.12753 109.77 -25.383 -161.88
3.54 -25.274 -164.02 -0.12872 107.61 -0.12872 107.61 -25.274 -164.02
3.57 -25.179 -166.15 -0.12989 105.46 -0.12989 105.46 -25.179 -166.15
3.6 -25.098 -168.28 -0.13101 103.30 -0.13101 103.30 -25.098 -168.28
3.63 -25.029 -170.41 -0.1321 101.14 -0.1321 101.14 -25.029 -170.41
3.66 -24.974 -172.54 -0.13315 98.98 -0.13315 98.98 -24.974 -172.54
3.69 -24.93 -174.68 -0.13416 96.82 -0.13416 96.82 -24.93 -174.68
3.72 -24.9 -176.81 -0.13513 94.66 -0.13513 94.66 -24.9 -176.81
3.75 -24.881 -178.94 -0.13607 92.50 -0.13607 92.50 -24.881 -178.94
3.78 -24.876 178.92 -0.13696 90.34 -0.13696 90.34 -24.876 178.92
3.81 -24.882 176.79 -0.13781 88.18 -0.13781 88.18 -24.882 176.79
3.84 -24.901 174.66 -0.13862 86.01 -0.13862 86.01 -24.901 174.66
3.87 -24.932 172.53 -0.13939 83.85 -0.13939 83.85 -24.932 172.53
3.9 -24.976 170.39 -0.14012 81.69 -0.14012 81.69 -24.976 170.39
3.93 -25.032 168.26 -0.14081 79.52 -0.14081 79.52 -25.032 168.26
3.96 -25.102 166.13 -0.14146 77.36 -0.14146 77.36 -25.102 166.13
3.99 -25.184 164.00 -0.14208 75.19 -0.14208 75.19 -25.184 164.00
4.02 -25.28 161.87 -0.14267 73.03 -0.14267 73.03 -25.28 161.87
4.05 -25.389 159.73 -0.14322 70.86 -0.14322 70.86 -25.389 159.73
4.08 -25.512 157.60 -0.14375 68.70 -0.14375 68.70 -25.512 157.60
4.11 -25.649 155.48 -0.14424 66.53 -0.14424 66.53 -25.649 155.48
4.14 -25.802 153.35 -0.14471 64.36 -0.14471 64.36 -25.802 153.35
4.17 -25.969 151.22 -0.14516 62.19 -0.14516 62.19 -25.969 151.22
4.2 -26.153 149.10 -0.14558 60.02 -0.14558 60.02 -26.153 149.10
4.23 -26.353 146.98 -0.14599 57.85 -0.14599 57.85 -26.353 146.98
4.26 -26.571 144.86 -0.14638 55.68 -0.14638 55.68 -26.571 144.86
4.29 -26.807 142.74 -0.14676 53.51 -0.14676 53.51 -26.807 142.74
4.32 -27.062 140.62 -0.14713 51.34 -0.14713 51.34 -27.062 140.62
4.35 -27.338 138.51 -0.14749 49.16 -0.14749 49.16 -27.338 138.51
4.38 -27.636 136.40 -0.14785 46.99 -0.14785 46.99 -27.636 136.40
4.41 -27.958 134.30 -0.1482 44.81 -0.1482 44.81 -27.958 134.30
4.44 -28.304 132.20 -0.14856 42.64 -0.14856 42.64 -28.304 132.20
4.47 -28.679 130.11 -0.14893 40.46 -0.14893 40.46 -28.679 130.11
4.5 -29.083 128.03 -0.14931 38.28 -0.14931 38.28 -29.083 128.03
4.53 -29.52 125.96 -0.14969 36.11 -0.14969 36.11 -29.52 125.96
4.56 -29.993 123.90 -0.15009 33.93 -0.15009 33.93 -29.993 123.90
4.59 -30.506 121.85 -0.15051 31.75 -0.15051 31.75 -30.506 121.85
4.62 -31.065 119.82 -0.15095 29.57 -0.15095 29.57 -31.065 119.82
4.65 -31.676 117.81 -0.15141 27.39 -0.15141 27.39 -31.676 117.81
4.68 -32.347 115.83 -0.1519 25.21 -0.1519 25.21 -32.347 115.83
4.71 -33.087 113.89 -0.15241 23.02 -0.15241 23.02 -33.087 113.89
4.74 -33.91 111.99 -0.15295 20.84 -0.15295 20.84 -33.91 111.99
4.77 -34.832 110.16 -0.15353 18.66 -0.15353 18.66 -34.832 110.16
4.8 -35.878 108.41 -0.15414 16.47 -0.15414 16.47 -35.878 108.41
4.83 -37.081 106.79 -0.15478 14.29 -0.15478 14.29 -37.081 106.79
4.86 -38.49 105.38 -0.15546 12.10 -0.15546 12.10 -38.49 105.38
4.89 -40.186 104.30 -0.15618 9.92 -0.15618 9.92 -40.186 104.30
4.92 -42.304 103.82 -0.15694 7.73 -0.15694 7.73 -42.304 103.82
4.95 -45.109 104.65 -0.15773 5.54 -0.15773 5.54 -45.109 104.65
4.98 -49.211 109.17 -0.15857 3.35 -0.15857 3.35 -49.211 109.17
5.01 -56.204 131.72 -0.15944 1.17 -0.15944 1.17 -56.204 131.72
5.04 -56.772 -138.47 -0.16036 -1.02 -0.16036 -1.02 -56.772 -138.47
5.07 -49.544 -113.00 -0.16132 -3.21 -0.16132 -3.21 -49.544 -113.00
5.1 -45.324 -108.06 -0.16231 -5.40 -0.16231 -5.40 -45.324 -108.06
5.13 -42.463 -107.10 -0.16335 -7.59 -0.16335 -7.59 -42.463 -107.10
5.16 -40.313 -107.52 -0.16442 -9.78 -0.16442 -9.78 -40.313 -107.52
5.19 -38.598 -108.58 -0.16553 -11.97 -0.16553 -11.97 -38.598 -108.58
5.22 -37.175 -109.99 -0.16668 -14.16 -0.16668 -14.16 -37.175 -109.99
5.25 -35.963 -111.60 -0.16786 -16.36 -0.16786 -16.36 -35.963 -111.60
5.28 -34.911 -113.34 -0.16908 -18.55 -0.16908 -18.55 -34.911 -113.34
5.31 -33.984 -115.17 -0.17032 -20.74 -0.17032 -20.74 -33.984 -115.17
5.34 -33.157 -117.08 -0.17159 -22.93 -0.17159 -22.93 -33.157 -117.08
5.37 -32.415 -119.02 -0.17289 -25.13 -0.17289 -25.13 -32.415 -119.02
5.4 -31.742 -121.01 -0.17422 -27.32 -0.17422 -27.32 -31.742 -121.01
5.43 -31.13 -123.03 -0.17556 -29.51 -0.17556 -29.51 -31.13 -123.03
5.46 -30.57 -125.06 -0.17692 -31.71 -0.17692 -31.71 -30.57 -125.06
5.49 -30.057 -127.12 -0.1783 -33.90 -0.1783 -33.90 -30.057 -127.12
5.52 -29.584 -129.19 -0.17969 -36.10 -0.17969 -36.10 -29.584 -129.19
5.55 -29.147 -131.27 -0.1811 -38.29 -0.1811 -38.29 -29.147 -131.27
5.58 -28.744 -133.37 -0.1825 -40.49 -0.1825 -40.49 -28.744 -133.37
5.61 -28.371 -135.47 -0.18392 -42.68 -0.18392 -42.68 -28.371 -135.47
5.64 -28.026 -137.58 -0.18533 -44.88 -0.18533 -44.88 -28.026 -137.58
5.67 -27.706 -139.69 -0.18674 -47.07 -0.18674 -47.07 -27.706 -139.69
5.7 -27.41 -141.81 -0.18814 -49.27 -0.18814 -49.27 -27.41 -141.81
5.73 -27.136 -143.94 -0.18954 -51.46 -0.18954 -51.46 -27.136 -143.94
5.76 -26.883 -146.07 -0.19093 -53.66 -0.19093 -53.66 -26.883 -146.07
5.79 -26.65 -148.20 -0.1923 -55.86 -0.1923 -55.86 -26.65 -148.20
5.82 -26.435 -150.34 -0.19365 -58.06 -0.19365 -58.06 -26.435 -150.34
5.85 -26.238 -152.48 -0.19498 -60.25 -0.19498 -60.25 -26.238 -152.48
5.88 -26.058 -154.62 -0.1963 -62.45 -0.1963 -62.45 -26.058 -154.62
5.91 -25.894 -156.76 -0.19758 -64.65 -0.19758 -64.65 -25.894 -156.76
5.94 -25.746 -158.91 -0.19884 -66.85 -0.19884 -66.85 -25.746 -158.91
5.97 -25.612 -161.05 -0.20007 -69.04 -0.20007 -69.04 -25.612 -161.05
6 -25.494 -163.20 -0.20126 -71.24 -0.20126 -71.24 -25.494 -163.20
