! yapnr rf: line-osh-w-w3p00-l20-w-nom, footprint re-simulated (optimization grid)
! spec sha256 6a97b554cf3e21df03ab181912cb1d440353526eea82e4028a0b8e568b2a5cda
! 2 ports renormalized to 50 ohm, e^(+jwt) convention
# GHz S RI R 50
3.000000000  9.427495589e-03 -7.045883354e-03 -5.381254952e-01 -8.030282023e-01 -5.381254952e-01 -8.030282023e-01  9.427495589e-03 -7.045883354e-03
3.025000000  9.311391373e-03 -7.232735179e-03 -5.526416405e-01 -7.930752080e-01 -5.526416405e-01 -7.930752080e-01  9.311391373e-03 -7.232735179e-03
3.050000000  9.185399340e-03 -7.412645458e-03 -5.669748969e-01 -7.828591906e-01 -5.669748969e-01 -7.828591906e-01  9.185399340e-03 -7.412645458e-03
3.075000000  9.047887174e-03 -7.584202922e-03 -5.811248900e-01 -7.723802435e-01 -5.811248900e-01 -7.723802435e-01  9.047887174e-03 -7.584202922e-03
3.100000000  8.901490558e-03 -7.746925077e-03 -5.950801841e-01 -7.616466500e-01 -5.950801841e-01 -7.616466500e-01  8.901490558e-03 -7.746925077e-03
3.125000000  8.744184075e-03 -7.900146154e-03 -6.088424558e-01 -7.506570597e-01 -6.088424558e-01 -7.506570597e-01  8.744184075e-03 -7.900146154e-03
3.150000000  8.579734648e-03 -8.043498503e-03 -6.224021822e-01 -7.394188069e-01 -6.224021822e-01 -7.394188069e-01  8.579734648e-03 -8.043498503e-03
3.175000000  8.405415277e-03 -8.176277609e-03 -6.357591955e-01 -7.279319248e-01 -6.357591955e-01 -7.279319248e-01  8.405415277e-03 -8.176277609e-03
3.200000000  8.225404477e-03 -8.299397917e-03 -6.489063447e-01 -7.162022060e-01 -6.489063447e-01 -7.162022060e-01  8.225404477e-03 -8.299397917e-03
3.225000000  8.036828562e-03 -8.411286675e-03 -6.618415822e-01 -7.042312769e-01 -6.618415822e-01 -7.042312769e-01  8.036828562e-03 -8.411286675e-03
3.250000000  7.842483478e-03 -8.513261909e-03 -6.745586333e-01 -6.920245741e-01 -6.745586333e-01 -6.920245741e-01  7.842483478e-03 -8.513261909e-03
3.275000000  7.640607178e-03 -8.603539592e-03 -6.870547232e-01 -6.795844999e-01 -6.870547232e-01 -6.795844999e-01  7.640607178e-03 -8.603539592e-03
3.300000000  7.432322595e-03 -8.682388964e-03 -6.993235423e-01 -6.669170179e-01 -6.993235423e-01 -6.669170179e-01  7.432322595e-03 -8.682388964e-03
3.325000000  7.217170863e-03 -8.748656679e-03 -7.113621896e-01 -6.540248806e-01 -7.113621896e-01 -6.540248806e-01  7.217170863e-03 -8.748656679e-03
3.350000000  6.995884617e-03 -8.801595218e-03 -7.231649802e-01 -6.409139072e-01 -7.231649802e-01 -6.409139072e-01  6.995884617e-03 -8.801595218e-03
3.375000000  6.768703915e-03 -8.840648759e-03 -7.347285646e-01 -6.275876153e-01 -7.347285646e-01 -6.275876153e-01  6.768703915e-03 -8.840648759e-03
3.400000000  6.536702173e-03 -8.865237348e-03 -7.460488123e-01 -6.140505007e-01 -7.460488123e-01 -6.140505007e-01  6.536702173e-03 -8.865237348e-03
3.425000000  6.300604126e-03 -8.875039957e-03 -7.571216361e-01 -6.003072158e-01 -7.571216361e-01 -6.003072158e-01  6.300604126e-03 -8.875039957e-03
3.450000000  6.061060956e-03 -8.870039939e-03 -7.679442498e-01 -5.863609283e-01 -7.679442498e-01 -5.863609283e-01  6.061060956e-03 -8.870039939e-03
3.475000000  5.819522741e-03 -8.850320402e-03 -7.785120954e-01 -5.722171695e-01 -7.785120954e-01 -5.722171695e-01  5.819522741e-03 -8.850320402e-03
3.500000000  5.574866997e-03 -8.815015865e-03 -7.888232115e-01 -5.578782307e-01 -7.888232115e-01 -5.578782307e-01  5.574866997e-03 -8.815015865e-03
3.525000000  5.330443104e-03 -8.766130041e-03 -7.988717390e-01 -5.433518103e-01 -7.988717390e-01 -5.433518103e-01  5.330443104e-03 -8.766130041e-03
3.550000000  5.083955921e-03 -8.701291350e-03 -8.086561451e-01 -5.286398767e-01 -8.086561451e-01 -5.286398767e-01  5.083955921e-03 -8.701291350e-03
3.575000000  4.837371234e-03 -8.621704577e-03 -8.181713128e-01 -5.137496986e-01 -8.181713128e-01 -5.137496986e-01  4.837371234e-03 -8.621704577e-03
3.600000000  4.589760412e-03 -8.525373893e-03 -8.274155993e-01 -4.986835120e-01 -8.274155993e-01 -4.986835120e-01  4.589760412e-03 -8.525373893e-03
3.625000000  4.343195372e-03 -8.413415638e-03 -8.363829745e-01 -4.834507927e-01 -8.363829745e-01 -4.834507927e-01  4.343195372e-03 -8.413415638e-03
3.650000000  4.096894188e-03 -8.284187974e-03 -8.450733311e-01 -4.680514537e-01 -8.450733311e-01 -4.680514537e-01  4.096894188e-03 -8.284187974e-03
3.675000000  3.853572498e-03 -8.138583299e-03 -8.534801332e-01 -4.524966964e-01 -8.534801332e-01 -4.524966964e-01  3.853572498e-03 -8.138583299e-03
3.700000000  3.611819861e-03 -7.975452245e-03 -8.616041572e-01 -4.367848513e-01 -8.616041572e-01 -4.367848513e-01  3.611819861e-03 -7.975452245e-03
3.725000000  3.375431735e-03 -7.796428530e-03 -8.694391148e-01 -4.209275498e-01 -8.694391148e-01 -4.209275498e-01  3.375431735e-03 -7.796428530e-03
3.750000000  3.142097745e-03 -7.599850847e-03 -8.769855303e-01 -4.049234855e-01 -8.769855303e-01 -4.049234855e-01  3.142097745e-03 -7.599850847e-03
3.775000000  2.915325343e-03 -7.388140234e-03 -8.842382775e-01 -3.887828516e-01 -8.842382775e-01 -3.887828516e-01  2.915325343e-03 -7.388140234e-03
3.800000000  2.693308890e-03 -7.159146969e-03 -8.911968365e-01 -3.725064080e-01 -8.911968365e-01 -3.725064080e-01  2.693308890e-03 -7.159146969e-03
3.825000000  2.478386088e-03 -6.915090026e-03 -8.978568365e-01 -3.561036990e-01 -8.978568365e-01 -3.561036990e-01  2.478386088e-03 -6.915090026e-03
3.850000000  2.269811795e-03 -6.654145342e-03 -9.042174094e-01 -3.395763637e-01 -9.042174094e-01 -3.395763637e-01  2.269811795e-03 -6.654145342e-03
3.875000000  2.069128510e-03 -6.377581793e-03 -9.102745515e-01 -3.229341752e-01 -9.102745515e-01 -3.229341752e-01  2.069128510e-03 -6.377581793e-03
3.900000000  1.876337075e-03 -6.084481816e-03 -9.160273793e-01 -3.061790697e-01 -9.160273793e-01 -3.061790697e-01  1.876337075e-03 -6.084481816e-03
3.925000000  1.692902532e-03 -5.775484774e-03 -9.214724934e-01 -2.893203263e-01 -9.214724934e-01 -2.893203263e-01  1.692902532e-03 -5.775484774e-03
3.950000000  1.519043558e-03 -5.450369975e-03 -9.266088529e-01 -2.723606966e-01 -9.266088529e-01 -2.723606966e-01  1.519043558e-03 -5.450369975e-03
3.975000000  1.356071840e-03 -5.109721232e-03 -9.314340702e-01 -2.553073343e-01 -9.314340702e-01 -2.553073343e-01  1.356071840e-03 -5.109721232e-03
4.000000000  1.204380162e-03 -4.753644071e-03 -9.359467305e-01 -2.381645622e-01 -9.359467305e-01 -2.381645622e-01  1.204380162e-03 -4.753644071e-03
4.025000000  1.065645130e-03 -4.383513996e-03 -9.401444426e-01 -2.209407612e-01 -9.401444426e-01 -2.209407612e-01  1.065645130e-03 -4.383513996e-03
4.050000000  9.394890912e-04 -3.998824660e-03 -9.440265232e-01 -2.036380780e-01 -9.440265232e-01 -2.036380780e-01  9.394890912e-04 -3.998824660e-03
4.075000000  8.267098260e-04 -3.600328648e-03 -9.475912284e-01 -1.862630777e-01 -9.475912284e-01 -1.862630777e-01  8.267098260e-04 -3.600328648e-03
4.100000000  7.281132515e-04 -3.188669969e-03 -9.508369918e-01 -1.688222885e-01 -9.508369918e-01 -1.688222885e-01  7.281132515e-04 -3.188669969e-03
4.125000000  6.439416188e-04 -2.763780205e-03 -9.537626736e-01 -1.513206662e-01 -9.537626736e-01 -1.513206662e-01  6.439416188e-04 -2.763780205e-03
4.150000000  5.750720387e-04 -2.326592194e-03 -9.563667686e-01 -1.337659939e-01 -9.563667686e-01 -1.337659939e-01  5.750720387e-04 -2.326592194e-03
4.175000000  5.218617205e-04 -1.876912138e-03 -9.586485200e-01 -1.161620538e-01 -9.586485200e-01 -1.161620538e-01  5.218617205e-04 -1.876912138e-03
4.200000000  4.852557415e-04 -1.415795377e-03 -9.606065277e-01 -9.851831565e-02 -9.606065277e-01 -9.851831565e-02  4.852557415e-04 -1.415795377e-03
4.225000000  4.655079956e-04 -9.432158959e-04 -9.622404524e-01 -8.083623724e-02 -9.622404524e-01 -8.083623724e-02  4.655079956e-04 -9.432158959e-04
4.250000000  4.636233464e-04 -4.602524692e-04 -9.635491621e-01 -6.312572721e-02 -9.635491621e-01 -6.312572721e-02  4.636233464e-04 -4.602524692e-04
4.275000000  4.801826497e-04  3.241546793e-05 -9.645321559e-01 -4.539201377e-02 -9.645321559e-01 -4.539201377e-02  4.801826497e-04  3.241546793e-05
4.300000000  5.157108069e-04  5.340075228e-04 -9.651889704e-01 -2.764094461e-02 -9.651889704e-01 -2.764094461e-02  5.157108069e-04  5.340075228e-04
4.325000000  5.701471845e-04  1.044431753e-03 -9.655192948e-01 -9.874425139e-03 -9.655192948e-01 -9.874425139e-03  5.701471845e-04  1.044431753e-03
4.350000000  6.446138299e-04  1.562000538e-03 -9.655226805e-01  7.895750849e-03 -9.655226805e-01  7.895750849e-03  6.446138299e-04  1.562000538e-03
4.375000000  7.388881521e-04  2.086999225e-03 -9.651989306e-01  2.566957093e-02 -9.651989306e-01  2.566957093e-02  7.388881521e-04  2.086999225e-03
4.400000000  8.537813193e-04  2.617855474e-03 -9.645480482e-01  4.343469637e-02 -9.645480482e-01  4.343469637e-02  8.537813193e-04  2.617855474e-03
4.425000000  9.893509690e-04  3.154566114e-03 -9.635698456e-01  6.119110920e-02 -9.635698456e-01  6.119110920e-02  9.893509690e-04  3.154566114e-03
4.450000000  1.146192432e-03  3.695836289e-03 -9.622648183e-01  7.892624701e-02 -9.622648183e-01  7.892624701e-02  1.146192432e-03  3.695836289e-03
4.475000000  1.324463668e-03  4.241249259e-03 -9.606328243e-01  9.663989935e-02 -9.606328243e-01  9.663989935e-02  1.324463668e-03  4.241249259e-03
4.500000000  1.524596857e-03  4.789747573e-03 -9.586745308e-01  1.143223180e-01 -9.586745308e-01  1.143223180e-01  1.524596857e-03  4.789747573e-03
4.525000000  1.746885645e-03  5.340445003e-03 -9.563905759e-01  1.319668111e-01 -9.563905759e-01  1.319668111e-01  1.746885645e-03  5.340445003e-03
4.550000000  1.991542334e-03  5.892507459e-03 -9.537815211e-01  1.495682251e-01 -9.537815211e-01  1.495682251e-01  1.991542334e-03  5.892507459e-03
4.575000000  2.258642474e-03  6.445125496e-03 -9.508476672e-01  1.671231837e-01 -9.508476672e-01  1.671231837e-01  2.258642474e-03  6.445125496e-03
4.600000000  2.548433450e-03  6.997375643e-03 -9.475902224e-01  1.846231826e-01 -9.475902224e-01  1.846231826e-01  2.548433450e-03  6.997375643e-03
4.625000000  2.860959129e-03  7.548405352e-03 -9.440097825e-01  2.020640256e-01 -9.440097825e-01  2.020640256e-01  2.860959129e-03  7.548405352e-03
4.650000000  3.196328236e-03  8.097348954e-03 -9.401076088e-01  2.194385536e-01 -9.401076088e-01  2.194385536e-01  3.196328236e-03  8.097348954e-03
4.675000000  3.554583023e-03  8.643311299e-03 -9.358846852e-01  2.367415270e-01 -9.358846852e-01  2.367415270e-01  3.554583023e-03  8.643311299e-03
4.700000000  3.935722481e-03  9.185333069e-03 -9.313424345e-01  2.539663179e-01 -9.313424345e-01  2.539663179e-01  3.935722481e-03  9.185333069e-03
4.725000000  4.339737440e-03  9.722503260e-03 -9.264823291e-01  2.711067089e-01 -9.264823291e-01  2.711067089e-01  4.339737440e-03  9.722503260e-03
4.750000000  4.766543284e-03  1.025375475e-02 -9.213053412e-01  2.881585444e-01 -9.213053412e-01  2.881585444e-01  4.766543284e-03  1.025375475e-02
4.775000000  5.215960227e-03  1.077825809e-02 -9.158146298e-01  3.051110360e-01 -9.158146298e-01  3.051110360e-01  5.215960227e-03  1.077825809e-02
4.800000000  5.687872876e-03  1.129496082e-02 -9.100105299e-01  3.219628543e-01 -9.100105299e-01  3.219628543e-01  5.687872876e-03  1.129496082e-02
4.825000000  6.182018298e-03  1.180304599e-02 -9.038957331e-01  3.387057146e-01 -9.038957331e-01  3.387057146e-01  6.182018298e-03  1.180304599e-02
4.850000000  6.698253551e-03  1.230146610e-02 -8.974710716e-01  3.553368520e-01 -8.974710716e-01  3.553368520e-01  6.698253551e-03  1.230146610e-02
4.875000000  7.236246927e-03  1.278972152e-02 -8.907399073e-01  3.718471248e-01 -8.907399073e-01  3.718471248e-01  7.236246927e-03  1.278972152e-02
4.900000000  7.795796000e-03  1.326643107e-02 -8.837027769e-01  3.882347692e-01 -8.837027769e-01  3.882347692e-01  7.795796000e-03  1.326643107e-02
4.925000000  8.376620488e-03  1.373142739e-02 -8.763636145e-01  4.044901700e-01 -8.763636145e-01  4.044901700e-01  8.376620488e-03  1.373142739e-02
4.950000000  8.978312066e-03  1.418296304e-02 -8.687228442e-01  4.206119724e-01 -8.687228442e-01  4.206119724e-01  8.978312066e-03  1.418296304e-02
4.975000000  9.600562412e-03  1.462096593e-02 -8.607853728e-01  4.365894373e-01 -8.607853728e-01  4.365894373e-01  9.600562412e-03  1.462096593e-02
5.000000000  1.024283712e-02  1.504361940e-02 -8.525510352e-01  4.524225622e-01 -8.525510352e-01  4.524225622e-01  1.024283712e-02  1.504361940e-02
5.025000000  1.090451442e-02  1.545077634e-02 -8.440261586e-01  4.680989106e-01 -8.440261586e-01  4.680989106e-01  1.090451442e-02  1.545077634e-02
5.050000000  1.158519267e-02  1.584080717e-02 -8.352098555e-01  4.836198963e-01 -8.352098555e-01  4.836198963e-01  1.158519267e-02  1.584080717e-02
5.075000000  1.228391929e-02  1.621360315e-02 -8.261087602e-01  4.989736015e-01 -8.261087602e-01  4.989736015e-01  1.228391929e-02  1.621360315e-02
5.100000000  1.300041226e-02  1.656765025e-02 -8.167224346e-01  5.141605732e-01 -8.167224346e-01  5.141605732e-01  1.300041226e-02  1.656765025e-02
5.125000000  1.373376755e-02  1.690315340e-02 -8.070568919e-01  5.291708283e-01 -8.070568919e-01  5.291708283e-01  1.373376755e-02  1.690315340e-02
5.150000000  1.448353929e-02  1.721847973e-02 -7.971126682e-01  5.440033237e-01 -7.971126682e-01  5.440033237e-01  1.448353929e-02  1.721847973e-02
5.175000000  1.524911138e-02  1.751394690e-02 -7.868950790e-01  5.586498393e-01 -7.868950790e-01  5.586498393e-01  1.524911138e-02  1.751394690e-02
5.200000000  1.602974571e-02  1.778797371e-02 -7.764056564e-01  5.731079502e-01 -7.764056564e-01  5.731079502e-01  1.602974571e-02  1.778797371e-02
5.225000000  1.682484679e-02  1.804042949e-02 -7.656492467e-01  5.873706784e-01 -7.656492467e-01  5.873706784e-01  1.682484679e-02  1.804042949e-02
5.250000000  1.763354675e-02  1.827011930e-02 -7.546282152e-01  6.014346475e-01 -7.546282152e-01  6.014346475e-01  1.763354675e-02  1.827011930e-02
5.275000000  1.845500422e-02  1.847696751e-02 -7.433489615e-01  6.152915365e-01 -7.433489615e-01  6.152915365e-01  1.845500422e-02  1.847696751e-02
5.300000000  1.928827065e-02  1.865955187e-02 -7.318125880e-01  6.289398793e-01 -7.318125880e-01  6.289398793e-01  1.928827065e-02  1.865955187e-02
5.325000000  2.013223045e-02  1.881755918e-02 -7.200245053e-01  6.423730699e-01 -7.200245053e-01  6.423730699e-01  2.013223045e-02  1.881755918e-02
5.350000000  2.098598050e-02  1.895041409e-02 -7.079885091e-01  6.555866668e-01 -7.079885091e-01  6.555866668e-01  2.098598050e-02  1.895041409e-02
5.375000000  2.184854954e-02  1.905772421e-02 -6.957083380e-01  6.685764227e-01 -6.957083380e-01  6.685764227e-01  2.184854954e-02  1.905772421e-02
5.400000000  2.271891219e-02  1.913922189e-02 -6.831887955e-01  6.813371337e-01 -6.831887955e-01  6.813371337e-01  2.271891219e-02  1.913922189e-02
5.425000000  2.359635908e-02  1.919432998e-02 -6.704327638e-01  6.938656934e-01 -6.704327638e-01  6.938656934e-01  2.359635908e-02  1.919432998e-02
5.450000000  2.447990505e-02  1.922323215e-02 -6.574458604e-01  7.061564196e-01 -6.574458604e-01  7.061564196e-01  2.447990505e-02  1.922323215e-02
5.475000000  2.536864090e-02  1.922472349e-02 -6.442304321e-01  7.182069062e-01 -6.442304321e-01  7.182069062e-01  2.536864090e-02  1.922472349e-02
5.500000000  2.626171171e-02  1.919920259e-02 -6.307924906e-01  7.300114435e-01 -6.307924906e-01  7.300114435e-01  2.626171171e-02  1.919920259e-02
5.525000000  2.715808372e-02  1.914624204e-02 -6.171370722e-01  7.415655030e-01 -6.171370722e-01  7.415655030e-01  2.715808372e-02  1.914624204e-02
5.550000000  2.805651127e-02  1.906528162e-02 -6.032686935e-01  7.528651908e-01 -6.032686935e-01  7.528651908e-01  2.805651127e-02  1.906528162e-02
5.575000000  2.895575194e-02  1.895549030e-02 -5.891897994e-01  7.639083417e-01 -5.891897994e-01  7.639083417e-01  2.895575194e-02  1.895549030e-02
5.600000000  2.985439879e-02  1.881759298e-02 -5.749098452e-01  7.746874586e-01 -5.749098452e-01  7.746874586e-01  2.985439879e-02  1.881759298e-02
5.625000000  3.075164421e-02  1.865050473e-02 -5.604285199e-01  7.852026812e-01 -5.604285199e-01  7.852026812e-01  3.075164421e-02  1.865050473e-02
5.650000000  3.164570240e-02  1.845551068e-02 -5.457566115e-01  7.954461203e-01 -5.457566115e-01  7.954461203e-01  3.164570240e-02  1.845551068e-02
5.675000000  3.253613093e-02  1.823118458e-02 -5.308929858e-01  8.054184754e-01 -5.308929858e-01  8.054184754e-01  3.253613093e-02  1.823118458e-02
5.700000000  3.342158024e-02  1.797946341e-02 -5.158481055e-01  8.151126084e-01 -5.158481055e-01  8.151126084e-01  3.342158024e-02  1.797946341e-02
5.725000000  3.430114797e-02  1.769857424e-02 -5.006218878e-01  8.245284823e-01 -5.006218878e-01  8.245284823e-01  3.430114797e-02  1.769857424e-02
5.750000000  3.517396980e-02  1.738986813e-02 -4.852223812e-01  8.336609065e-01 -4.852223812e-01  8.336609065e-01  3.517396980e-02  1.738986813e-02
5.775000000  3.603905418e-02  1.705327807e-02 -4.696545669e-01  8.425068350e-01 -4.696545669e-01  8.425068350e-01  3.603905418e-02  1.705327807e-02
5.800000000  3.689518840e-02  1.668878846e-02 -4.539242734e-01  8.510628818e-01 -4.539242734e-01  8.510628818e-01  3.689518840e-02  1.668878846e-02
5.825000000  3.774103635e-02  1.629592099e-02 -4.380342963e-01  8.593273941e-01 -4.380342963e-01  8.593273941e-01  3.774103635e-02  1.629592099e-02
5.850000000  3.857520682e-02  1.587553769e-02 -4.219938189e-01  8.672954903e-01 -4.219938189e-01  8.672954903e-01  3.857520682e-02  1.587553769e-02
5.875000000  3.939669908e-02  1.542746820e-02 -4.058054916e-01  8.749657806e-01 -4.058054916e-01  8.749657806e-01  3.939669908e-02  1.542746820e-02
5.900000000  4.020390180e-02  1.495259412e-02 -3.894775618e-01  8.823342954e-01 -3.894775618e-01  8.823342954e-01  4.020390180e-02  1.495259412e-02
5.925000000  4.099597501e-02  1.445098618e-02 -3.730136333e-01  8.893993447e-01 -3.730136333e-01  8.893993447e-01  4.099597501e-02  1.445098618e-02
5.950000000  4.177181946e-02  1.392363686e-02 -3.564203914e-01  8.961579699e-01 -3.564203914e-01  8.961579699e-01  4.177181946e-02  1.392363686e-02
5.975000000  4.253046254e-02  1.337083741e-02 -3.397027378e-01  9.026080938e-01 -3.397027378e-01  9.026080938e-01  4.253046254e-02  1.337083741e-02
6.000000000  4.327111992e-02  1.279292556e-02 -3.228651430e-01  9.087478386e-01 -3.228651430e-01  9.087478386e-01  4.327111992e-02  1.279292556e-02
6.025000000  4.399307877e-02  1.219143236e-02 -3.059160385e-01  9.145740100e-01 -3.059160385e-01  9.145740100e-01  4.399307877e-02  1.219143236e-02
6.050000000  4.469519710e-02  1.156593569e-02 -2.888587062e-01  9.200854024e-01 -2.888587062e-01  9.200854024e-01  4.469519710e-02  1.156593569e-02
6.075000000  4.537658707e-02  1.091733852e-02 -2.716999041e-01  9.252796846e-01 -2.716999041e-01  9.252796846e-01  4.537658707e-02  1.091733852e-02
6.100000000  4.603590683e-02  1.024590354e-02 -2.544447121e-01  9.301552047e-01 -2.544447121e-01  9.301552047e-01  4.603590683e-02  1.024590354e-02
6.125000000  4.667217544e-02  9.552751861e-03 -2.371013012e-01  9.347095614e-01 -2.371013012e-01  9.347095614e-01  4.667217544e-02  9.552751861e-03
6.150000000  4.728426933e-02  8.838234785e-03 -2.196731046e-01  9.389417710e-01 -2.196731046e-01  9.389417710e-01  4.728426933e-02  8.838234785e-03
6.175000000  4.787080946e-02  8.103761500e-03 -2.021699422e-01  9.428494086e-01 -2.021699422e-01  9.428494086e-01  4.787080946e-02  8.103761500e-03
6.200000000  4.843147529e-02  7.349629173e-03 -1.845933329e-01  9.464320384e-01 -1.845933329e-01  9.464320384e-01  4.843147529e-02  7.349629173e-03
6.225000000  4.896481525e-02  6.577757562e-03 -1.669541965e-01  9.496873916e-01 -1.669541965e-01  9.496873916e-01  4.896481525e-02  6.577757562e-03
6.250000000  4.947079135e-02  5.787974107e-03 -1.492529873e-01  9.526152681e-01 -1.492529873e-01  9.526152681e-01  4.947079135e-02  5.787974107e-03
6.275000000  4.994857045e-02  4.982605118e-03 -1.315006874e-01  9.552137386e-01 -1.315006874e-01  9.552137386e-01  4.994857045e-02  4.982605118e-03
6.300000000  5.039748376e-02  4.161138397e-03 -1.136979821e-01  9.574825848e-01 -1.136979821e-01  9.574825848e-01  5.039748376e-02  4.161138397e-03
6.325000000  5.081732768e-02  3.325870388e-03 -9.585592194e-02  9.594202279e-01 -9.585592194e-02  9.594202279e-01  5.081732768e-02  3.325870388e-03
6.350000000  5.120690697e-02  2.476564830e-03 -7.797566161e-02  9.610264354e-01 -7.797566161e-02  9.610264354e-01  5.120690697e-02  2.476564830e-03
6.375000000  5.156564688e-02  1.615108365e-03 -6.006848869e-02  9.623000471e-01 -6.006848869e-02  9.623000471e-01  5.156564688e-02  1.615108365e-03
6.400000000  5.189287246e-02  7.418976543e-04 -4.213582771e-02  9.632408423e-01 -4.213582771e-02  9.632408423e-01  5.189287246e-02  7.418976543e-04
6.425000000  5.218729102e-02 -1.412439504e-04 -2.418930484e-02  9.638481342e-01 -2.418930484e-02  9.638481342e-01  5.218729102e-02 -1.412439504e-04
6.450000000  5.244898542e-02 -1.033717668e-03 -6.230278617e-03  9.641217554e-01 -6.230278617e-03  9.641217554e-01  5.244898542e-02 -1.033717668e-03
6.475000000  5.267677838e-02 -1.933631873e-03  1.173093509e-02  9.640614662e-01  1.173093509e-02  9.640614662e-01  5.267677838e-02 -1.933631873e-03
6.500000000  5.287084074e-02 -2.840328427e-03  2.969178191e-02  9.636671423e-01  2.969178191e-02  9.636671423e-01  5.287084074e-02 -2.840328427e-03
6.525000000  5.303050610e-02 -3.751685428e-03  4.764204436e-02  9.629389250e-01  4.764204436e-02  9.629389250e-01  5.303050610e-02 -3.751685428e-03
6.550000000  5.315593799e-02 -4.667398800e-03  6.558020219e-02  9.618767367e-01  6.558020219e-02  9.618767367e-01  5.315593799e-02 -4.667398800e-03
6.575000000  5.324700095e-02 -5.585853956e-03  8.349831925e-02  9.604808389e-01  8.349831925e-02  9.604808389e-01  5.324700095e-02 -5.585853956e-03
6.600000000  5.330337684e-02 -6.506000289e-03  1.013911566e-01  9.587514648e-01  1.013911566e-01  9.587514648e-01  5.330337684e-02 -6.506000289e-03
6.625000000  5.332480959e-02 -7.426589661e-03  1.192519941e-01  9.566890749e-01  1.192519941e-01  9.566890749e-01  5.332480959e-02 -7.426589661e-03
6.650000000  5.331110716e-02 -8.346343845e-03  1.370748525e-01  9.542941780e-01  1.370748525e-01  9.542941780e-01  5.331110716e-02 -8.346343845e-03
6.675000000  5.326176990e-02 -9.263918358e-03  1.548530972e-01  9.515675094e-01  1.548530972e-01  9.515675094e-01  5.326176990e-02 -9.263918358e-03
6.700000000  5.317666928e-02 -1.017788048e-02  1.725798554e-01  9.485099830e-01  1.725798554e-01  9.485099830e-01  5.317666928e-02 -1.017788048e-02
6.725000000  5.305570641e-02 -1.108688780e-02  1.902498055e-01  9.451223727e-01  1.902498055e-01  9.451223727e-01  5.305570641e-02 -1.108688780e-02
6.750000000  5.289863483e-02 -1.198932956e-02  2.078548144e-01  9.414061399e-01  2.078548144e-01  9.414061399e-01  5.289863483e-02 -1.198932956e-02
6.775000000  5.270603936e-02 -1.288415007e-02  2.253916087e-01  9.373618054e-01  2.253916087e-01  9.373618054e-01  5.270603936e-02 -1.288415007e-02
6.800000000  5.247770707e-02 -1.376962239e-02  2.428512702e-01  9.329913052e-01  2.428512702e-01  9.329913052e-01  5.247770707e-02 -1.376962239e-02
6.825000000  5.221439615e-02 -1.464492075e-02  2.602314968e-01  9.282950060e-01  2.602314968e-01  9.282950060e-01  5.221439615e-02 -1.464492075e-02
6.850000000  5.191622811e-02 -1.550839432e-02  2.775235457e-01  9.232750699e-01  2.775235457e-01  9.232750699e-01  5.191622811e-02 -1.550839432e-02
6.875000000  5.158359732e-02 -1.635909518e-02  2.947245743e-01  9.179320823e-01  2.947245743e-01  9.179320823e-01  5.158359732e-02 -1.635909518e-02
6.900000000  5.121686475e-02 -1.719547523e-02  3.118258709e-01  9.122685013e-01  3.118258709e-01  9.122685013e-01  5.121686475e-02 -1.719547523e-02
6.925000000  5.081630369e-02 -1.801640131e-02  3.288244221e-01  9.062850627e-01  3.288244221e-01  9.062850627e-01  5.081630369e-02 -1.801640131e-02
6.950000000  5.038203238e-02 -1.882016555e-02  3.457099529e-01  8.999851814e-01  3.457099529e-01  8.999851814e-01  5.038203238e-02 -1.882016555e-02
6.975000000  4.991486630e-02 -1.960579378e-02  3.624810891e-01  8.933691007e-01  3.624810891e-01  8.933691007e-01  4.991486630e-02 -1.960579378e-02
7.000000000  4.941480517e-02 -2.037153562e-02  3.791275621e-01  8.864406598e-01  3.791275621e-01  8.864406598e-01  4.941480517e-02 -2.037153562e-02
