! yapnr rf: line-osh-w-w3p00-l20-w-eq, footprint re-simulated (optimization grid)
! spec sha256 02ab086eb18a78028ab123eba90ac3ccdcb1745c3cb020d28b6c0be63683f0e8
! 2 ports renormalized to 50 ohm, e^(+jwt) convention
# GHz S RI R 50
3.000000000  1.806937130e-03 -2.137474053e-03 -5.340232834e-01 -8.082771410e-01 -5.340232834e-01 -8.082771410e-01  1.806937130e-03 -2.137474053e-03
3.025000000  1.866265449e-03 -2.251373759e-03 -5.485865946e-01 -7.984326277e-01 -5.485865946e-01 -7.984326277e-01  1.866265449e-03 -2.251373759e-03
3.050000000  1.920193977e-03 -2.365875573e-03 -5.629712510e-01 -7.883237898e-01 -5.629712510e-01 -7.883237898e-01  1.920193977e-03 -2.365875573e-03
3.075000000  1.965202428e-03 -2.478758866e-03 -5.771748815e-01 -7.779520402e-01 -5.771748815e-01 -7.779520402e-01  1.965202428e-03 -2.478758866e-03
3.100000000  2.004640835e-03 -2.591747300e-03 -5.911882865e-01 -7.673238736e-01 -5.911882865e-01 -7.673238736e-01  2.004640835e-03 -2.591747300e-03
3.125000000  2.035219631e-03 -2.702338717e-03 -6.050109601e-01 -7.564395058e-01 -6.050109601e-01 -7.564395058e-01  2.035219631e-03 -2.702338717e-03
3.150000000  2.058886621e-03 -2.810929495e-03 -6.186332980e-01 -7.453063140e-01 -6.186332980e-01 -7.453063140e-01  2.058886621e-03 -2.810929495e-03
3.175000000  2.073887972e-03 -2.916205801e-03 -6.320551476e-01 -7.339242981e-01 -6.320551476e-01 -7.339242981e-01  2.073887972e-03 -2.916205801e-03
3.200000000  2.082149257e-03 -3.017783956e-03 -6.452678922e-01 -7.223005786e-01 -6.452678922e-01 -7.223005786e-01  2.082149257e-03 -3.017783956e-03
3.225000000  2.082205713e-03 -3.114994434e-03 -6.582706687e-01 -7.104357881e-01 -6.582706687e-01 -7.104357881e-01  2.082205713e-03 -3.114994434e-03
3.250000000  2.076489871e-03 -3.207833336e-03 -6.710566830e-01 -6.983358929e-01 -6.710566830e-01 -6.983358929e-01  2.076489871e-03 -3.207833336e-03
3.275000000  2.063461222e-03 -3.295520374e-03 -6.836237782e-01 -6.860027466e-01 -6.836237782e-01 -6.860027466e-01  2.063461222e-03 -3.295520374e-03
3.300000000  2.045233234e-03 -3.378691806e-03 -6.959666315e-01 -6.734412833e-01 -6.959666315e-01 -6.734412833e-01  2.045233234e-03 -3.378691806e-03
3.325000000  2.020677012e-03 -3.456367770e-03 -7.080820663e-01 -6.606544690e-01 -7.080820663e-01 -6.606544690e-01  2.020677012e-03 -3.456367770e-03
3.350000000  1.990698737e-03 -3.529023708e-03 -7.199653537e-01 -6.476469751e-01 -7.199653537e-01 -6.476469751e-01  1.990698737e-03 -3.529023708e-03
3.375000000  1.954990390e-03 -3.595913827e-03 -7.316128125e-01 -6.344225265e-01 -7.316128125e-01 -6.344225265e-01  1.954990390e-03 -3.595913827e-03
3.400000000  1.913404372e-03 -3.656593913e-03 -7.430199796e-01 -6.209858814e-01 -7.430199796e-01 -6.209858814e-01  1.913404372e-03 -3.656593913e-03
3.425000000  1.866308883e-03 -3.710782588e-03 -7.541827936e-01 -6.073415434e-01 -7.541827936e-01 -6.073415434e-01  1.866308883e-03 -3.710782588e-03
3.450000000  1.813357629e-03 -3.757315014e-03 -7.650975143e-01 -5.934938116e-01 -7.650975143e-01 -5.934938116e-01  1.813357629e-03 -3.757315014e-03
3.475000000  1.755317105e-03 -3.796151679e-03 -7.757595082e-01 -5.794483311e-01 -7.757595082e-01 -5.794483311e-01  1.755317105e-03 -3.796151679e-03
3.500000000  1.691671850e-03 -3.826083189e-03 -7.861668905e-01 -5.652073048e-01 -7.861668905e-01 -5.652073048e-01  1.691671850e-03 -3.826083189e-03
3.525000000  1.624648556e-03 -3.847450888e-03 -7.963128673e-01 -5.507798102e-01 -7.963128673e-01 -5.507798102e-01  1.624648556e-03 -3.847450888e-03
3.550000000  1.553158555e-03 -3.859349526e-03 -8.061971237e-01 -5.361661437e-01 -8.061971237e-01 -5.361661437e-01  1.553158555e-03 -3.859349526e-03
3.575000000  1.479194321e-03 -3.862146704e-03 -8.158143702e-01 -5.213738072e-01 -8.158143702e-01 -5.213738072e-01  1.479194321e-03 -3.862146704e-03
3.600000000  1.401485249e-03 -3.854961234e-03 -8.251634398e-01 -5.064043037e-01 -8.251634398e-01 -5.064043037e-01  1.401485249e-03 -3.854961234e-03
3.625000000  1.322876043e-03 -3.839123680e-03 -8.342389866e-01 -4.912658083e-01 -8.342389866e-01 -4.912658083e-01  1.322876043e-03 -3.839123680e-03
3.650000000  1.241075410e-03 -3.812661897e-03 -8.430401294e-01 -4.759594690e-01 -8.430401294e-01 -4.759594690e-01  1.241075410e-03 -3.812661897e-03
3.675000000  1.159062499e-03 -3.777834712e-03 -8.515615348e-01 -4.604941237e-01 -8.515615348e-01 -4.604941237e-01  1.159062499e-03 -3.777834712e-03
3.700000000  1.074528023e-03 -3.731685025e-03 -8.598025820e-01 -4.448705309e-01 -8.598025820e-01 -4.448705309e-01  1.074528023e-03 -3.731685025e-03
3.725000000  9.900609079e-04 -3.676686535e-03 -8.677575282e-01 -4.290991526e-01 -8.677575282e-01 -4.290991526e-01  9.900609079e-04 -3.676686535e-03
3.750000000  9.040636585e-04 -3.609964443e-03 -8.754263323e-01 -4.131797298e-01 -8.754263323e-01 -4.131797298e-01  9.040636585e-04 -3.609964443e-03
3.775000000  8.185541649e-04 -3.533046850e-03 -8.828033777e-01 -3.971235031e-01 -8.828033777e-01 -3.971235031e-01  8.185541649e-04 -3.533046850e-03
3.800000000  7.327309801e-04 -3.444255248e-03 -8.898886510e-01 -3.809301913e-01 -8.898886510e-01 -3.809301913e-01  7.327309801e-04 -3.444255248e-03
3.825000000  6.485606237e-04 -3.344418216e-03 -8.966772428e-01 -3.646105814e-01 -8.966772428e-01 -3.646105814e-01  6.485606237e-04 -3.344418216e-03
3.850000000  5.653835507e-04 -3.232599980e-03 -9.031688266e-01 -3.481651475e-01 -9.031688266e-01 -3.481651475e-01  5.653835507e-04 -3.232599980e-03
3.875000000  4.852132149e-04 -3.109670679e-03 -9.093595127e-01 -3.316032347e-01 -9.093595127e-01 -3.316032347e-01  4.852132149e-04 -3.109670679e-03
3.900000000  4.074367097e-04 -2.974860361e-03 -9.152484258e-01 -3.149267861e-01 -9.152484258e-01 -3.149267861e-01  4.074367097e-04 -2.974860361e-03
3.925000000  3.336800209e-04 -2.829232957e-03 -9.208325951e-01 -2.981435984e-01 -9.208325951e-01 -2.981435984e-01  3.336800209e-04 -2.829232957e-03
3.950000000  2.636467753e-04 -2.672069539e-03 -9.261106936e-01 -2.812571047e-01 -9.261106936e-01 -2.812571047e-01  2.636467753e-04 -2.672069539e-03
3.975000000  1.981955152e-04 -2.504038618e-03 -9.310804442e-01 -2.642738450e-01 -9.310804442e-01 -2.642738450e-01  1.981955152e-04 -2.504038618e-03
4.000000000  1.375395158e-04 -2.324774437e-03 -9.357402638e-01 -2.471984667e-01 -9.357402638e-01 -2.471984667e-01  1.375395158e-04 -2.324774437e-03
4.025000000  8.265138033e-05 -2.135307416e-03 -9.400876506e-01 -2.300394903e-01 -9.400876506e-01 -2.300394903e-01  8.265138033e-05 -2.135307416e-03
4.050000000  3.336747965e-05 -1.934543988e-03 -9.441217529e-01 -2.127996374e-01 -9.441217529e-01 -2.127996374e-01  3.336747965e-05 -1.934543988e-03
4.075000000 -9.606270844e-06 -1.722732218e-03 -9.478407182e-01 -1.954858677e-01 -9.478407182e-01 -1.954858677e-01 -9.606270844e-06 -1.722732218e-03
4.100000000 -4.559718456e-05 -1.500220228e-03 -9.512429664e-01 -1.781047852e-01 -9.512429664e-01 -1.781047852e-01 -4.559718456e-05 -1.500220228e-03
4.125000000 -7.412456306e-05 -1.266815142e-03 -9.543274375e-01 -1.606609472e-01 -9.543274375e-01 -1.606609472e-01 -7.412456306e-05 -1.266815142e-03
4.150000000 -9.434606608e-05 -1.023069126e-03 -9.570925757e-01 -1.431623146e-01 -9.570925757e-01 -1.431623146e-01 -9.434606608e-05 -1.023069126e-03
4.175000000 -1.059871689e-04 -7.689117664e-04 -9.595377586e-01 -1.256118320e-01 -9.595377586e-01 -1.256118320e-01 -1.059871689e-04 -7.689117664e-04
4.200000000 -1.079826804e-04 -5.051341447e-04 -9.616615597e-01 -1.080185696e-01 -9.616615597e-01 -1.080185696e-01 -1.079826804e-04 -5.051341447e-04
4.225000000 -1.004844225e-04 -2.314981911e-04 -9.634636131e-01 -9.038415146e-02 -9.634636131e-01 -9.038415146e-02 -1.004844225e-04 -2.314981911e-04
4.250000000 -8.241604851e-05  5.103741290e-05 -9.649427785e-01 -7.271754849e-02 -9.649427785e-01 -7.271754849e-02 -8.241604851e-05  5.103741290e-05
4.275000000 -5.345707329e-05  3.421058339e-04 -9.660984707e-01 -5.502403550e-02 -9.660984707e-01 -5.502403550e-02 -5.345707329e-05  3.421058339e-04
4.300000000 -1.322697811e-05  6.413105145e-04 -9.669301336e-01 -3.730970380e-02 -9.669301336e-01 -3.730970380e-02 -1.322697811e-05  6.413105145e-04
4.325000000  3.830010907e-05  9.490331286e-04 -9.674374067e-01 -1.957707938e-02 -9.674374067e-01 -1.957707938e-02  3.830010907e-05  9.490331286e-04
4.350000000  1.020588883e-04  1.263839421e-03 -9.676197613e-01 -1.837869985e-03 -9.676197613e-01 -1.837869985e-03  1.020588883e-04  1.263839421e-03
4.375000000  1.780336058e-04  1.586327544e-03 -9.674770149e-01  1.590797755e-02 -9.674770149e-01  1.590797755e-02  1.780336058e-04  1.586327544e-03
4.400000000  2.670280184e-04  1.915283404e-03 -9.670090943e-01  3.364760170e-02 -9.670090943e-01  3.364760170e-02  2.670280184e-04  1.915283404e-03
4.425000000  3.691347560e-04  2.250878184e-03 -9.662158309e-01  5.138163607e-02 -9.662158309e-01  5.138163607e-02  3.691347560e-04  2.250878184e-03
4.450000000  4.851172620e-04  2.592119201e-03 -9.650976139e-01  6.909756413e-02 -9.650976139e-01  6.909756413e-02  4.851172620e-04  2.592119201e-03
4.475000000  6.150288618e-04  2.938834852e-03 -9.636543134e-01  8.679530170e-02 -9.636543134e-01  8.679530170e-02  6.150288618e-04  2.938834852e-03
4.500000000  7.594415841e-04  3.290231133e-03 -9.618864650e-01  1.044655825e-01 -9.618864650e-01  1.044655825e-01  7.594415841e-04  3.290231133e-03
4.525000000  9.187052866e-04  3.645691264e-03 -9.597945907e-01  1.221020542e-01 -9.597945907e-01  1.221020542e-01  9.187052866e-04  3.645691264e-03
4.550000000  1.093056495e-03  4.004659681e-03 -9.573791757e-01  1.396995877e-01 -9.573791757e-01  1.396995877e-01  1.093056495e-03  4.004659681e-03
4.575000000  1.282608073e-03  4.366657388e-03 -9.546405173e-01  1.572545025e-01 -9.546405173e-01  1.572545025e-01  1.282608073e-03  4.366657388e-03
4.600000000  1.487722238e-03  4.730975796e-03 -9.515796998e-01  1.747584848e-01 -9.515796998e-01  1.747584848e-01  1.487722238e-03  4.730975796e-03
4.625000000  1.708534264e-03  5.097074125e-03 -9.481972854e-01  1.922072505e-01 -9.481972854e-01  1.922072505e-01  1.708534264e-03  5.097074125e-03
4.650000000  1.945260560e-03  5.464313264e-03 -9.444944789e-01  2.095935504e-01 -9.444944789e-01  2.095935504e-01  1.945260560e-03  5.464313264e-03
4.675000000  2.198063640e-03  5.832068106e-03 -9.404722022e-01  2.269122036e-01 -9.404722022e-01  2.269122036e-01  2.198063640e-03  5.832068106e-03
4.700000000  2.467080780e-03  6.199651997e-03 -9.361317874e-01  2.441566767e-01 -9.361317874e-01  2.441566767e-01  2.467080780e-03  6.199651997e-03
4.725000000  2.752442277e-03  6.566392978e-03 -9.314746234e-01  2.613208209e-01 -9.314746234e-01  2.613208209e-01  2.752442277e-03  6.566392978e-03
4.750000000  3.054208714e-03  6.931520595e-03 -9.265016126e-01  2.784005700e-01 -9.265016126e-01  2.784005700e-01  3.054208714e-03  6.931520595e-03
4.775000000  3.372445741e-03  7.294420254e-03 -9.212156711e-01  2.953854900e-01 -9.212156711e-01  2.953854900e-01  3.372445741e-03  7.294420254e-03
4.800000000  3.707149492e-03  7.654295890e-03 -9.156171682e-01  3.122740579e-01 -9.156171682e-01  3.122740579e-01  3.707149492e-03  7.654295890e-03
4.825000000  4.058294804e-03  8.010532790e-03 -9.097086167e-01  3.290581870e-01 -9.097086167e-01  3.290581870e-01  4.058294804e-03  8.010532790e-03
4.850000000  4.425854425e-03  8.362313935e-03 -9.034908666e-01  3.457349477e-01 -9.034908666e-01  3.457349477e-01  4.425854425e-03  8.362313935e-03
4.875000000  4.809761532e-03  8.709257613e-03 -8.969670944e-01  3.622953596e-01 -8.969670944e-01  3.622953596e-01  4.809761532e-03  8.709257613e-03
4.900000000  5.209923404e-03  9.050294419e-03 -8.901378433e-01  3.787375757e-01 -8.901378433e-01  3.787375757e-01  5.209923404e-03  9.050294419e-03
4.925000000  5.626306305e-03  9.385325666e-03 -8.830068452e-01  3.950521418e-01 -8.830068452e-01  3.950521418e-01  5.626306305e-03  9.385325666e-03
4.950000000  6.058674899e-03  9.712955679e-03 -8.755745211e-01  4.112376472e-01 -8.755745211e-01  4.112376472e-01  6.058674899e-03  9.712955679e-03
4.975000000  6.507017899e-03  1.003325754e-02 -8.678454028e-01  4.272837975e-01 -8.678454028e-01  4.272837975e-01  6.507017899e-03  1.003325754e-02
5.000000000  6.970960858e-03  1.034464680e-02 -8.598194997e-01  4.431901825e-01 -8.598194997e-01  4.431901825e-01  6.970960858e-03  1.034464680e-02
5.025000000  7.450355490e-03  1.064719028e-02 -8.515025374e-01  4.589451157e-01 -8.515025374e-01  4.589451157e-01  7.450355490e-03  1.064719028e-02
5.050000000  7.944836562e-03  1.093937666e-02 -8.428939868e-01  4.745493169e-01 -8.428939868e-01  4.745493169e-01  7.944836562e-03  1.093937666e-02
5.075000000  8.453968526e-03  1.122113654e-02 -8.340000361e-01  4.899912753e-01 -8.340000361e-01  4.899912753e-01  8.453968526e-03  1.122113654e-02
5.100000000  8.977504663e-03  1.149117910e-02 -8.248204264e-01  5.052712094e-01 -8.248204264e-01  5.052712094e-01  8.977504663e-03  1.149117910e-02
5.125000000  9.514851696e-03  1.174951408e-02 -8.153611016e-01  5.203789591e-01 -8.153611016e-01  5.203789591e-01  9.514851696e-03  1.174951408e-02
5.150000000  1.006576493e-02  1.199487234e-02 -8.056224780e-01  5.353136382e-01 -8.056224780e-01  5.353136382e-01  1.006576493e-02  1.199487234e-02
5.175000000  1.062975143e-02  1.222744746e-02 -7.956098845e-01  5.500667936e-01 -7.956098845e-01  5.500667936e-01  1.062975143e-02  1.222744746e-02
5.200000000  1.120641412e-02  1.244595177e-02 -7.853246598e-01  5.646362140e-01 -7.853246598e-01  5.646362140e-01  1.120641412e-02  1.244595177e-02
5.225000000  1.179540170e-02  1.265042506e-02 -7.747713692e-01  5.790151175e-01 -7.747713692e-01  5.790151175e-01  1.179540170e-02  1.265042506e-02
5.250000000  1.239616031e-02  1.283976995e-02 -7.639523203e-01  5.932000803e-01 -7.639523203e-01  5.932000803e-01  1.239616031e-02  1.283976995e-02
5.275000000  1.300842849e-02  1.301427493e-02 -7.528731470e-01  6.071834818e-01 -7.528731470e-01  6.071834818e-01  1.300842849e-02  1.301427493e-02
5.300000000  1.363143482e-02  1.317239440e-02 -7.415352608e-01  6.209633415e-01 -7.415352608e-01  6.209633415e-01  1.363143482e-02  1.317239440e-02
5.325000000  1.426459405e-02  1.331384146e-02 -7.299436964e-01  6.345332553e-01 -7.299436964e-01  6.345332553e-01  1.426459405e-02  1.331384146e-02
5.350000000  1.490729758e-02  1.343805776e-02 -7.181021414e-01  6.478887096e-01 -7.181021414e-01  6.478887096e-01  1.490729758e-02  1.343805776e-02
5.375000000  1.555870487e-02  1.354439279e-02 -7.060145776e-01  6.610250226e-01 -7.060145776e-01  6.610250226e-01  1.555870487e-02  1.354439279e-02
5.400000000  1.621812284e-02  1.363251132e-02 -6.936856663e-01  6.739369731e-01 -6.936856663e-01  6.739369731e-01  1.621812284e-02  1.363251132e-02
5.425000000  1.688480846e-02  1.370181979e-02 -6.811185028e-01  6.866211498e-01 -6.811185028e-01  6.866211498e-01  1.688480846e-02  1.370181979e-02
5.450000000  1.755793247e-02  1.375227677e-02 -6.683187818e-01  6.990716606e-01 -6.683187818e-01  6.990716606e-01  1.755793247e-02  1.375227677e-02
5.475000000  1.823695990e-02  1.378304780e-02 -6.552884717e-01  7.112864034e-01 -6.552884717e-01  7.112864034e-01  1.823695990e-02  1.378304780e-02
5.500000000  1.892106757e-02  1.379438350e-02 -6.420336924e-01  7.232594290e-01 -6.420336924e-01  7.232594290e-01  1.892106757e-02  1.379438350e-02
5.525000000  1.960973802e-02  1.378622122e-02 -6.285588601e-01  7.349866207e-01 -6.285588601e-01  7.349866207e-01  1.960973802e-02  1.378622122e-02
5.550000000  2.030233949e-02  1.375812270e-02 -6.148679892e-01  7.464643387e-01 -6.148679892e-01  7.464643387e-01  2.030233949e-02  1.375812270e-02
5.575000000  2.099790375e-02  1.370891891e-02 -6.009637366e-01  7.576901168e-01 -6.009637366e-01  7.576901168e-01  2.099790375e-02  1.370891891e-02
5.600000000  2.169608912e-02  1.363970555e-02 -5.868541965e-01  7.686572136e-01 -5.868541965e-01  7.686572136e-01  2.169608912e-02  1.363970555e-02
5.625000000  2.239556674e-02  1.354876144e-02 -5.725402975e-01  7.793647503e-01 -5.725402975e-01  7.793647503e-01  2.239556674e-02  1.354876144e-02
5.650000000  2.309577069e-02  1.343712234e-02 -5.580316567e-01  7.898053669e-01 -5.580316567e-01  7.898053669e-01  2.309577069e-02  1.343712234e-02
5.675000000  2.379556898e-02  1.330336314e-02 -5.433281152e-01  7.999790521e-01 -5.433281152e-01  7.999790521e-01  2.379556898e-02  1.330336314e-02
5.700000000  2.449380895e-02  1.314845264e-02 -5.284404167e-01  8.098782527e-01 -5.284404167e-01  8.098782527e-01  2.449380895e-02  1.314845264e-02
5.725000000  2.518988794e-02  1.297128746e-02 -5.133680200e-01  8.195032235e-01 -5.133680200e-01  8.195032235e-01  2.518988794e-02  1.297128746e-02
5.750000000  2.588255948e-02  1.277259492e-02 -4.981197105e-01  8.288481812e-01 -4.981197105e-01  8.288481812e-01  2.588255948e-02  1.277259492e-02
5.775000000  2.657100388e-02  1.255248528e-02 -4.827002840e-01  8.379101353e-01 -4.827002840e-01  8.379101353e-01  2.657100388e-02  1.255248528e-02
5.800000000  2.725455489e-02  1.231127304e-02 -4.671148849e-01  8.466859866e-01 -4.671148849e-01  8.466859866e-01  2.725455489e-02  1.231127304e-02
5.825000000  2.793242303e-02  1.204814513e-02 -4.513661070e-01  8.551741093e-01 -4.513661070e-01  8.551741093e-01  2.793242303e-02  1.204814513e-02
5.850000000  2.860404145e-02  1.176432313e-02 -4.354619875e-01  8.633699879e-01 -4.354619875e-01  8.633699879e-01  2.860404145e-02  1.176432313e-02
5.875000000  2.926838168e-02  1.145906928e-02 -4.194056868e-01  8.712718595e-01 -4.194056868e-01  8.712718595e-01  2.926838168e-02  1.145906928e-02
5.900000000  2.992488152e-02  1.113305893e-02 -4.032043588e-01  8.788760255e-01 -4.032043588e-01  8.788760255e-01  2.992488152e-02  1.113305893e-02
5.925000000  3.057249653e-02  1.078601534e-02 -3.868621086e-01  8.861804197e-01 -3.868621086e-01  8.861804197e-01  3.057249653e-02  1.078601534e-02
5.950000000  3.121024214e-02  1.041824625e-02 -3.703858363e-01  8.931818114e-01 -3.703858363e-01  8.931818114e-01  3.121024214e-02  1.041824625e-02
5.975000000  3.183722811e-02  1.002987733e-02 -3.537804624e-01  8.998779864e-01 -3.537804624e-01  8.998779864e-01  3.183722811e-02  1.002987733e-02
6.000000000  3.245236749e-02  9.620991705e-03 -3.370509970e-01  9.062667679e-01 -3.370509970e-01  9.062667679e-01  3.245236749e-02  9.620991705e-03
6.025000000  3.305443003e-02  9.192520650e-03 -3.202067468e-01  9.123445406e-01 -3.202067468e-01  9.123445406e-01  3.305443003e-02  9.192520650e-03
6.050000000  3.364274205e-02  8.744462539e-03 -3.032503512e-01  9.181102963e-01 -3.032503512e-01  9.181102963e-01  3.364274205e-02  8.744462539e-03
6.075000000  3.421633845e-02  8.277490715e-03 -2.861888082e-01  9.235615467e-01 -2.861888082e-01  9.235615467e-01  3.421633845e-02  8.277490715e-03
6.100000000  3.477469740e-02  7.791888945e-03 -2.690262378e-01  9.286968414e-01 -2.690262378e-01  9.286968414e-01  3.477469740e-02  7.791888945e-03
6.125000000  3.531689619e-02  7.288756270e-03 -2.517707442e-01  9.335136495e-01 -2.517707442e-01  9.335136495e-01  3.531689619e-02  7.288756270e-03
6.150000000  3.584249295e-02  6.767873877e-03 -2.344252022e-01  9.380110317e-01 -2.344252022e-01  9.380110317e-01  3.584249295e-02  6.767873877e-03
6.175000000  3.635091042e-02  6.230674807e-03 -2.169982741e-01  9.421865956e-01 -2.169982741e-01  9.421865956e-01  3.635091042e-02  6.230674807e-03
6.200000000  3.684123299e-02  5.676639825e-03 -1.994926632e-01  9.460395564e-01 -1.994926632e-01  9.460395564e-01  3.684123299e-02  5.676639825e-03
6.225000000  3.731315526e-02  5.107290329e-03 -1.819177230e-01  9.495676918e-01 -1.819177230e-01  9.495676918e-01  3.731315526e-02  5.107290329e-03
6.250000000  3.776543673e-02  4.522201197e-03 -1.642757135e-01  9.527704204e-01 -1.642757135e-01  9.527704204e-01  3.776543673e-02  4.522201197e-03
6.275000000  3.819748927e-02  3.922854099e-03 -1.465774274e-01  9.556456517e-01 -1.465774274e-01  9.556456517e-01  3.819748927e-02  3.922854099e-03
6.300000000  3.860851319e-02  3.309081844e-03 -1.288236762e-01  9.581931280e-01 -1.288236762e-01  9.581931280e-01  3.860851319e-02  3.309081844e-03
6.325000000  3.899716888e-02  2.682548598e-03 -1.110272799e-01  9.604109377e-01 -1.110272799e-01  9.604109377e-01  3.899716888e-02  2.682548598e-03
6.350000000  3.936353507e-02  2.043128389e-03 -9.318756053e-02  9.622990492e-01 -9.318756053e-02  9.622990492e-01  3.936353507e-02  2.043128389e-03
6.375000000  3.970605983e-02  1.392738627e-03 -7.531718394e-02  9.638560527e-01 -7.531718394e-02  9.638560527e-01  3.970605983e-02  1.392738627e-03
6.400000000  4.002508484e-02  7.311988377e-04 -5.741626052e-02  9.650818205e-01 -5.741626052e-02  9.650818205e-01  4.002508484e-02  7.311988377e-04
6.425000000  4.031965053e-02  6.048176353e-05 -3.949570503e-02  9.659754948e-01 -3.949570503e-02  9.659754948e-01  4.031965053e-02  6.048176352e-05
6.450000000  4.058969495e-02 -6.195491054e-04 -2.155730602e-02  9.665368595e-01 -2.155730602e-02  9.665368595e-01  4.058969495e-02 -6.195491054e-04
6.475000000  4.083492123e-02 -1.307291703e-03 -3.609824723e-03  9.667654680e-01 -3.609824723e-03  9.667654680e-01  4.083492123e-02 -1.307291703e-03
6.500000000  4.105483453e-02 -2.002518345e-03  1.434308118e-02  9.666611157e-01  1.434308118e-02  9.666611157e-01  4.105483453e-02 -2.002518345e-03
6.525000000  4.124938033e-02 -2.703730210e-03  3.229232121e-02  9.662236880e-01  3.229232121e-02  9.662236880e-01  4.124938033e-02 -2.703730210e-03
6.550000000  4.141784492e-02 -3.410729584e-03  5.023497339e-02  9.654531088e-01  5.023497339e-02  9.654531088e-01  4.141784492e-02 -3.410729584e-03
6.575000000  4.155975347e-02 -4.122285963e-03  6.816257902e-02  9.643495562e-01  6.816257902e-02  9.643495562e-01  4.155975347e-02 -4.122285963e-03
6.600000000  4.167479933e-02 -4.837553627e-03  8.607002181e-02  9.629131885e-01  8.607002181e-02  9.629131885e-01  4.167479933e-02 -4.837553627e-03
6.625000000  4.176226791e-02 -5.555381983e-03  1.039498694e-01  9.611444684e-01  1.039498694e-01  9.611444684e-01  4.176226791e-02 -5.555381983e-03
6.650000000  4.182197522e-02 -6.274769569e-03  1.217962302e-01  9.590438526e-01  1.217962302e-01  9.590438526e-01  4.182197522e-02 -6.274769569e-03
6.675000000  4.185359095e-02 -6.994572952e-03  1.396029678e-01  9.566119367e-01  1.396029678e-01  9.566119367e-01  4.185359095e-02 -6.994572952e-03
6.700000000  4.185684986e-02 -7.713621828e-03  1.573631129e-01  9.538495677e-01  1.573631129e-01  9.538495677e-01  4.185684986e-02 -7.713621828e-03
6.725000000  4.183199718e-02 -8.431024215e-03  1.750722171e-01  9.507572875e-01  1.750722171e-01  9.507572875e-01  4.183199718e-02 -8.431024215e-03
6.750000000  4.177875307e-02 -9.145432212e-03  1.927224403e-01  9.473363412e-01  1.927224403e-01  9.473363412e-01  4.177875307e-02 -9.145432212e-03
6.775000000  4.169753079e-02 -9.856237638e-03  2.103103248e-01  9.435872178e-01  2.103103248e-01  9.435872178e-01  4.169753079e-02 -9.856237638e-03
6.800000000  4.158827003e-02 -1.056202780e-02  2.278277350e-01  9.395114760e-01  2.278277350e-01  9.395114760e-01  4.158827003e-02 -1.056202780e-02
6.825000000  4.145108463e-02 -1.126221975e-02  2.452711946e-01  9.351097236e-01  2.452711946e-01  9.351097236e-01  4.145108463e-02 -1.126221975e-02
6.850000000  4.128612911e-02 -1.195544424e-02  2.626323780e-01  9.303838512e-01  2.626323780e-01  9.303838512e-01  4.128612911e-02 -1.195544424e-02
6.875000000  4.109331623e-02 -1.264094122e-02  2.799077674e-01  9.253346059e-01  2.799077674e-01  9.253346059e-01  4.109331623e-02 -1.264094122e-02
6.900000000  4.087265094e-02 -1.331729327e-02  2.970880501e-01  9.199645226e-01  2.970880501e-01  9.199645226e-01  4.087265094e-02 -1.331729327e-02
6.925000000  4.062444190e-02 -1.398371735e-02  3.141708621e-01  9.142741222e-01  3.141708621e-01  9.142741222e-01  4.062444190e-02 -1.398371735e-02
6.950000000  4.034820967e-02 -1.463853736e-02  3.311449724e-01  9.082670237e-01  3.311449724e-01  9.082670237e-01  4.034820967e-02 -1.463853736e-02
6.975000000  4.004501989e-02 -1.528123499e-02  3.480100062e-01  9.019431435e-01  3.480100062e-01  9.019431435e-01  4.004501989e-02 -1.528123499e-02
7.000000000  3.971445141e-02 -1.591017424e-02  3.647555026e-01  8.953062374e-01  3.647555026e-01  8.953062374e-01  3.971445141e-02 -1.591017424e-02
