! yapnr rf: filterbank3-x7x10x13, binary design on the optimization grid
! spec sha256 13de688406c8ea8aa5a2983c7d9dfbef6bc7c31cd2b218bfb1531cd97a05cd76
! renormalized to 50 ohm, e^(+jwt) convention
# GHz S RI R 50
5.970000000  5.387209945e-01 -3.210662160e-01 -2.822487370e-02  7.003320184e-01 -1.869218344e-01  1.146724326e-01  8.797276847e-02 -6.375234424e-02
            -2.646894861e-02  7.023410338e-01  3.861512389e-01  3.867545174e-01  2.343821027e-01  2.927133406e-01 -5.874922116e-02  3.762208728e-02
            -1.882571635e-01  1.126941383e-01  2.309711056e-01  2.871082071e-01 -1.675854509e-01 -8.628872835e-01 -5.258129260e-03 -3.103620846e-02
             8.707790453e-02 -6.591799453e-02 -6.607144331e-02  3.546589329e-02 -9.668405204e-03 -2.523361735e-02 -9.003753527e-01  3.004743815e-01
6.050600000  5.055838327e-01 -3.520940758e-01  3.359250075e-02  7.103530219e-01 -1.863306752e-01  1.254487563e-01  7.072444346e-02 -5.859808065e-02
             3.588873419e-02  7.121598860e-01  4.161012370e-01  3.376299407e-01  2.579773225e-01  2.703866487e-01 -3.964980076e-02  3.834886372e-02
            -1.878518935e-01  1.233389545e-01  2.539471246e-01  2.650886940e-01 -2.060896194e-01 -8.539716533e-01 -6.291919358e-03 -2.469895766e-02
             6.973755573e-02 -6.085130463e-02 -4.727936244e-02  3.708612807e-02 -1.015309609e-02 -1.818754269e-02 -8.604863899e-01  4.110890448e-01
6.131200000  4.709002105e-01 -3.795477214e-01  9.705142231e-02  7.141386603e-01 -1.849856862e-01  1.365338126e-01  5.657959553e-02 -5.213360548e-02
             9.987215163e-02  7.156029340e-01  4.399563955e-01  2.867371586e-01  2.793144100e-01  2.459802702e-01 -2.330008618e-02  3.582250312e-02
            -1.867324648e-01  1.343115920e-01  2.747899697e-01  2.411194034e-01 -2.436193161e-01 -8.434883561e-01 -6.219409909e-03 -1.963370929e-02
             5.530443596e-02 -5.446190599e-02 -3.113153588e-02  3.547229881e-02 -9.570124472e-03 -1.249939266e-02 -8.084772507e-01  5.116843342e-01
6.211800000  4.350459510e-01 -4.033914881e-01  1.615052686e-01  7.115506343e-01 -1.828372239e-01  1.479693069e-01  4.520068677e-02 -4.503338807e-02
             1.647734962e-01  7.125458077e-01  4.578739222e-01  2.345949482e-01  2.982691718e-01  2.197977574e-01 -9.772157712e-03  3.094380688e-02
            -1.848450464e-01  1.456579159e-01  2.934131529e-01  2.154114357e-01 -2.801854040e-01 -8.314665113e-01 -5.405936299e-03 -1.585988092e-02
             4.352750008e-02 -4.726042498e-02 -1.770375226e-02  3.151570780e-02 -8.260852315e-03 -8.089886540e-03 -7.464668338e-01  6.019657569e-01
6.292400000  3.984274419e-01 -4.236243538e-01  2.263081319e-01  7.024922076e-01 -1.797556197e-01  1.597096034e-01  3.616651736e-02 -3.773559682e-02
             2.299131689e-01  7.029390185e-01  4.699519519e-01  1.816507131e-01  3.147890893e-01  1.921150456e-01  1.007645616e-03  2.446747259e-02
            -1.820580291e-01  1.573350622e-01  3.097274951e-01  1.881559404e-01 -3.157735868e-01 -8.179369219e-01 -4.185832606e-03 -1.333504397e-02
             3.415622630e-02 -3.965461102e-02 -6.925964538e-03  2.596493713e-02 -6.473038445e-03 -4.881536128e-03 -6.762245401e-01  6.819543490e-01
6.373000000  3.614614813e-01 -4.403134461e-01  2.908123986e-01  6.869144123e-01 -1.756327003e-01  1.715975629e-01  2.910590286e-02 -3.046958436e-02
             2.946497088e-01  6.867807382e-01  4.762268676e-01  1.283473035e-01  3.288610102e-01  1.631480171e-01  9.200940112e-03  1.700110376e-02
            -1.782632935e-01  1.691899844e-01  3.236430292e-01  1.595419037e-01 -3.503613410e-01 -8.029439328e-01 -2.842326163e-03 -1.196010898e-02
             2.694194065e-02 -3.197920188e-02  1.362685680e-03  1.942364427e-02 -4.410922284e-03 -2.823151921e-03 -5.991214262e-01  7.518305194e-01
6.453600000  3.245386667e-01 -4.536010166e-01  3.543724099e-01  6.648169577e-01 -1.704598312e-01  1.834206108e-01  2.376779175e-02 -2.336503284e-02
             3.583656445e-01  6.640891732e-01  4.767138785e-01  7.517070555e-02  3.404639953e-01  1.330519194e-01  1.500693566e-02  9.025984317e-03
            -1.734520361e-01  1.810168889e-01  3.350792987e-01  1.297613763e-01 -3.839360361e-01 -7.865410687e-01 -1.593551795e-03 -1.160479786e-02
             2.163171271e-02 -2.451181625e-02  7.364170758e-03  1.236827201e-02 -2.277806874e-03 -1.877059121e-03 -5.161781074e-01  8.117560760e-01
6.534200000  2.879944138e-01 -4.636841761e-01  4.163458322e-01  6.362430679e-01 -1.643361632e-01  1.950002206e-01  1.999241798e-02 -1.656209871e-02
             4.204371856e-01  6.348943678e-01  4.714614968e-01  2.265416124e-02  3.495357172e-01  1.019527454e-01  1.863378729e-02  9.311042164e-04
            -1.677206828e-01  1.926458368e-01  3.439710598e-01  9.900252255e-02 -4.165023489e-01 -7.687754054e-01 -5.995765701e-04 -1.213900892e-02
             1.796325988e-02 -1.747607250e-02  1.129103986e-02  5.179708817e-03 -2.900619235e-04 -1.986715662e-03 -4.281981111e-01  8.617600863e-01
6.614800000  2.521033596e-01 -4.707833968e-01  4.760875899e-01  6.012743455e-01 -1.574104383e-01  2.062534060e-01  1.762405307e-02 -1.025083992e-02
             4.802075777e-01  5.992553261e-01  4.605843154e-01 -2.865338941e-02  3.559704323e-01  6.999017623e-02  2.029325388e-02 -6.955982696e-03
            -1.612119694e-01  2.040019878e-01  3.502622346e-01  6.744043609e-02 -4.480749716e-01 -7.496725081e-01  1.227241732e-05 -1.345088956e-02
             1.566763080e-02 -1.103775875e-02  1.335838085e-02 -1.825910521e-03  1.339188194e-03 -3.051091517e-03 -3.359152192e-01  9.017276428e-01
6.695400000  2.170958042e-01 -4.751208754e-01  5.329386193e-01  5.600335193e-01 -1.498012471e-01  2.171901032e-01  1.644115552e-02 -4.629332139e-03
             5.369808079e-01  5.572914503e-01  4.442593745e-01 -7.822384999e-02  3.596454762e-01  3.734618527e-02  2.020829876e-02 -1.435262781e-02
            -1.540363990e-01  2.151011508e-01  3.538917689e-01  3.523679008e-02 -4.786626917e-01 -7.292323151e-01  1.199991228e-04 -1.544246171e-02
             1.448089508e-02 -5.302996191e-03  1.379002511e-02 -8.378963920e-03  2.429532008e-03 -4.923885294e-03 -2.400841944e-01  9.314624258e-01
6.776000000  1.831801865e-01 -4.769210462e-01  5.862176546e-01  5.126980354e-01 -1.415492490e-01  2.278552659e-01  1.615422978e-02  1.701041863e-04
             5.900381721e-01  5.092093879e-01  4.227002219e-01 -1.255635322e-01  3.604559647e-01  4.244896717e-03  1.862060078e-02 -2.101896123e-02
            -1.462264305e-01  2.259917078e-01  3.547821741e-01  2.551682154e-03 -5.082552324e-01 -7.074380229e-01 -4.058765636e-04 -1.800944105e-02
             1.415913385e-02 -3.253984948e-04  1.282659728e-02 -1.425262714e-02  2.852469654e-03 -7.436839935e-03 -1.414935881e-01  9.507562872e-01
6.856600000  1.505524179e-01 -4.764293435e-01  6.352239212e-01  4.595195809e-01 -1.326288380e-01  2.382589650e-01  1.646331684e-02  4.122377114e-03
             6.386658244e-01  4.553118279e-01  3.961369950e-01 -1.701987650e-01  3.583345481e-01 -2.907110178e-02  1.579085209e-02 -2.676257550e-02
            -1.377493109e-01  2.366860360e-01  3.528396347e-01 -3.043894696e-02 -5.368214891e-01 -6.842708475e-01 -1.695312086e-03 -2.102154522e-02
             1.448751490e-02  3.877630591e-03  1.072714677e-02 -1.926751257e-02  2.526315361e-03 -1.042996298e-02 -4.093435260e-02  9.594124764e-01
6.937200000  1.193825543e-01 -4.739325250e-01  6.792520044e-01  4.008400209e-01 -1.230060232e-01  2.483413308e-01  1.712357213e-02  7.289300045e-03
             6.821765733e-01  3.959885383e-01  3.648217186e-01 -2.116521197e-01  3.532452045e-01 -6.236824531e-02  1.199267180e-02 -3.144221703e-02
            -1.285645593e-01  2.471270133e-01  3.479656543e-01 -6.353123818e-02 -5.643192709e-01 -6.597197576e-01 -3.860649787e-03 -2.431683164e-02
             1.527721435e-02  7.306829079e-03  7.763529056e-03 -2.329668478e-02  1.390489977e-03 -1.376771853e-02  6.081964396e-02  9.572155833e-01
7.017800000  8.978486837e-02 -4.697625595e-01  7.176123652e-01  3.370966846e-01 -1.127009229e-01  2.579927372e-01  1.796870320e-02  9.759373454e-03
             7.199161956e-01  3.317018488e-01  3.290551811e-01 -2.494342262e-01  3.451581983e-01 -9.543288014e-02  7.505023242e-03 -3.496757108e-02
            -1.186850018e-01  2.572087303e-01  3.400716431e-01 -9.649309759e-02 -5.907084420e-01 -6.337791828e-01 -6.982421917e-03 -2.771160349e-02
             1.635191194e-02  9.971331572e-03  4.211727413e-03 -2.626677401e-02 -6.231778206e-04 -1.733058754e-02  1.629827216e-01  9.438838026e-01
7.098400000  6.178848722e-02 -4.642765885e-01  7.496481303e-01  2.688176543e-01 -1.018139044e-01  2.671127411e-01  1.888082842e-02  1.159729590e-02
             7.512574968e-01  2.629809333e-01  2.892139824e-01 -2.830625305e-01  3.340253890e-01 -1.280577103e-01  2.606832893e-03 -3.729708742e-02
            -1.082016103e-01  2.668345699e-01  3.290863621e-01 -1.290726698e-01 -6.159570380e-01 -6.064363031e-01 -1.110879030e-02 -3.101567719e-02
             1.753310473e-02  1.189286496e-02  3.444998513e-04 -2.815591776e-02 -3.603081409e-03 -2.098800529e-02  2.646847242e-01  9.190498701e-01
7.179000000  3.532533531e-02 -4.578203539e-01  7.747431834e-01  1.966146427e-01 -9.050093187e-02  2.756682364e-01  1.973765979e-02  1.283948014e-02
             7.755948307e-01  1.904310315e-01  2.457565458e-01 -3.120970623e-01  3.197737871e-01 -1.600126426e-01 -2.426194855e-03 -3.843723197e-02
            -9.725866672e-02  2.759738060e-01  3.149526448e-01 -1.610059300e-01 -6.400348548e-01 -5.776567154e-01 -1.626647623e-02 -3.403982313e-02
             1.863501519e-02  1.312058229e-02 -3.573405543e-03 -2.899182551e-02 -7.646398907e-03 -2.457034475e-02  3.648903178e-01  8.822943179e-01
7.259600000  1.024105830e-02 -4.506917800e-01  7.923247191e-01  1.211817052e-01 -7.891697286e-02  2.837154300e-01  2.038172755e-02  1.353269944e-02
             7.923515290e-01  1.147516894e-01  1.992031861e-01 -3.361711890e-01  3.023224067e-01 -1.910186170e-01 -7.325245753e-03 -3.844473912e-02
            -8.599815494e-02  2.846824297e-01  2.976189282e-01 -1.920148666e-01 -6.628974941e-01 -5.473781942e-01 -2.247180841e-02 -3.658938809e-02
             1.947395465e-02  1.374605513e-02 -7.289489123e-03 -2.885242185e-02 -1.283109251e-02 -2.785709592e-02  4.623476688e-01  8.332197844e-01
7.340200000 -1.367921170e-02 -4.431193224e-01  8.018687793e-01  4.330194200e-02 -6.716458923e-02  2.913766044e-01  2.063480409e-02  1.378052982e-02
             8.010035433e-01  3.675083375e-02  1.501039422e-01 -3.550007563e-01  2.816121772e-01 -2.207399550e-01 -1.183533435e-02 -3.743079036e-02
            -7.450973037e-02  2.930798427e-01  2.770356192e-01 -2.217955509e-01 -6.844699320e-01 -5.155165004e-01 -2.973052752e-02 -3.844932289e-02
             1.988751761e-02  1.390770316e-02 -1.057035699e-02 -2.786887036e-02 -1.918840673e-02 -3.058685480e-02  5.555799888e-01  7.715342366e-01
7.420800000 -3.668564554e-02 -4.352583111e-01  8.029156041e-01 -3.614356887e-02 -5.527765569e-02  2.987925312e-01  2.034406710e-02  1.376005352e-02
             8.011114716e-01 -4.265620074e-02  9.901449600e-02 -3.683723247e-01  2.576310760e-01 -2.487976820e-01 -1.572674702e-02 -3.556462391e-02
            -6.281527439e-02  3.013021200e-01  2.531628447e-01 -2.500035270e-01 -7.046382149e-01 -4.819789764e-01 -3.802348491e-02 -3.937244362e-02
             1.975248657e-02  1.378104229e-02 -1.321328626e-02 -2.622853730e-02 -2.669069101e-02 -3.248040926e-02  6.429049412e-01  6.971166565e-01
7.501400000 -5.905065200e-02 -4.271959658e-01  7.950942428e-01 -1.161737324e-01 -4.324407817e-02  3.060853889e-01  1.942404299e-02  1.369760633e-02
             7.923478615e-01 -1.224637917e-01  4.649104495e-02 -3.761262604e-01  2.304212973e-01 -2.747922728e-01 -1.881072973e-02 -3.307413865e-02
            -5.089146412e-02  3.094659298e-01  2.259876921e-01 -2.762460122e-01 -7.232513829e-01 -4.466767643e-01 -4.728537612e-02 -3.908020411e-02
             1.899145374e-02  1.356079548e-02 -1.506265687e-02 -2.417473710e-02 -3.525749076e-02 -3.326063249e-02  7.224552622e-01  6.100631502e-01
7.582000000 -8.106776498e-02 -4.189506487e-01  7.781487278e-01 -1.957174691e-01 -3.104451353e-02  3.133572451e-01  1.786537707e-02  1.382435873e-02
             7.745106780e-01 -2.016002451e-01 -6.902104826e-03 -3.781517918e-01  2.000685729e-01 -2.983185813e-01 -2.095850112e-02 -3.024151973e-02
            -3.870764166e-02  3.176673976e-01  1.955424857e-01 -3.000848928e-01 -7.401277833e-01 -4.095282938e-01 -5.738755072e-02 -3.727617679e-02
             1.756629059e-02  1.344641951e-02 -1.602991122e-02 -2.200053707e-02 -4.476960512e-02 -3.265671438e-02  7.921861089e-01  5.107343398e-01
7.662600000 -1.030508714e-01 -4.104565308e-01  7.519569911e-01 -2.736328222e-01 -1.867377927e-02  3.207233903e-01  1.570969686e-02  1.434557060e-02
             7.475239762e-01 -2.789465857e-01 -6.058946018e-02 -3.743985351e-01  1.666866698e-01 -3.189617532e-01 -2.212227705e-02 -2.739192246e-02
            -2.624637522e-02  3.260149405e-01  1.619162393e-01 -3.210460228e-01 -7.550561471e-01 -3.704539440e-01 -6.813124396e-02 -3.366422274e-02
             1.546614620e-02  1.364002165e-02 -1.611486576e-02 -2.003454078e-02 -5.507497273e-02 -3.039252750e-02  8.498800176e-01  3.998290768e-01
7.743200000 -1.253189510e-01 -4.015371222e-01  7.165396619e-01 -3.487262506e-01 -6.123545454e-03  3.283555882e-01  1.301596202e-02  1.544349027e-02
             7.114359291e-01 -3.533427799e-01 -1.139995535e-01 -3.648928280e-01  1.304141934e-01 -3.362763700e-01 -2.235598187e-02 -2.487308825e-02
            -1.348590576e-02  3.346714560e-01  1.252587021e-01 -3.386258006e-01 -7.677848236e-01 -3.293694958e-01 -7.924851683e-02 -2.796228743e-02
             1.270196898e-02  1.435668304e-02 -1.542542985e-02 -1.861703365e-02 -6.597543906e-02 -2.617134551e-02  8.931799613e-01  2.784922710e-01
7.823800000 -1.481585404e-01 -3.918816507e-01  6.720643417e-01 -4.197644070e-01  6.669870248e-03  3.365030579e-01  9.848273550e-03  1.730605410e-02
             6.664262102e-01 -4.235845041e-01 -1.665973478e-01 -3.497401755e-01  9.143375692e-02 -3.497629820e-01 -2.183167777e-02 -2.302441591e-02
            -3.484355099e-04  3.438742756e-01  8.578456637e-02 -3.522892565e-01 -7.780004100e-01 -2.861888573e-01 -9.040217786e-02 -1.990933094e-02
             9.315612744e-03  1.583808593e-02 -1.419165573e-02 -1.806562595e-02 -7.719604245e-02 -1.967361783e-02  9.196812421e-01  1.484380344e-01
7.904400000 -1.717685184e-01 -3.810401096e-01  6.188552894e-01 -4.854782344e-01  1.988714457e-02  3.454723927e-01  6.296710987e-03  2.015398210e-02
             6.128283184e-01 -4.884215194e-01 -2.179180716e-01 -3.291024083e-01  5.001031629e-02 -3.588589363e-01 -2.084643793e-02 -2.213597215e-02
             1.336060389e-02  3.539145103e-01  4.378783513e-02 -3.614625996e-01 -7.853043520e-01 -2.408426402e-01 -1.011777230e-01 -9.271581269e-03
             5.402233370e-03  1.835737148e-02 -1.276892446e-02 -1.863120224e-02 -8.835014513e-02 -1.057837192e-02  9.270941738e-01  1.205056439e-02
7.985000000 -1.962012404e-01 -3.684451058e-01  5.574152609e-01 -5.445673569e-01  3.386718794e-02  3.555717805e-01  2.517373612e-03  2.424147793e-02
             5.511625249e-01 -5.465690147e-01 -2.675832606e-01 -3.031538998e-01  6.534866545e-03 -3.629526653e-01 -1.981439928e-02 -2.240059299e-02
             2.799292831e-02  3.650811517e-01 -3.290768412e-04 -3.655306905e-01 -7.891980068e-01 -1.933112651e-01 -1.110683770e-01  4.141868000e-03
             1.136568284e-03  2.220819641e-02 -1.162483392e-02 -2.044755884e-02 -9.891710436e-02  1.393656282e-03  9.134640155e-01 -1.275755908e-01
8.065600000 -2.213145149e-01 -3.534570961e-01  4.884580624e-01 -5.957153345e-01  4.911279616e-02  3.670434312e-01 -1.234729575e-03  2.982640929e-02
             4.821688260e-01 -5.967361244e-01 -3.152894716e-01 -2.720333147e-01 -3.844140282e-02 -3.614180081e-01 -1.924005265e-02 -2.386449798e-02
             4.406246956e-02  3.775934787e-01 -4.601618054e-02 -3.638504864e-01 -7.890820695e-01 -1.436649547e-01 -1.194623389e-01  2.044806338e-02
            -3.207497450e-03  2.768002570e-02 -1.130549619e-02 -2.348080885e-02 -1.082424642e-01  1.642759526e-02  8.774168293e-01 -2.666795540e-01
8.146200000 -2.467408430e-01 -3.354224384e-01  4.129436810e-01 -6.376217895e-01  6.626836986e-02  3.800089239e-01 -4.597606314e-03  3.712696721e-02
             4.068310895e-01 -6.376668341e-01 -3.607746483e-01 -2.358071877e-01 -8.418866808e-02 -3.536565998e-01 -1.967059116e-02 -2.638329508e-02
             6.222260431e-02  3.915460872e-01 -9.253739717e-02 -3.557850059e-01 -7.842687878e-01 -9.210278883e-02 -1.256432892e-01  3.964632182e-02
            -7.248468273e-03  3.502778208e-02 -1.237914838e-02 -2.748669676e-02 -1.155588111e-01  3.456693499e-02  8.183963109e-01 -4.009674082e-01
8.226800000 -2.718703699e-01 -3.137360199e-01  3.321077959e-01 -6.690501064e-01  8.609217424e-02  3.944352059e-01 -7.115512509e-03  4.628664487e-02
             3.263919603e-01 -6.681849469e-01 -4.037746006e-01 -1.944507307e-01 -1.297899093e-01 -3.391381340e-01 -2.162680730e-02 -2.959161021e-02
             8.323752093e-02  4.068741863e-01 -1.389419622e-01 -3.407544293e-01 -7.740011195e-01 -3.898908755e-02 -1.288101030e-01  6.157056187e-02
            -1.049600477e-02  4.444221894e-02 -1.535763281e-02 -3.198541210e-02 -1.200169151e-01  5.567739058e-02  7.368625617e-01 -5.258277121e-01
8.307400000 -2.958406957e-01 -2.879102464e-01  2.474832956e-01 -6.888863793e-01  1.094413601e-01  4.101062873e-01 -8.254558590e-03  5.735488986e-02
             2.423661585e-01 -6.872404007e-01 -4.439768011e-01 -1.478402784e-01 -1.741304381e-01 -3.174396891e-01 -2.551448217e-02 -3.289668084e-02
             1.079654645e-01  4.233245756e-01 -1.840484009e-01 -3.182985403e-01 -7.574762423e-01  1.510706399e-02 -1.281142428e-01  8.584680941e-02
            -1.235016622e-02  5.601901349e-02 -2.059961316e-02 -3.626489058e-02 -1.207179311e-01  7.941710928e-02  6.344290562e-01 -6.366187149e-01
8.388000000 -3.175346049e-01 -2.576617147e-01  1.609164202e-01 -6.962101460e-01  1.372660586e-01  4.265739748e-01 -7.405493077e-03  7.026955711e-02
             1.565595742e-01 -6.939659791e-01 -4.809662709e-01 -9.575193894e-02 -2.158799776e-01 -2.882985351e-01 -3.152330529e-02 -3.550839485e-02
             1.373500417e-01  4.404063575e-01 -2.264393857e-01 -2.881499530e-01 -7.338808104e-01  6.936140785e-02 -1.227100036e-01  1.118592824e-01
            -1.210084729e-02  6.971658125e-02 -2.820467080e-02 -3.942468672e-02 -1.167481331e-01  1.052020642e-01  5.139124313e-01 -7.290143688e-01
8.468600000 -3.356026631e-01 -2.230262343e-01  7.457661228e-02 -6.903863838e-01  1.705828627e-01  4.430711182e-01 -3.879616500e-03  8.481777521e-02
             7.108965454e-02 -6.877625567e-01 -5.141519021e-01 -3.787454325e-02 -2.534787308e-01 -2.516973995e-01 -3.952894378e-02 -3.651750026e-02
             1.723902821e-01  4.573056032e-01 -2.644703601e-01 -2.503250172e-01 -7.024556021e-01  1.226338830e-01 -1.118164774e-01  1.387236455e-01
            -8.939919880e-03  8.529315719e-02 -3.791570147e-02 -4.047099253e-02 -1.072307305e-01  1.321610185e-01  3.792648517e-01 -7.993855078e-01
8.549200000 -3.485411699e-01 -1.844971099e-01 -9.054796151e-03 -6.711914185e-01  2.103859933e-01  4.584006266e-01  3.073452714e-03  1.005644747e-01
            -1.161652238e-02 -6.684278399e-01 -5.426718623e-01  2.613818924e-02 -2.851573130e-01 -2.079901225e-01 -4.902371230e-02 -3.502638673e-02
             2.140485691e-01  4.727776778e-01 -2.963078041e-01 -2.052391400e-01 -6.626088224e-01  1.734156607e-01 -9.479711169e-02  1.652682818e-01
            -2.008818094e-03  1.022262421e-01 -4.905668187e-02 -3.846555046e-02 -9.141453757e-02  1.590907351e-01  2.353620582e-01 -8.451713728e-01
8.629800000 -3.548549587e-01 -1.431549191e-01 -8.724875148e-02 -6.389736514e-01  2.574684157e-01  4.708479417e-01  1.419178110e-02  1.167670600e-01
            -8.888505600e-02 -6.363239812e-01 -5.653024557e-01  9.654759126e-02 -3.090277541e-01 -1.580504961e-01 -5.910690288e-02 -3.032151173e-02
             2.630697189e-01  4.850648845e-01 -3.200250662e-01 -1.538387885e-01 -6.140841586e-01  2.198194953e-01 -7.126500144e-02  1.900346916e-01
             9.497542953e-03  1.196376199e-01 -6.053844706e-02 -3.271492365e-02 -6.880954061e-02  1.844404842e-01  8.764192129e-02 -8.651745132e-01
8.710400000 -3.533120516e-01 -1.007323278e-01 -1.571827567e-01 -5.948227194e-01  3.121635114e-01  4.781834447e-01  3.005649445e-02  1.323221760e-01
            -1.579557087e-01 -5.925488719e-01 -5.804211273e-01  1.733336639e-01 -3.232698788e-01 -1.033984730e-01 -6.856088972e-02 -2.205647576e-02
             3.197227691e-01  4.919053895e-01 -3.337815866e-01 -9.771676568e-02 -5.571630041e-01  2.596555991e-01 -4.121295395e-02  2.113199417e-01
             2.616756325e-02  1.362639751e-01 -7.095929041e-02 -2.296479735e-02 -3.935585371e-02  2.063631891e-01 -5.837232928e-02 -8.597053903e-01
8.791000000 -3.432570741e-01 -5.955101031e-02 -2.162046942e-01 -5.406894706e-01  3.740648587e-01  4.778096173e-01  5.089979355e-02  1.457968027e-01
            -2.162518758e-01 -5.390485135e-01 -5.860808417e-01  2.559541815e-01 -3.264044627e-01 -4.624128251e-02 -7.602035378e-02 -1.039794278e-02
             3.835237799e-01  4.906872951e-01 -3.360871740e-01 -3.915434108e-02 -4.928499951e-01  2.906215171e-01 -5.147442787e-03  2.272867727e-01
             4.817669247e-02  1.505149323e-01 -7.880563201e-02 -9.545802038e-03 -3.585182666e-03  2.228599022e-01 -1.975873620e-01 -8.305241567e-01
8.871600000 -3.249079513e-01 -2.229057220e-02 -2.621839357e-01 -4.793835929e-01  4.418143424e-01  4.670648960e-01  7.642412669e-02  1.555729604e-01
            -2.617286850e-01 -4.786005384e-01 -5.802273266e-01  3.431319553e-01 -3.176029118e-01  1.062491766e-02 -8.021241870e-02  3.917136239e-03
             4.530302377e-01  4.787584297e-01 -3.261117884e-01  1.896866779e-02 -4.229724419e-01  3.105999794e-01  3.581571948e-02  2.361524674e-01
             7.511221383e-02  1.606409639e-01 -8.272421486e-02  6.585377608e-03  3.728270969e-02  2.320149751e-01 -3.257917942e-01 -7.805746534e-01
8.952200000 -2.995370675e-01  8.400128767e-03 -2.938772156e-01 -4.143926303e-01  5.130482683e-01  4.436372190e-01  1.057034321e-01  1.600917743e-01
            -2.932232356e-01 -4.146223778e-01 -5.610379184e-01  4.327595429e-01 -2.969513250e-01  6.407166284e-02 -8.021513976e-02  1.964855707e-02
             5.257964333e-01  4.538431270e-01 -3.039614202e-01  7.342605927e-02 -3.501308797e-01  3.180141978e-01  7.994449430e-02  2.364371576e-01
             1.058849587e-01  1.649968163e-01 -8.180370012e-02  2.394538995e-02  8.136038349e-02  2.322819803e-01 -4.399518098e-01 -7.135627800e-01
9.032800000 -2.694508493e-01  3.037743995e-02 -3.112035724e-01 -3.495174035e-01  5.845525234e-01  4.059902609e-01  1.372180698e-01  1.581391974e-01
            -3.107067585e-01 -3.508087434e-01 -5.273038421e-01  5.219876267e-01 -2.655820601e-01  1.110195427e-01 -7.566439038e-02  3.524533676e-02
             5.985394787e-01  4.144672938e-01 -2.708255208e-01  1.210355370e-01 -2.774735586e-01  3.121543739e-01  1.250077593e-01  2.272183791e-01
             1.387796549e-01  1.623454546e-01 -7.578669566e-02  4.075902305e-02  1.262521187e-01  2.227518812e-01 -5.382988327e-01 -6.334739843e-01
9.113400000 -2.377331539e-01  4.244526787e-02 -3.153289846e-01 -2.883866483e-01  6.526139391e-01  3.536875029e-01  1.690317617e-01  1.490934528e-01
            -3.153507469e-01 -2.906638342e-01 -4.787457622e-01  6.075054243e-01 -2.256152085e-01  1.488624930e-01 -6.684577751e-02  4.912311703e-02
             6.675006135e-01  3.602760875e-01 -2.289256019e-01  1.591052603e-01 -2.083220893e-01  2.933806893e-01  1.685140371e-01  2.083197965e-01
             1.716566766e-01  1.521212115e-01 -6.514500088e-02  5.527760420e-02  1.693310014e-01  2.033296508e-01 -6.202161414e-01 -5.441345971e-01
9.194000000 -2.077915922e-01  4.464032165e-02 -3.085117900e-01 -2.339671730e-01  7.134913592e-01  2.875233949e-01  1.990711760e-01  1.330633768e-01
            -3.093682188e-01 -2.370378335e-01 -4.161640106e-01  6.859533746e-01 -1.799070349e-01  1.758305310e-01 -5.464019917e-02  5.995422728e-02
             7.289223957e-01  2.921543479e-01 -1.812533349e-01  1.858219118e-01 -1.457276237e-01  2.631347979e-01  2.080242203e-01  1.803718147e-01
             2.022678358e-01  1.345730744e-01 -5.099044067e-02  6.609685958e-02  2.080728718e-01  1.747680035e-01 -6.859822922e-01 -4.488968064e-01
9.274600000 -1.828125030e-01  3.827485839e-02 -2.937360522e-01 -1.881976648e-01  7.638925525e-01  2.094279168e-01  2.254372770e-01  1.108818536e-01
            -2.956594278e-01 -1.917838190e-01 -3.413767904e-01  7.543613382e-01 -1.316611659e-01  1.912004954e-01 -4.033802744e-02  6.689141664e-02
             7.795259732e-01  2.121187527e-01 -1.311557611e-01  2.004759458e-01 -9.206459068e-02  2.237460450e-01  2.414598742e-01  1.447197868e-01
             2.286082553e-01  1.107421081e-01 -3.484629860e-02  7.238786511e-02  2.403675248e-01  1.385487832e-01 -7.364541109e-01 -3.504809922e-01
9.355200000 -1.652612605e-01  2.572422483e-02 -2.742285129e-01 -1.518366405e-01  8.013459990e-01  1.221773866e-01  2.466731013e-01  8.396274098e-02
            -2.773506954e-01 -1.556159030e-01 -2.569682438e-01  8.105002210e-01 -8.399760406e-02  1.953097502e-01 -2.537855781e-02  6.966890074e-02
             8.168775540e-01  1.230179074e-01 -8.187429529e-02  2.034706267e-01 -4.875982139e-02  1.780795896e-01  2.673282723e-01  1.032056388e-01
             2.492132057e-01  8.227870352e-02 -1.834799829e-02  7.398458026e-02  2.647367171e-01  9.664676222e-02 -7.727665448e-01 -2.509629585e-01
9.435800000 -1.565469740e-01  1.002306079e-02 -2.529858626e-01 -1.245446466e-01  8.243953618e-01  2.899447492e-02  2.619325581e-01  5.406525497e-02
            -2.573419088e-01 -1.281871374e-01 -1.659234333e-01  8.530703894e-01 -3.958032048e-02  1.893857289e-01 -1.109081559e-02  6.856684503e-02
             8.395739163e-01  2.812581358e-02 -3.615230713e-02  1.961302815e-01 -1.621258880e-02  1.291175765e-01  2.848158695e-01  5.788787413e-02
             2.633288702e-01  5.115447516e-02 -2.958384231e-03  7.132040061e-02  2.804202421e-01  5.124000103e-02 -7.961005243e-01 -1.518637509e-01
9.516400000 -1.569131570e-01 -5.615696908e-03 -2.324221887e-01 -1.051491398e-01  8.326004457e-01 -6.686189047e-02  2.710273708e-01  2.302651076e-02
            -2.379645042e-01 -1.083421607e-01 -7.124883982e-02  8.817069774e-01 -3.773370180e-04  1.752522987e-01  1.497764974e-03  6.426925622e-02
             8.472335458e-01 -6.926989487e-02  4.007048301e-03  1.803802733e-01  6.096995698e-03  7.957585128e-02  2.937481635e-01  1.077619109e-02
             2.709301059e-01  1.935043393e-02  1.023218277e-02  6.525315377e-02  2.873312783e-01  4.436455088e-03 -8.075387016e-01 -5.429102204e-02
9.597000000 -1.655435717e-01 -1.823799634e-02 -2.141939229e-01 -9.199642402e-02  8.263793606e-01 -1.624309785e-01  2.743615237e-01 -7.479559708e-03
            -2.208068934e-01 -9.445818694e-02  2.433700403e-02  8.968350840e-01  3.241846647e-02  1.549968215e-01  1.175018843e-02  5.767272360e-02
             8.403303903e-01 -1.662000533e-01  3.740725431e-02  1.583955285e-01  1.936533904e-02  3.163596122e-02  2.944540581e-01 -3.636139297e-02
             2.726071943e-01 -1.140137326e-02  2.058820495e-02  5.684472615e-02  2.859150519e-01 -4.192982049e-02 -8.080042776e-01  4.091226573e-02
9.677600000 -1.808138109e-01 -2.545533358e-02 -1.991974770e-01 -8.329125212e-02  8.067571746e-01 -2.552588851e-01  2.727863968e-01 -3.611478680e-02
            -2.067085617e-01 -8.478026867e-02  1.185948005e-01  8.994391767e-01  5.832582140e-02  1.306760510e-01  1.941022457e-02  4.970589854e-02
             8.199367131e-01 -2.602177738e-01  6.357765314e-02  1.323022442e-01  2.517008934e-02 -1.317287889e-02  2.875909604e-01 -8.209620792e-02
             2.693777294e-01 -3.977611572e-02  2.790329590e-02  4.716065664e-02  2.769611036e-01 -8.640773285e-02 -7.982637328e-01  1.330425276e-01
9.758200000 -2.005941126e-01 -2.559139038e-02 -1.876884546e-01 -7.735466441e-02  7.750925574e-01 -3.434713836e-01  2.674218587e-01 -6.196193355e-02
            -1.958785633e-01 -7.767989656e-02  2.098312279e-01  8.908159058e-01  7.741872335e-02  1.041118262e-01  2.452699144e-02  4.120034164e-02
             7.874468147e-01 -3.494655352e-01  8.260635257e-02  1.039806236e-01  2.520079692e-02 -5.395582533e-02  2.739802918e-01 -1.253522523e-01
             2.624879625e-01 -6.490880990e-02  3.230539893e-02  3.713178747e-02  2.614180451e-01 -1.279466282e-01 -7.789680574e-01  2.214501235e-01
9.838800000 -2.225215184e-01 -1.769417484e-02 -1.794545152e-01 -7.277527207e-02  7.328408518e-01 -4.257334168e-01  2.594880588e-01 -8.452827396e-02
            -1.880726956e-01 -7.180625549e-02  2.968666867e-01  8.723637085e-01  9.013765980e-02  7.679177520e-02  2.735614300e-02  3.282450327e-02
             7.443397400e-01 -4.326292197e-01  9.495168306e-02  7.497438953e-02  2.106619911e-02 -9.034686453e-02  2.544815189e-01 -1.653644029e-01
             2.532511999e-01 -8.636952977e-02  3.414041687e-02  2.748804074e-02  2.402458795e-01 -1.658452002e-01 -7.507063925e-01  3.054968953e-01
9.919400000 -2.441981478e-01 -1.471132529e-03 -1.739851500e-01 -6.846776772e-02  6.813886146e-01 -5.011361461e-01  2.501799484e-01 -1.036937873e-01
            -1.827688997e-01 -6.613918991e-02  3.789452599e-01  8.454366698e-01  9.711918792e-02  4.985894865e-02  2.827094041e-02  2.506822664e-02
             6.920153091e-01 -5.088208877e-01  1.012788863e-01  4.648226203e-02  1.419049671e-02 -1.223742672e-01  2.299105447e-01 -2.016112946e-01
             2.429408757e-01 -1.041033801e-01  3.387036064e-02  1.874839323e-02  2.143223489e-01 -1.996631720e-01 -7.140504775e-01  3.845476536e-01
10.000000000 -2.633159927e-01  2.279479468e-02 -1.706080260e-01 -6.367189817e-02  6.219694333e-01 -5.690565984e-01  2.405951205e-01 -1.196399416e-01
             -1.793044236e-01 -5.997774073e-02  4.556274885e-01  8.112646293e-01  9.907257961e-02  2.415645812e-02  2.769769900e-02  1.825448500e-02
              6.317123376e-01 -5.774357463e-01  1.023419390e-01  1.939542184e-02  5.778832276e-03 -1.503423646e-01  2.009955082e-01 -2.337425049e-01
              2.327284989e-01 -1.183700392e-01  3.200106684e-02  1.124034591e-02  1.844028375e-01 -2.291252244e-01 -6.695782946e-01  4.579780616e-01
10.080600000 -2.777370075e-01  5.431405049e-02 -1.685873197e-01 -5.792417692e-02  5.556499786e-01 -6.290275152e-01  2.317031678e-01 -1.327902169e-01
             -1.769670022e-01 -5.290225275e-02  5.266945555e-01  7.709239125e-01  9.670811998e-02  2.914121032e-04  2.607312729e-02  1.255871952e-02
              5.644970765e-01 -6.380207835e-01  9.890836116e-02 -5.649219115e-03 -3.182256414e-03 -1.747488563e-01  1.683611481e-01 -2.615090986e-01
              2.236437881e-01 -1.296977269e-01  2.903598920e-02  5.126794466e-03  1.511219170e-01 -2.540382525e-01 -6.178786286e-01  5.251800892e-01
10.161200000 -2.855608591e-01  9.184063495e-02 -1.671937529e-01 -5.102161803e-02  4.833625833e-01 -6.806402735e-01  2.243312193e-01 -1.437763764e-01
             -1.750525763e-01 -4.473574226e-02  5.920760591e-01  7.253365152e-01  9.070443303e-02 -2.130691835e-02  2.381366876e-02  8.027360492e-03
              4.912975674e-01 -6.901773484e-01  9.171464527e-02 -2.821639768e-02 -1.191858590e-02 -1.962324041e-01  1.325362276e-01 -2.847018276e-01
              2.165383589e-01 -1.388475710e-01  2.544458252e-02  4.307620890e-04  1.150198436e-01 -2.742321836e-01 -5.595493421e-01  5.855537109e-01
10.241800000 -2.851968432e-01  1.337188186e-01 -1.657571900e-01 -4.298323555e-02  4.059578561e-01 -7.234866718e-01  2.191417596e-01 -1.534242071e-01
             -1.729075406e-01 -3.551224116e-02  6.517994850e-01  6.752790348e-01  8.169634190e-02 -4.034429034e-02  2.128956729e-02  4.596801310e-03
              4.129573727e-01 -7.335027482e-01  8.144078129e-02 -4.802494668e-02 -1.986880424e-02 -2.155335528e-01  9.398039089e-02 -3.031016524e-01
              2.120477818e-01 -1.467770115e-01  2.163668359e-02 -2.940763467e-03  7.657855195e-02 -2.895246264e-01 -4.952051049e-01  6.384862683e-01
10.322400000 -2.754370383e-01  1.779410210e-01 -1.637066381e-01 -3.400864426e-02  3.242574753e-01 -7.571312163e-01  2.165927981e-01 -1.627404470e-01
             -1.699666999e-01 -2.544710295e-02  7.059522597e-01  6.213918869e-01  7.026910124e-02 -5.663107804e-02  1.880331383e-02  2.116617670e-03
              3.302892364e-01 -7.675620336e-01  6.869825177e-02 -6.490451997e-02 -2.668822343e-02 -2.334553508e-01  5.312489143e-02 -3.164477898e-01
              2.105576347e-01 -1.545964373e-01  1.794191625e-02 -5.169647803e-03  3.625729907e-02 -2.997029804e-01 -4.255035644e-01  6.833314696e-01
10.403000000 -2.555203085e-01  2.222177301e-01 -1.605973916e-01 -2.443426453e-02  2.391001788e-01 -7.810990967e-01  2.168864997e-01 -1.728848501e-01
             -1.657874737e-01 -1.490197543e-02  7.546478752e-01  5.641887264e-01  5.695411399e-02 -7.005637897e-02  1.657634064e-02  3.768718321e-04
              2.441222382e-01 -7.918751725e-01  5.403047932e-02 -7.875677854e-02 -3.224696471e-02 -2.508216712e-01  1.041893161e-02 -3.244255272e-01
              2.121789700e-01 -1.635237212e-01  1.459793385e-02 -6.495911508e-03 -5.474309799e-03 -3.045158887e-01 -3.511874077e-01  7.194019397e-01
10.483600000 -2.251858643e-01  2.640492123e-01 -1.561253281e-01 -1.469126246e-02  1.513871731e-01 -7.948688809e-01  2.199190538e-01 -1.851235304e-01
             -1.600748828e-01 -4.342910365e-03  7.979934007e-01  5.040708423e-01  4.222917925e-02 -8.056152979e-02  1.474592554e-02 -8.656623947e-04
              1.553489805e-01 -8.059090145e-01  3.792508713e-02 -8.952419643e-02 -3.661921047e-02 -2.684404030e-01 -3.362565139e-02 -3.266708841e-01
              2.167284059e-01 -1.748453376e-01  1.174957457e-02 -7.188717329e-03 -4.810169692e-02 -3.036694270e-01 -2.731317582e-01  7.459823032e-01
10.564200000 -1.847308939e-01  3.007935819e-01 -1.501325788e-01 -5.269726260e-03  6.213959316e-02 -7.978713824e-01  2.252381804e-01 -2.007699134e-01
             -1.526937309e-01  5.703263117e-03  8.360619384e-01  4.413499413e-01  2.652867725e-02 -8.811465091e-02  1.336849244e-02 -1.868045430e-03
              6.498541277e-02 -8.090759525e-01  2.083463109e-02 -9.717069471e-02 -4.007070933e-02 -2.870778236e-01 -7.839314476e-02 -3.227868919e-01
              2.236977306e-01 -1.898839686e-01  9.455039981e-03 -7.524999247e-03 -9.102274717e-02 -2.968307163e-01 -1.923872399e-01  7.623605959e-01
10.644800000 -1.350917652e-01  3.297467275e-01 -1.426117987e-01  3.311064464e-03 -2.742468022e-02 -7.895105481e-01  2.320031171e-01 -2.211174670e-01
             -1.436708615e-01  1.468800482e-02  8.688757900e-01  3.762772892e-01  1.026539875e-02 -9.269340220e-02  1.242149289e-02 -2.888899393e-03
             -2.574966630e-02 -8.007554227e-01  3.199815987e-03 -1.016762972e-01 -4.305650427e-02 -3.074401360e-01 -1.231226261e-01 -3.123703994e-01
              2.321993394e-01 -2.099550441e-01  7.690964683e-03 -7.776333407e-03 -1.334952180e-01 -2.836490609e-01 -1.102164974e-01  7.678727665e-01
10.725400000 -7.795059396e-02  3.482716828e-01 -1.337138512e-01  1.053277777e-02 -1.158038649e-01 -7.692293096e-01  2.389390659e-01 -2.473543833e-01
             -1.331947391e-01  2.207471545e-02  8.964028073e-01  3.090722054e-01 -6.141066240e-03 -9.428381275e-02  1.179824563e-02 -4.176477845e-03
             -1.153447280e-01 -7.803612977e-01 -1.453110891e-02 -1.030445390e-01 -4.623420089e-02 -3.301465845e-01 -1.668642785e-01 -2.950566333e-01
              2.408917714e-01 -2.362814257e-01  6.350406327e-03 -8.197168762e-03 -1.745818254e-01 -2.638074646e-01 -2.812729038e-02  7.619611463e-01
10.806000000 -1.583294569e-02  3.540175491e-01 -1.237561938e-01  1.591766355e-02 -2.011434864e-01 -7.366361096e-01  2.442923579e-01 -2.804372922e-01
             -1.216170687e-01  2.737355503e-02  9.185620346e-01  2.399425767e-01 -2.223991156e-02 -9.289829645e-02  1.129806157e-02 -5.947050395e-03
             -2.019241731e-01 -7.474709614e-01 -3.189113471e-02 -1.013188340e-01 -5.048256770e-02 -3.556758590e-01 -2.084411805e-01 -2.705935767e-01
              2.479167267e-01 -2.698397377e-01  5.235918014e-03 -9.004237635e-03 -2.131116639e-01 -2.371119775e-01  5.209949657e-02  7.442570547e-01
10.886600000  4.787133533e-02  3.452395929e-01 -1.132213613e-01  1.908237333e-02 -2.812262738e-01 -6.916863608e-01  2.458183074e-01 -3.209050542e-01
             -1.094525064e-01  3.018670901e-02  9.352301930e-01  1.690952170e-01 -3.753990463e-02 -8.860838393e-02  1.062246219e-02 -8.347977445e-03
             -2.832361233e-01 -7.020105060e-01 -4.839338272e-02 -9.660350800e-02 -5.690066942e-02 -3.842784953e-01 -2.464378163e-01 -2.389522161e-01
              2.508989804e-01 -3.111374904e-01  4.058498770e-03 -1.034151316e-02 -2.476824611e-01 -2.036131623e-01  1.284032161e-01  7.146990797e-01
10.967200000  1.090393893e-01  3.211809011e-01 -1.027323692e-01  1.980099799e-02 -3.535557715e-01 -6.348860986e-01  2.408527445e-01 -3.686409944e-01
             -9.736367740e-02  3.026764132e-02  9.462417647e-01  9.674120782e-02 -5.152201141e-02 -8.158138689e-02  9.391024835e-03 -1.140994578e-02
             -3.567349212e-01 -6.444635037e-01 -6.354074952e-02 -8.908590294e-02 -6.675965065e-02 -4.158683458e-01 -2.792429786e-01 -2.004614114e-01
              2.470585450e-01 -3.599570980e-01  2.455823995e-03 -1.223542463e-02 -2.767241443e-01 -1.637380717e-01  1.984888224e-01  6.736847029e-01
11.047800000  1.631432457e-01  2.824268027e-01 -9.299702855e-02  1.806294873e-02 -4.155461850e-01 -5.674655286e-01  2.265123601e-01 -4.226319278e-01
             -8.611661251e-02  2.758590593e-02  9.513823379e-01  2.310527347e-02 -6.367298112e-02 -7.210835424e-02  7.184712151e-03 -1.500242050e-02
             -4.197717672e-01 -5.760509612e-01 -7.684695929e-02 -7.905614975e-02 -8.139178651e-02 -4.499248991e-01 -3.051664980e-01 -1.559358467e-01
              2.334570806e-01 -4.151324867e-01  3.707638306e-05 -1.455466772e-02 -2.986303428e-01 -1.183998192e-01  2.599554599e-01  6.222274213e-01
11.128400000  2.057606373e-01  2.311220527e-01 -8.472359022e-02  1.410749413e-02 -4.648002104e-01 -4.914675712e-01  2.000337191e-01 -4.808028731e-01
             -7.649940837e-02  2.237768177e-02  9.503827988e-01 -5.155496705e-02 -7.353241500e-02 -6.061376165e-02  3.613502447e-03 -1.880937453e-02
             -4.698763002e-01 -4.988268061e-01 -8.786951743e-02 -6.691991020e-02 -1.020242327e-01 -4.854446542e-01 -3.226274514e-01 -1.067540524e-01
              2.073592569e-01 -4.744308316e-01 -3.549770453e-03 -1.699156398e-02 -3.119459010e-01 -6.905035927e-02  3.105195331e-01  5.620679279e-01
11.209000000  2.331938674e-01  1.709580538e-01 -7.852061439e-02  8.420168108e-03 -4.994298779e-01 -4.097112732e-01  1.592092606e-01 -5.400084329e-01
             -6.921166432e-02  1.515831571e-02  9.429245130e-01 -1.269230568e-01 -8.074289459e-02 -4.764309943e-02 -1.604829333e-03 -2.233721255e-02
             -5.050848480e-01 -4.156472058e-01 -9.625295685e-02 -5.319736271e-02 -1.295871111e-01 -5.209704432e-01 -3.303856320e-01 -5.484808523e-02
              1.666526771e-01 -5.345937351e-01 -8.542400399e-03 -1.907600777e-02 -3.155820541e-01 -1.765062468e-02  3.483083999e-01  4.956814247e-01
11.289600000  2.430803851e-01  1.068843881e-01 -7.480042449e-02  1.684546203e-03 -5.183605414e-01 -3.256148795e-01  1.028330268e-01 -5.962309736e-01
             -6.474735784e-02  6.679919333e-03  9.286593965e-01 -2.026027244e-01 -8.509348717e-02 -3.382966774e-02 -8.571819700e-03 -2.495719625e-02
             -5.242551934e-01 -3.299963700e-01 -1.017761226e-01 -3.850118580e-02 -1.645377461e-01 -5.547073683e-01 -3.277691571e-01 -2.585533780e-03
              1.102495388e-01 -5.915590495e-01 -1.499783883e-02 -2.022261005e-02 -3.090207604e-01  3.345311271e-02  3.721653044e-01  4.261411056e-01
11.370200000  2.348654634e-01  4.455835716e-02 -7.370711754e-02 -5.307350621e-03 -5.215554007e-01 -2.428906402e-01  3.104756091e-02 -6.449824148e-01
             -6.330243287e-02 -2.167457178e-03  9.072367279e-01 -2.781139808e-01 -8.654919335e-02 -1.984477536e-02 -1.715590585e-02 -2.597611740e-02
             -5.273035653e-01 -2.456788930e-01 -1.043916435e-01 -2.348967174e-02 -2.067419922e-01 -5.847115521e-01 -3.148451883e-01  4.744938777e-02
              3.839023205e-02 -6.408490179e-01 -2.274922834e-02 -1.980275278e-02 -2.924660764e-01  8.174059134e-02  3.818860985e-01  3.568362754e-01
11.450800000  2.100201463e-01 -1.039441122e-02 -7.508778996e-02 -1.177325795e-02 -5.101047599e-01 -1.651500941e-01 -5.450588748e-02 -6.818477728e-01
             -6.473635077e-02 -1.049384876e-02  8.783192513e-01 -3.529079730e-01 -8.526054850e-02 -6.337035925e-03 -2.696981204e-02 -2.472438477e-02
             -5.153051202e-01 -1.664164640e-01 -1.042426953e-01 -8.799008217e-03 -2.554423901e-01 -6.091199377e-01 -2.924880416e-01  9.274319094e-02
             -4.722185870e-02 -6.780776227e-01 -3.139290504e-02 -1.722931457e-02 -2.669028953e-01  1.247918434e-01  3.783137922e-01  2.910899016e-01
11.531400000  1.719248811e-01 -5.318171217e-02 -7.851943487e-02 -1.706584406e-02 -4.861414957e-01 -9.548446893e-02 -1.507904188e-01 -7.030614553e-01
             -6.860387121e-02 -1.755422211e-02  8.415731761e-01 -4.263862303e-01 -8.154871556e-02  6.131441959e-03 -3.738222769e-02 -2.064906510e-02
             -4.904160539e-01 -9.541456325e-02 -1.016452621e-01  5.031311431e-03 -3.093255849e-01 -6.263785776e-01 -2.623176075e-01  1.311558310e-01
             -1.435050837e-01 -6.994986962e-01 -4.030745490e-02 -1.204181200e-02 -2.340341409e-01  1.605797543e-01  3.632494669e-01  2.317584853e-01
11.612000000  1.254044181e-01 -8.054386950e-02 -8.339265239e-02 -2.077673417e-02 -4.525765635e-01 -3.610531382e-02 -2.537224128e-01 -7.059867764e-01
             -7.425288400e-02 -2.286228390e-02  7.966318897e-01 -4.978993873e-01 -7.586414120e-02  1.714095528e-02 -4.756406615e-02 -1.339839788e-02
             -4.556087540e-01 -3.498718677e-02 -9.703426622e-02  1.761923442e-02 -3.666807693e-01 -6.354240196e-01 -2.265095043e-01  1.611746529e-01
             -2.463172649e-01 -7.024893214e-01 -4.870288498e-02 -3.980526972e-03 -1.960908146e-01  1.877198338e-01  3.391898876e-01  1.809115920e-01
11.692600000  7.599001938e-02 -9.118273597e-02 -8.903738855e-02 -2.279147298e-02 -4.126958984e-01  1.186733081e-02 -3.586885132e-01 -6.893875907e-01
             -8.096310045e-02 -2.624310183e-02  7.430533877e-01 -5.667049562e-01 -6.872289719e-02  2.644913041e-02 -5.656406805e-02 -2.883773271e-03
             -4.142610026e-01  1.366910794e-02 -9.088564500e-02  2.876784173e-02 -4.256191447e-01 -6.357793030e-01 -1.875128157e-01  1.820604015e-01
             -3.509619125e-01 -6.858553646e-01 -5.569440212e-02  6.961464845e-03 -1.555447811e-01  2.056139194e-01  3.089563784e-01  1.396692351e-01
11.773200000  2.907588961e-02 -8.580906111e-02 -9.486066720e-02 -2.327850826e-02 -3.697088591e-01  4.841183363e-02 -4.611018171e-01 -6.534403743e-01
             -8.808761808e-02 -2.781394507e-02  6.803026675e-01 -6.318830350e-01 -6.063282502e-02  3.399438937e-02 -6.340123958e-02  1.069223543e-02
             -3.696914181e-01  5.049090082e-02 -8.363664998e-02  3.845174971e-02 -4.843067032e-01 -6.275448560e-01 -1.477409692e-01  1.938521084e-01
             -4.527738112e-01 -6.498776379e-01 -6.038994040e-02  2.051763915e-02 -1.147904637e-01  2.144470337e-01  2.753133000e-01  1.082249863e-01
11.853800000 -1.081794672e-02 -6.680904037e-02 -1.004604429e-01 -2.261554969e-02 -3.263621821e-01  7.441070935e-02 -5.568631927e-01 -5.995170083e-01
             -9.516162465e-02 -2.790646254e-02  6.077830674e-01 -6.922308957e-01 -5.202705085e-02  3.986588328e-02 -6.715574143e-02  2.684518480e-02
             -3.247587741e-01  7.635544196e-02 -7.562691643e-02  4.676965471e-02 -5.411574776e-01 -6.112929351e-01 -1.093110000e-01  1.972400303e-01
             -5.476370206e-01 -5.960920569e-01 -6.197531208e-02  3.616187548e-02 -7.587847044e-02  2.150425520e-01  2.406692783e-01  8.602079590e-02
11.934400000 -4.050197065e-02 -3.765640312e-02 -1.056890121e-01 -2.127701467e-02 -2.847112092e-01  9.132693901e-02 -6.426415154e-01 -5.298357929e-01
             -1.019595052e-01 -2.695946889e-02  5.249187586e-01 -7.461654202e-01 -4.322099388e-02  4.424876056e-02 -6.704014678e-02  4.484696348e-02
             -2.816207350e-01  9.275255225e-02 -6.707221633e-02  5.388209596e-02 -5.949479200e-01 -5.879021564e-01 -7.388682757e-02  1.933572441e-01
             -6.323082531e-01 -5.268876061e-01 -5.978017882e-02  5.314953587e-02 -4.036601423e-02  2.086310499e-01  2.069107273e-01  7.199666618e-02
12.015000000 -5.823185693e-02 -2.269516884e-03 -1.106601790e-01 -1.971483617e-02 -2.460767012e-01  1.008607235e-01 -7.159631217e-01 -4.470969531e-01
             -1.085037634e-01 -2.541139035e-02  4.312722031e-01 -7.916483760e-01 -3.440044198e-02  4.736110055e-02 -6.244177905e-02  6.377414860e-02
             -2.416826127e-01  1.014334230e-01 -5.806757432e-02  5.995413023e-02 -6.448416493e-01 -5.583824813e-01 -4.264040727e-02  1.835598687e-01
             -7.044961081e-01 -4.450641622e-01 -5.331538448e-02  7.056820903e-02 -9.300251544e-03  1.966148140e-01  1.753600909e-01  6.483671837e-02
12.095600000 -6.355144899e-02  3.550742281e-02 -1.157139899e-01 -1.825637566e-02 -2.111440143e-01  1.046824172e-01 -7.751628248e-01 -3.541852343e-01
             -1.150424305e-01 -2.360621865e-02  3.266854862e-01 -8.261244989e-01 -2.563734470e-02  4.939865169e-02 -5.294175656e-02  8.254505731e-02
             -2.056929796e-01  1.041351490e-01 -4.860644246e-02  6.511243181e-02 -6.903436413e-01 -5.237335095e-01 -1.630234109e-02  1.692537978e-01
             -7.627429293e-01 -3.534844016e-01 -4.228658444e-02  8.737685364e-02  1.670289004e-02  1.803966123e-01  1.468150134e-01  6.316797605e-02
12.176200000 -5.701101045e-02  7.221705777e-02 -1.213584091e-01 -1.702426305e-02 -1.801214541e-01  1.042816645e-01 -8.192669157e-01 -2.539664159e-01
             -1.220074695e-01 -2.170893197e-02  2.114676988e-01 -8.464535389e-01 -1.692290654e-02  5.049666346e-02 -3.833155960e-02  9.993208012e-02
             -1.739012320e-01  1.024229209e-01 -3.860422902e-02  6.941328199e-02 -7.312190518e-01 -4.848558262e-01  4.747963867e-03  1.517921330e-01
             -8.062190995e-01 -2.548869074e-01 -2.660489198e-02  1.024195833e-01  3.734989688e-02  1.612967826e-01  1.216268073e-01  6.570922923e-02
12.256800000 -3.989763303e-02  1.049242597e-01 -1.281955030e-01 -1.586861755e-02 -1.528839696e-01  1.009115963e-01 -8.478585379e-01 -1.491653294e-01
             -1.299492637e-01 -1.962097113e-02  8.668980087e-02 -8.488511467e-01 -8.207424377e-03  5.070984277e-02 -1.865646222e-02  1.145541400e-01
             -1.462012162e-01  9.762866577e-02 -2.792554658e-02  7.281211904e-02 -7.674089409e-01 -4.425109383e-01  2.039682353e-02  1.324333280e-01
             -8.345405745e-01 -1.518430809e-01 -6.424219038e-03  1.144192748e-01  5.258575749e-02  1.405354135e-01  9.980346883e-02  7.138369441e-02
12.337400000 -1.404023720e-02  1.312653284e-01 -1.368202192e-01 -1.430523807e-02 -1.290722576e-01  9.557561493e-02 -8.609485624e-01 -4.230545539e-02
             -1.394266713e-01 -1.690053792e-02 -4.534990532e-02 -8.289314857e-01  5.588978885e-04  5.000717343e-02  5.689550115e-03  1.248783671e-01
             -1.222302008e-01  9.083210684e-02 -1.642579135e-02  7.513173877e-02 -7.989599892e-01 -3.973123963e-01  3.073716086e-02  1.123322925e-01
             -8.476699008e-01 -4.678476712e-02  1.777088137e-02  1.219812939e-01  6.255266325e-02  1.192339764e-01  8.114227722e-02  7.939492472e-02
12.418000000  1.833078058e-02  1.494924079e-01 -1.476700486e-01 -1.147566424e-02 -1.081622050e-01  8.901410670e-02 -8.588655192e-01  6.430151375e-02
             -1.508346037e-01 -1.271932299e-02 -1.805033845e-01 -7.820287653e-01  9.385331142e-03  4.827974769e-02  3.381571066e-02  1.292817492e-01
             -1.014393873e-01  8.284010338e-02 -4.019017081e-03  7.604100020e-02 -8.259699634e-01 -3.497316250e-01  3.603466661e-02  9.253853644e-02
             -8.458957058e-01  5.797563760e-02  4.502835037e-02  1.236581560e-01  6.757240655e-02  9.840193821e-02  6.538828151e-02  8.924317941e-02
12.498600000  5.472965415e-02  1.585360457e-01 -1.608186352e-01 -6.174032164e-03 -8.953733076e-02  8.168302008e-02 -8.421834740e-01  1.685291464e-01
             -1.641787481e-01 -5.909074076e-03 -3.121678019e-01 -7.039935127e-01  1.820141654e-02  4.536408023e-02  6.417279594e-02  1.262289666e-01
             -8.317128587e-02  7.415665510e-02  9.228627692e-03  7.506861523e-02 -8.485434790e-01 -3.001104222e-01  3.670648670e-02  7.398839681e-02
             -8.298420667e-01  1.602754193e-01  7.378613202e-02  1.181271788e-01  6.812042542e-02  7.890503415e-02  5.238527139e-02  1.006588959e-01
12.579200000  9.261027096e-02  1.580482796e-01 -1.757484964e-01  3.001016145e-03 -7.258194850e-02  7.374645979e-02 -8.117036887e-01  2.684035663e-01
             -1.788526756e-01  4.851679619e-03 -4.310591053e-01 -5.925369717e-01  2.682578360e-02  4.108530181e-02  9.446606914e-02  1.145956295e-01
             -6.676363490e-02  6.496900282e-02  2.300280172e-02  7.167639968e-02 -8.667538360e-01 -2.486794509e-01  3.330015300e-02  5.749126640e-02
             -8.004531064e-01  2.581773710e-01  1.018118809e-01  1.045012589e-01  6.477438962e-02  6.143847134e-02  4.216440067e-02  1.134609360e-01
12.659800000  1.295987522e-01  1.483657446e-01 -1.911918704e-01  1.733625817e-02 -5.678223234e-02  6.510986037e-02 -7.684782685e-01  3.621090952e-01
             -1.935151333e-01  2.070121649e-02 -5.258153679e-01 -4.489070406e-01  3.495647318e-02  3.531977778e-02  1.217606245e-01  9.409737446e-02
             -5.166575706e-02  5.518142448e-02  3.668513977e-02  6.539766471e-02 -8.806110341e-01 -1.955839015e-01  2.646721851e-02  4.371612293e-02
             -7.589223048e-01  3.500530461e-01  1.263328355e-01  8.272399154e-02  5.814866376e-02  4.653193845e-02  3.492803923e-02  1.273909228e-01
12.740400000  1.636995813e-01  1.303598273e-01 -2.051598201e-01  3.757507547e-02 -4.180186833e-02  5.549813631e-02 -7.138249253e-01  4.480586133e-01
             -2.061742182e-01  4.217396549e-02 -5.847227075e-01 -2.793066476e-01  4.219781684e-02  2.806499619e-02  1.428692423e-01  6.568935583e-02
             -3.752830748e-02  4.450472286e-02  4.938407738e-02  5.601281707e-02 -8.900381448e-01 -1.409152830e-01  1.693273033e-02  3.318461128e-02
             -7.065713440e-01  4.346274006e-01  1.444272309e-01  5.391391913e-02  4.884552474e-02  3.459296006e-02  3.093283705e-02  1.419980320e-01
12.821000000  1.933960803e-01  1.052019353e-01 -2.152461635e-01  6.350642325e-02 -2.750493416e-02  4.455271957e-02 -6.492688517e-01  5.250015059e-01
             -2.145323734e-01  6.884068327e-02 -5.983806501e-01 -9.523874098e-02  4.812958303e-02  1.949203162e-02  1.550030985e-01  3.173028920e-02
             -2.423075349e-02  3.257369983e-02  6.007486750e-02  4.370042004e-02 -8.948567369e-01 -8.474633731e-02  5.465451811e-03  2.627361048e-02
             -6.447129347e-01  5.109537745e-01  1.536402852e-01  2.046951521e-02  3.744980004e-02  2.596669959e-02  3.032932488e-02  1.566289224e-01
12.901600000  2.176030968e-01  7.412969996e-02 -2.191775620e-01  9.376769861e-02 -1.392781271e-02  3.190649809e-02 -5.763888811e-01  5.920889698e-01
             -2.165320180e-01  9.918425447e-02 -5.624904935e-01  8.783653380e-02  5.240474778e-02  9.952571271e-03  1.565038806e-01 -4.264825094e-03
             -1.184248534e-02  1.904335042e-02  6.782275012e-02  2.909098946e-02 -8.947797042e-01 -2.716704976e-02 -7.145382624e-03  2.322594830e-02
             -5.745460393e-01  5.783175841e-01  1.526435127e-01 -1.421055214e-02  2.456788598e-02  2.097509759e-02  3.303898525e-02  1.705217408e-01
12.982200000  2.355038366e-01  3.831508248e-02 -2.154315634e-01  1.260096369e-01 -1.233846198e-03  1.720947034e-02 -4.966243807e-01  6.488160021e-01
             -2.109191997e-01  1.308179508e-01 -4.795779093e-01  2.534361730e-01  5.484281419e-02 -7.445621494e-05  1.473631169e-01 -3.829605343e-02
             -5.530032537e-04  3.624991864e-03  7.201333594e-02  1.318047108e-02 -8.894099491e-01  3.167743561e-02 -2.010309251e-02  2.416384485e-02
             -4.971242175e-01  6.361005791e-01  1.416687418e-01 -4.638013464e-02  1.088255636e-02  1.990863414e-02  3.872303661e-02  1.829461944e-01
13.062800000  2.463715428e-01 -1.110931867e-03 -2.036661412e-01  1.574089327e-01  1.030483507e-02  1.132118279e-04 -4.111555787e-01  6.948305229e-01
             -1.975994294e-01  1.610010830e-01 -3.587506974e-01  3.876115807e-01  5.547994361e-02 -1.008576254e-02  1.292794688e-01 -6.676518306e-02
              9.374059019e-03 -1.393736335e-02  7.249807836e-02 -2.877022529e-03 -8.782464270e-01  9.154495986e-02 -3.260787107e-02  2.909819955e-02
             -4.134070723e-01  6.836597412e-01  1.225061827e-01 -7.276422707e-02 -2.816811718e-03  2.297490561e-02  4.683547560e-02  1.933158554e-01
13.143400000  2.494931033e-01 -4.291050723e-02 -1.847761291e-01  1.853332092e-01  2.027484102e-02 -1.974484060e-02 -3.209463616e-01  7.296977353e-01
             -1.776439809e-01  1.872618651e-01 -2.134934266e-01  4.817438131e-01  5.455182840e-02 -1.967099335e-02  1.052107291e-01 -8.724149546e-02
              1.758612098e-02 -3.390757175e-02  6.959795576e-02 -1.801924895e-02 -8.607020011e-01  1.520510907e-01 -4.385880562e-02  3.793115112e-02
             -3.243629842e-01  7.202681100e-01  9.804919144e-02 -9.123697226e-02 -1.565170990e-02  3.023904441e-02  5.670451822e-02  2.012391834e-01
13.224000000  2.442570694e-01 -8.557967027e-02 -1.605764238e-01  2.078931082e-01  2.805569790e-02 -4.271046220e-02 -2.269404468e-01  7.527524284e-01
             -1.529670621e-01  2.078977412e-01 -5.843274744e-02  5.335719395e-01  5.241281323e-02 -2.860141653e-02  7.861223266e-02 -9.883353688e-02
              2.357500497e-02 -5.655722400e-02  6.397435001e-02 -3.147532264e-02 -8.361365559e-01  2.126255401e-01 -5.305750584e-02  5.045718544e-02
             -2.310665335e-01  7.451250269e-01  7.157437077e-02 -1.011232604e-01 -2.670474817e-02  4.159763638e-02  6.759631163e-02  2.065367531e-01
13.304600000  2.303698517e-01 -1.273066242e-01 -1.332794357e-01  2.241994700e-01  3.277046464e-02 -6.901685029e-02 -1.303023522e-01  7.631197923e-01
             -1.258261622e-01  2.222053940e-01  9.364325464e-02  5.463434642e-01  4.941981447e-02 -3.685878270e-02  5.266470488e-02 -1.020943280e-01
              2.660987879e-02 -8.209360552e-02  5.642954245e-02 -4.285466142e-02 -8.039035241e-01  2.724767608e-01 -5.940555482e-02  6.636861344e-02
             -1.347518135e-01  7.573945909e-01  4.603472565e-02 -1.030729937e-01 -3.505521713e-02  5.679880472e-02  7.877539712e-02  2.092695421e-01
13.385200000  2.080775420e-01 -1.661172307e-01 -1.049850403e-01  2.343026287e-01  3.330175962e-02 -9.865106821e-02 -3.257539602e-02  7.598722989e-01
             -9.833078448e-02  2.304241215e-01  2.335777074e-01  5.267667590e-01  4.582078799e-02 -4.459624259e-02  2.974065527e-02 -9.858462733e-02
              2.572829169e-02 -1.105356092e-01  4.771312904e-02 -5.211888470e-02 -7.634036802e-01  3.305660628e-01 -6.207953165e-02  8.525505645e-02
             -3.683914592e-02  7.562150112e-01  2.358731135e-02 -9.863130719e-02 -3.975541667e-02  7.547014455e-02  8.962065085e-02  2.097667447e-01
13.465800000  1.782491854e-01 -2.001693951e-01 -7.733872848e-02  2.389178022e-01  2.838539250e-02 -1.312394651e-01  6.428982242e-02  7.422068765e-01
             -7.209291387e-02  2.334752784e-01  3.562014394e-01  4.827348983e-01  4.168343874e-02 -5.204614854e-02  1.121154672e-02 -9.031316449e-02
              1.980769109e-02 -1.415962468e-01  3.839017502e-02 -5.947145833e-02 -7.141440003e-01  3.855842833e-01 -6.018194951e-02  1.065619757e-01
              6.099301820e-02  7.406639976e-01  5.442152410e-03 -8.970862781e-02 -3.975319335e-02  9.707982093e-02  9.981402911e-02  2.085602942e-01
13.546400000  1.422397720e-01 -2.280600858e-01 -5.140635980e-02  2.390845292e-01  1.674569021e-02 -1.659987158e-01  1.579645286e-01  7.095469080e-01
             -4.807166974e-02  2.326163284e-01  4.595974231e-01  4.215967236e-01  3.688553381e-02 -5.940521411e-02 -2.446942423e-03 -7.925588921e-02
              7.685238474e-03 -1.746259293e-01  2.879347731e-02 -6.521634867e-02 -6.558130957e-01  4.359229648e-01 -5.270918348e-02  1.294686647e-01
              1.566194180e-01  7.097497502e-01 -8.011932339e-03 -7.813725729e-02 -3.384054957e-02  1.207734245e-01  1.094977026e-01  2.061257156e-01
13.627000000  1.015712683e-01 -2.489796114e-01 -2.772386693e-02  2.358807428e-01 -2.786416870e-03 -2.017530692e-01  2.457042520e-01  6.615923474e-01
             -2.659687354e-02  2.291149961e-01  5.439004571e-01  3.493158135e-01  3.116908491e-02 -6.673371946e-02 -1.138272678e-02 -6.707165061e-02
             -1.173701892e-02 -2.086222090e-01  1.905233137e-02 -6.963314728e-02 -5.883983778e-01  4.796477361e-01 -3.862201189e-02  1.526885471e-01
              2.471713763e-01  6.625660737e-01 -1.693093317e-02 -6.542361169e-02 -2.075516295e-02  1.451120160e-01  1.191922707e-01  2.024555489e-01
13.707600000  5.758339348e-02 -2.626144571e-01 -6.435895231e-03  2.302485730e-01 -3.120748378e-02 -2.369689680e-01  3.241997393e-01  5.984665593e-01
             -7.516213703e-03  2.240120047e-01  6.102233541e-01  2.704195289e-01  2.424067463e-02 -7.390176850e-02 -1.607791905e-02 -5.502830418e-02
             -3.944176989e-02 -2.422542453e-01  9.169964966e-03 -7.290050776e-02 -5.123658344e-01  5.145119688e-01 -1.710258641e-02  1.742788493e-01
              3.287742335e-01  5.987360433e-01 -2.173508330e-02 -5.270755806e-02  4.717401549e-04  1.678506016e-01  1.293129783e-01  1.967015016e-01
13.788200000  1.124213199e-02 -2.688344407e-01  1.255766932e-02  2.229240854e-01 -6.930362006e-02 -2.697465652e-01  3.894481648e-01  5.211196717e-01
              9.601926176e-03  2.179983764e-01  6.600399718e-01  1.883605232e-01  1.588354287e-02 -8.060130755e-02 -1.715078912e-02 -4.407057577e-02
             -7.627430956e-02 -2.738339579e-01 -8.868789819e-04 -7.507839091e-02 -4.288881605e-01  5.380739809e-01  1.200020744e-02  1.916214369e-01
              3.965666773e-01  5.191383831e-01 -2.293272747e-02 -4.085681307e-02  2.995622676e-02  1.859665360e-01  1.393617694e-01  1.872565694e-01
13.868800000 -3.677805847e-02 -2.673260014e-01  2.948790549e-02  2.144255502e-01 -1.175657150e-01 -2.977526349e-01  4.369210882e-01  4.319888707e-01
              2.526841876e-02  2.113979854e-01  6.950185862e-01  1.058739113e-01  6.040375071e-03 -8.641905552e-02 -1.528326398e-02 -3.492590049e-02
             -1.228627215e-01 -3.012166409e-01 -1.111881669e-02 -7.613835344e-02 -3.400497646e-01  5.479715358e-01  4.767484960e-02  2.017284335e-01
              4.452325488e-01  4.267049578e-01 -2.108051685e-02 -3.058487108e-02  6.639717113e-02  1.960985934e-01  1.472028091e-01  1.725394092e-01
13.949400000 -8.576405676e-02 -2.573714852e-01  4.462962523e-02  2.050588811e-01 -1.759874321e-01 -3.181556847e-01  4.622757267e-01  3.356592758e-01
              3.991247716e-02  2.042264906e-01  7.170555263e-01  2.509399207e-02 -5.164462415e-03 -9.093994623e-02 -1.123740621e-02 -2.816333444e-02
             -1.794000911e-01 -3.217028645e-01 -2.146325438e-02 -7.601700874e-02 -2.489139405e-01  5.423478077e-01  8.745021640e-02  2.018991227e-01
              4.700922231e-01  3.269144879e-01 -1.683256287e-02 -2.250081434e-02  1.068158136e-01  1.953752547e-01  1.490078253e-01  1.523584644e-01
14.030000000 -1.345328521e-01 -2.379038648e-01  5.821380842e-02  1.949342220e-01 -2.437429755e-01 -3.276744073e-01  4.626153041e-01  2.390879820e-01
              5.377383046e-02  1.962954973e-01  7.282250267e-01 -5.253474585e-02 -1.746823704e-02 -9.383571295e-02 -5.889153400e-03 -2.417469859e-02
             -2.452897961e-01 -3.320705150e-01 -3.180225793e-02 -7.466543335e-02 -1.593500540e-01  5.203362198e-01  1.275350416e-01  1.905611891e-01
              4.685226857e-01  2.276149431e-01 -1.099069962e-02 -1.706455820e-02  1.468485353e-01  1.823814076e-01  1.402773503e-01  1.292671217e-01
