! yapnr Order 0 O0-M: O0-M A02 M dL4.5 (line, family M)
! stackup OSHPARK-4L-EM528, nominal parameters; geometry of the OSHPARK-4L-FR408HR design
! model: 2D quasi-static RLGC (Djordjevic-Sarkar, Huray roughness, Wheeler loss); generated by python -m yapnr.rf.coupons expected --stackup OSHPARK-4L-FR408HR --upload M
! reference planes 10 mm from each end; 50 ohm (from the M line's Zc)
# GHz S DB R 50
0.03 -75.067 6.43 -0.0017047 -0.28 -0.0017047 -0.28 -75.067 6.43
0.06 -72.157 -12.64 -0.0024603 -0.56 -0.0024603 -0.56 -72.157 -12.64
0.09 -69.852 -26.22 -0.0030719 -0.83 -0.0030719 -0.83 -69.852 -26.22
0.12 -67.876 -35.95 -0.0036093 -1.11 -0.0036093 -1.11 -67.876 -35.95
0.15 -66.167 -43.13 -0.0040995 -1.38 -0.0040995 -1.38 -66.167 -43.13
0.18 -64.677 -48.61 -0.0045566 -1.66 -0.0045566 -1.66 -64.677 -48.61
0.21 -63.366 -52.94 -0.0049887 -1.93 -0.0049887 -1.93 -63.366 -52.94
0.24 -62.202 -56.45 -0.0054012 -2.21 -0.0054012 -2.21 -62.202 -56.45
0.27 -61.158 -59.37 -0.0057979 -2.48 -0.0057979 -2.48 -61.158 -59.37
0.3 -60.214 -61.85 -0.0061814 -2.75 -0.0061814 -2.75 -60.214 -61.85
0.33 -59.354 -64.00 -0.0065537 -3.03 -0.0065537 -3.03 -59.354 -64.00
0.36 -58.565 -65.87 -0.0069164 -3.30 -0.0069164 -3.30 -58.565 -65.87
0.39 -57.837 -67.54 -0.0072707 -3.57 -0.0072707 -3.57 -57.837 -67.54
0.42 -57.162 -69.04 -0.0076176 -3.84 -0.0076176 -3.84 -57.162 -69.04
0.45 -56.532 -70.40 -0.007958 -4.12 -0.007958 -4.12 -56.532 -70.40
0.48 -55.944 -71.64 -0.0082925 -4.39 -0.0082925 -4.39 -55.944 -71.64
0.51 -55.391 -72.78 -0.0086217 -4.66 -0.0086217 -4.66 -55.391 -72.78
0.54 -54.87 -73.85 -0.0089461 -4.94 -0.0089461 -4.94 -54.87 -73.85
0.57 -54.377 -74.84 -0.0092661 -5.21 -0.0092661 -5.21 -54.377 -74.84
0.6 -53.91 -75.76 -0.009582 -5.48 -0.009582 -5.48 -53.91 -75.76
0.63 -53.466 -76.64 -0.0098943 -5.75 -0.0098943 -5.75 -53.466 -76.64
0.66 -53.044 -77.47 -0.010203 -6.03 -0.010203 -6.03 -53.044 -77.47
0.69 -52.64 -78.25 -0.010509 -6.30 -0.010509 -6.30 -52.64 -78.25
0.72 -52.255 -79.01 -0.010811 -6.57 -0.010811 -6.57 -52.255 -79.01
0.75 -51.885 -79.72 -0.011111 -6.84 -0.011111 -6.84 -51.885 -79.72
0.78 -51.531 -80.41 -0.011408 -7.12 -0.011408 -7.12 -51.531 -80.41
0.81 -51.19 -81.07 -0.011703 -7.39 -0.011703 -7.39 -51.19 -81.07
0.84 -50.863 -81.71 -0.011996 -7.66 -0.011996 -7.66 -50.863 -81.71
0.87 -50.547 -82.33 -0.012286 -7.93 -0.012286 -7.93 -50.547 -82.33
0.9 -50.242 -82.93 -0.012574 -8.21 -0.012574 -8.21 -50.242 -82.93
0.93 -49.948 -83.51 -0.012861 -8.48 -0.012861 -8.48 -49.948 -83.51
0.96 -49.663 -84.07 -0.013145 -8.75 -0.013145 -8.75 -49.663 -84.07
0.99 -49.388 -84.62 -0.013428 -9.02 -0.013428 -9.02 -49.388 -84.62
1.02 -49.121 -85.16 -0.013709 -9.29 -0.013709 -9.29 -49.121 -85.16
1.05 -48.863 -85.68 -0.013988 -9.57 -0.013988 -9.57 -48.863 -85.68
1.08 -48.612 -86.19 -0.014266 -9.84 -0.014266 -9.84 -48.612 -86.19
1.11 -48.368 -86.69 -0.014543 -10.11 -0.014543 -10.11 -48.368 -86.69
1.14 -48.131 -87.18 -0.014818 -10.38 -0.014818 -10.38 -48.131 -87.18
1.17 -47.9 -87.66 -0.015092 -10.66 -0.015092 -10.66 -47.9 -87.66
1.2 -47.676 -88.14 -0.015364 -10.93 -0.015364 -10.93 -47.676 -88.14
1.23 -47.458 -88.60 -0.015636 -11.20 -0.015636 -11.20 -47.458 -88.60
1.26 -47.245 -89.06 -0.015906 -11.47 -0.015906 -11.47 -47.245 -89.06
1.29 -47.037 -89.50 -0.016175 -11.74 -0.016175 -11.74 -47.037 -89.50
1.32 -46.835 -89.95 -0.016443 -12.02 -0.016443 -12.02 -46.835 -89.95
1.35 -46.637 -90.38 -0.016709 -12.29 -0.016709 -12.29 -46.637 -90.38
1.38 -46.444 -90.81 -0.016975 -12.56 -0.016975 -12.56 -46.444 -90.81
1.41 -46.255 -91.24 -0.01724 -12.83 -0.01724 -12.83 -46.255 -91.24
1.44 -46.071 -91.66 -0.017504 -13.10 -0.017504 -13.10 -46.071 -91.66
1.47 -45.89 -92.07 -0.017767 -13.38 -0.017767 -13.38 -45.89 -92.07
1.5 -45.714 -92.48 -0.018029 -13.65 -0.018029 -13.65 -45.714 -92.48
1.53 -45.541 -92.89 -0.01829 -13.92 -0.01829 -13.92 -45.541 -92.89
1.56 -45.372 -93.29 -0.01855 -14.19 -0.01855 -14.19 -45.372 -93.29
1.59 -45.206 -93.69 -0.01881 -14.46 -0.01881 -14.46 -45.206 -93.69
1.62 -45.044 -94.08 -0.019069 -14.74 -0.019069 -14.74 -45.044 -94.08
1.65 -44.885 -94.47 -0.019327 -15.01 -0.019327 -15.01 -44.885 -94.47
1.68 -44.729 -94.86 -0.019584 -15.28 -0.019584 -15.28 -44.729 -94.86
1.71 -44.576 -95.24 -0.01984 -15.55 -0.01984 -15.55 -44.576 -95.24
1.74 -44.426 -95.62 -0.020096 -15.82 -0.020096 -15.82 -44.426 -95.62
1.77 -44.278 -95.99 -0.020351 -16.09 -0.020351 -16.09 -44.278 -95.99
1.8 -44.133 -96.37 -0.020606 -16.37 -0.020606 -16.37 -44.133 -96.37
1.83 -43.991 -96.74 -0.02086 -16.64 -0.02086 -16.64 -43.991 -96.74
1.86 -43.852 -97.11 -0.021113 -16.91 -0.021113 -16.91 -43.852 -97.11
1.89 -43.714 -97.47 -0.021365 -17.18 -0.021365 -17.18 -43.714 -97.47
1.92 -43.58 -97.84 -0.021617 -17.45 -0.021617 -17.45 -43.58 -97.84
1.95 -43.447 -98.20 -0.021869 -17.73 -0.021869 -17.73 -43.447 -98.20
1.98 -43.317 -98.56 -0.022119 -18.00 -0.022119 -18.00 -43.317 -98.56
2.01 -43.189 -98.92 -0.02237 -18.27 -0.02237 -18.27 -43.189 -98.92
2.04 -43.063 -99.27 -0.022619 -18.54 -0.022619 -18.54 -43.063 -99.27
2.07 -42.939 -99.62 -0.022869 -18.81 -0.022869 -18.81 -42.939 -99.62
2.1 -42.817 -99.98 -0.023117 -19.09 -0.023117 -19.09 -42.817 -99.98
2.13 -42.696 -100.33 -0.023365 -19.36 -0.023365 -19.36 -42.696 -100.33
2.16 -42.578 -100.67 -0.023613 -19.63 -0.023613 -19.63 -42.578 -100.67
2.19 -42.462 -101.02 -0.02386 -19.90 -0.02386 -19.90 -42.462 -101.02
2.22 -42.347 -101.36 -0.024107 -20.17 -0.024107 -20.17 -42.347 -101.36
2.25 -42.234 -101.71 -0.024353 -20.44 -0.024353 -20.44 -42.234 -101.71
2.28 -42.123 -102.05 -0.024599 -20.72 -0.024599 -20.72 -42.123 -102.05
2.31 -42.013 -102.39 -0.024844 -20.99 -0.024844 -20.99 -42.013 -102.39
2.34 -41.905 -102.73 -0.025089 -21.26 -0.025089 -21.26 -41.905 -102.73
2.37 -41.798 -103.06 -0.025333 -21.53 -0.025333 -21.53 -41.798 -103.06
2.4 -41.693 -103.40 -0.025577 -21.80 -0.025577 -21.80 -41.693 -103.40
2.43 -41.59 -103.73 -0.025821 -22.07 -0.025821 -22.07 -41.59 -103.73
2.46 -41.488 -104.07 -0.026064 -22.35 -0.026064 -22.35 -41.488 -104.07
2.49 -41.387 -104.40 -0.026307 -22.62 -0.026307 -22.62 -41.387 -104.40
2.52 -41.288 -104.73 -0.026549 -22.89 -0.026549 -22.89 -41.288 -104.73
2.55 -41.19 -105.06 -0.026791 -23.16 -0.026791 -23.16 -41.19 -105.06
2.58 -41.093 -105.39 -0.027032 -23.43 -0.027032 -23.43 -41.093 -105.39
2.61 -40.998 -105.72 -0.027274 -23.70 -0.027274 -23.70 -40.998 -105.72
2.64 -40.904 -106.04 -0.027514 -23.98 -0.027514 -23.98 -40.904 -106.04
2.67 -40.811 -106.37 -0.027755 -24.25 -0.027755 -24.25 -40.811 -106.37
2.7 -40.719 -106.69 -0.027995 -24.52 -0.027995 -24.52 -40.719 -106.69
2.73 -40.629 -107.02 -0.028235 -24.79 -0.028235 -24.79 -40.629 -107.02
2.76 -40.539 -107.34 -0.028474 -25.06 -0.028474 -25.06 -40.539 -107.34
2.79 -40.451 -107.66 -0.028713 -25.34 -0.028713 -25.34 -40.451 -107.66
2.82 -40.364 -107.98 -0.028952 -25.61 -0.028952 -25.61 -40.364 -107.98
2.85 -40.278 -108.31 -0.02919 -25.88 -0.02919 -25.88 -40.278 -108.31
2.88 -40.193 -108.62 -0.029428 -26.15 -0.029428 -26.15 -40.193 -108.62
2.91 -40.109 -108.94 -0.029666 -26.42 -0.029666 -26.42 -40.109 -108.94
2.94 -40.026 -109.26 -0.029903 -26.69 -0.029903 -26.69 -40.026 -109.26
2.97 -39.944 -109.58 -0.03014 -26.97 -0.03014 -26.97 -39.944 -109.58
3 -39.863 -109.90 -0.030377 -27.24 -0.030377 -27.24 -39.863 -109.90
3.03 -39.783 -110.21 -0.030613 -27.51 -0.030613 -27.51 -39.783 -110.21
3.06 -39.704 -110.53 -0.030849 -27.78 -0.030849 -27.78 -39.704 -110.53
3.09 -39.626 -110.84 -0.031085 -28.05 -0.031085 -28.05 -39.626 -110.84
3.12 -39.549 -111.16 -0.031321 -28.32 -0.031321 -28.32 -39.549 -111.16
3.15 -39.472 -111.47 -0.031556 -28.60 -0.031556 -28.60 -39.472 -111.47
3.18 -39.397 -111.78 -0.031791 -28.87 -0.031791 -28.87 -39.397 -111.78
3.21 -39.322 -112.09 -0.032026 -29.14 -0.032026 -29.14 -39.322 -112.09
3.24 -39.249 -112.41 -0.03226 -29.41 -0.03226 -29.41 -39.249 -112.41
3.27 -39.176 -112.72 -0.032494 -29.68 -0.032494 -29.68 -39.176 -112.72
3.3 -39.104 -113.03 -0.032728 -29.95 -0.032728 -29.95 -39.104 -113.03
3.33 -39.033 -113.34 -0.032961 -30.23 -0.032961 -30.23 -39.033 -113.34
3.36 -38.962 -113.65 -0.033195 -30.50 -0.033195 -30.50 -38.962 -113.65
3.39 -38.892 -113.95 -0.033428 -30.77 -0.033428 -30.77 -38.892 -113.95
3.42 -38.823 -114.26 -0.03366 -31.04 -0.03366 -31.04 -38.823 -114.26
3.45 -38.755 -114.57 -0.033893 -31.31 -0.033893 -31.31 -38.755 -114.57
3.48 -38.688 -114.88 -0.034125 -31.58 -0.034125 -31.58 -38.688 -114.88
3.51 -38.621 -115.19 -0.034357 -31.86 -0.034357 -31.86 -38.621 -115.19
3.54 -38.555 -115.49 -0.034589 -32.13 -0.034589 -32.13 -38.555 -115.49
3.57 -38.49 -115.80 -0.03482 -32.40 -0.03482 -32.40 -38.49 -115.80
3.6 -38.425 -116.10 -0.035051 -32.67 -0.035051 -32.67 -38.425 -116.10
3.63 -38.361 -116.41 -0.035282 -32.94 -0.035282 -32.94 -38.361 -116.41
3.66 -38.298 -116.71 -0.035513 -33.21 -0.035513 -33.21 -38.298 -116.71
3.69 -38.236 -117.02 -0.035743 -33.49 -0.035743 -33.49 -38.236 -117.02
3.72 -38.174 -117.32 -0.035973 -33.76 -0.035973 -33.76 -38.174 -117.32
3.75 -38.113 -117.62 -0.036203 -34.03 -0.036203 -34.03 -38.113 -117.62
3.78 -38.052 -117.93 -0.036433 -34.30 -0.036433 -34.30 -38.052 -117.93
3.81 -37.992 -118.23 -0.036663 -34.57 -0.036663 -34.57 -37.992 -118.23
3.84 -37.933 -118.53 -0.036892 -34.84 -0.036892 -34.84 -37.933 -118.53
3.87 -37.874 -118.83 -0.037121 -35.11 -0.037121 -35.11 -37.874 -118.83
3.9 -37.816 -119.13 -0.03735 -35.39 -0.03735 -35.39 -37.816 -119.13
3.93 -37.758 -119.44 -0.037578 -35.66 -0.037578 -35.66 -37.758 -119.44
3.96 -37.701 -119.74 -0.037806 -35.93 -0.037806 -35.93 -37.701 -119.74
3.99 -37.645 -120.04 -0.038034 -36.20 -0.038034 -36.20 -37.645 -120.04
4.02 -37.589 -120.34 -0.038262 -36.47 -0.038262 -36.47 -37.589 -120.34
4.05 -37.534 -120.64 -0.03849 -36.74 -0.03849 -36.74 -37.534 -120.64
4.08 -37.479 -120.94 -0.038717 -37.02 -0.038717 -37.02 -37.479 -120.94
4.11 -37.425 -121.24 -0.038944 -37.29 -0.038944 -37.29 -37.425 -121.24
4.14 -37.371 -121.53 -0.039171 -37.56 -0.039171 -37.56 -37.371 -121.53
4.17 -37.318 -121.83 -0.039398 -37.83 -0.039398 -37.83 -37.318 -121.83
4.2 -37.266 -122.13 -0.039625 -38.10 -0.039625 -38.10 -37.266 -122.13
4.23 -37.214 -122.43 -0.039851 -38.37 -0.039851 -38.37 -37.214 -122.43
4.26 -37.162 -122.73 -0.040077 -38.65 -0.040077 -38.65 -37.162 -122.73
4.29 -37.111 -123.02 -0.040303 -38.92 -0.040303 -38.92 -37.111 -123.02
4.32 -37.061 -123.32 -0.040528 -39.19 -0.040528 -39.19 -37.061 -123.32
4.35 -37.011 -123.62 -0.040754 -39.46 -0.040754 -39.46 -37.011 -123.62
4.38 -36.961 -123.92 -0.040979 -39.73 -0.040979 -39.73 -36.961 -123.92
4.41 -36.912 -124.21 -0.041204 -40.00 -0.041204 -40.00 -36.912 -124.21
4.44 -36.864 -124.51 -0.041429 -40.28 -0.041429 -40.28 -36.864 -124.51
4.47 -36.816 -124.80 -0.041653 -40.55 -0.041653 -40.55 -36.816 -124.80
4.5 -36.768 -125.10 -0.041878 -40.82 -0.041878 -40.82 -36.768 -125.10
4.53 -36.721 -125.39 -0.042102 -41.09 -0.042102 -41.09 -36.721 -125.39
4.56 -36.674 -125.69 -0.042326 -41.36 -0.042326 -41.36 -36.674 -125.69
4.59 -36.628 -125.98 -0.04255 -41.63 -0.04255 -41.63 -36.628 -125.98
4.62 -36.582 -126.28 -0.042773 -41.91 -0.042773 -41.91 -36.582 -126.28
4.65 -36.537 -126.57 -0.042996 -42.18 -0.042996 -42.18 -36.537 -126.57
4.68 -36.492 -126.87 -0.04322 -42.45 -0.04322 -42.45 -36.492 -126.87
4.71 -36.448 -127.16 -0.043443 -42.72 -0.043443 -42.72 -36.448 -127.16
4.74 -36.404 -127.45 -0.043665 -42.99 -0.043665 -42.99 -36.404 -127.45
4.77 -36.36 -127.75 -0.043888 -43.26 -0.043888 -43.26 -36.36 -127.75
4.8 -36.317 -128.04 -0.04411 -43.54 -0.04411 -43.54 -36.317 -128.04
4.83 -36.274 -128.33 -0.044332 -43.81 -0.044332 -43.81 -36.274 -128.33
4.86 -36.232 -128.63 -0.044554 -44.08 -0.044554 -44.08 -36.232 -128.63
4.89 -36.19 -128.92 -0.044776 -44.35 -0.044776 -44.35 -36.19 -128.92
4.92 -36.148 -129.21 -0.044997 -44.62 -0.044997 -44.62 -36.148 -129.21
4.95 -36.107 -129.51 -0.045219 -44.89 -0.045219 -44.89 -36.107 -129.51
4.98 -36.066 -129.80 -0.04544 -45.17 -0.04544 -45.17 -36.066 -129.80
5.01 -36.026 -130.09 -0.045661 -45.44 -0.045661 -45.44 -36.026 -130.09
5.04 -35.986 -130.38 -0.045881 -45.71 -0.045881 -45.71 -35.986 -130.38
5.07 -35.947 -130.67 -0.046102 -45.98 -0.046102 -45.98 -35.947 -130.67
5.1 -35.907 -130.96 -0.046322 -46.25 -0.046322 -46.25 -35.907 -130.96
5.13 -35.869 -131.25 -0.046542 -46.52 -0.046542 -46.52 -35.869 -131.25
5.16 -35.83 -131.55 -0.046762 -46.80 -0.046762 -46.80 -35.83 -131.55
5.19 -35.792 -131.84 -0.046982 -47.07 -0.046982 -47.07 -35.792 -131.84
5.22 -35.754 -132.13 -0.047201 -47.34 -0.047201 -47.34 -35.754 -132.13
5.25 -35.717 -132.42 -0.047421 -47.61 -0.047421 -47.61 -35.717 -132.42
5.28 -35.68 -132.71 -0.04764 -47.88 -0.04764 -47.88 -35.68 -132.71
5.31 -35.644 -133.00 -0.047859 -48.15 -0.047859 -48.15 -35.644 -133.00
5.34 -35.607 -133.29 -0.048078 -48.43 -0.048078 -48.43 -35.607 -133.29
5.37 -35.571 -133.58 -0.048296 -48.70 -0.048296 -48.70 -35.571 -133.58
5.4 -35.536 -133.87 -0.048514 -48.97 -0.048514 -48.97 -35.536 -133.87
5.43 -35.501 -134.16 -0.048733 -49.24 -0.048733 -49.24 -35.501 -134.16
5.46 -35.466 -134.45 -0.048951 -49.51 -0.048951 -49.51 -35.466 -134.45
5.49 -35.431 -134.74 -0.049168 -49.78 -0.049168 -49.78 -35.431 -134.74
5.52 -35.397 -135.03 -0.049386 -50.06 -0.049386 -50.06 -35.397 -135.03
5.55 -35.363 -135.31 -0.049603 -50.33 -0.049603 -50.33 -35.363 -135.31
5.58 -35.33 -135.60 -0.04982 -50.60 -0.04982 -50.60 -35.33 -135.60
5.61 -35.297 -135.89 -0.050037 -50.87 -0.050037 -50.87 -35.297 -135.89
5.64 -35.264 -136.18 -0.050254 -51.14 -0.050254 -51.14 -35.264 -136.18
5.67 -35.231 -136.47 -0.050471 -51.41 -0.050471 -51.41 -35.231 -136.47
5.7 -35.199 -136.76 -0.050687 -51.69 -0.050687 -51.69 -35.199 -136.76
5.73 -35.167 -137.04 -0.050903 -51.96 -0.050903 -51.96 -35.167 -137.04
5.76 -35.135 -137.33 -0.05112 -52.23 -0.05112 -52.23 -35.135 -137.33
5.79 -35.104 -137.62 -0.051335 -52.50 -0.051335 -52.50 -35.104 -137.62
5.82 -35.073 -137.91 -0.051551 -52.77 -0.051551 -52.77 -35.073 -137.91
5.85 -35.043 -138.20 -0.051766 -53.04 -0.051766 -53.04 -35.043 -138.20
5.88 -35.012 -138.48 -0.051982 -53.32 -0.051982 -53.32 -35.012 -138.48
5.91 -34.982 -138.77 -0.052197 -53.59 -0.052197 -53.59 -34.982 -138.77
5.94 -34.953 -139.06 -0.052412 -53.86 -0.052412 -53.86 -34.953 -139.06
5.97 -34.923 -139.34 -0.052626 -54.13 -0.052626 -54.13 -34.923 -139.34
6 -34.894 -139.63 -0.052841 -54.40 -0.052841 -54.40 -34.894 -139.63
