! yapnr Order 0 O0-M: O0-M A03 M dL13 (line, family M)
! stackup OSHPARK-4L-EM528, nominal parameters; geometry of the OSHPARK-4L-FR408HR design
! model: 2D quasi-static RLGC (Djordjevic-Sarkar, Huray roughness, Wheeler loss); generated by python -m yapnr.rf.coupons expected --stackup OSHPARK-4L-FR408HR --upload M
! reference planes 10 mm from each end; 50 ohm (from the M line's Zc)
# GHz S DB R 50
0.03 -65.825 6.06 -0.0049383 -0.82 -0.0049383 -0.82 -65.825 6.06
0.06 -62.905 -13.27 -0.0071454 -1.62 -0.0071454 -1.62 -62.905 -13.27
0.09 -60.609 -27.13 -0.0089433 -2.41 -0.0089433 -2.41 -60.609 -27.13
0.12 -58.649 -37.20 -0.010532 -3.21 -0.010532 -3.21 -58.649 -37.20
0.15 -56.957 -44.78 -0.011988 -4.00 -0.011988 -4.00 -56.957 -44.78
0.18 -55.484 -50.70 -0.013352 -4.79 -0.013352 -4.79 -55.484 -50.70
0.21 -54.19 -55.48 -0.014648 -5.58 -0.014648 -5.58 -54.19 -55.48
0.24 -53.04 -59.46 -0.01589 -6.37 -0.01589 -6.37 -53.04 -59.46
0.27 -52.011 -62.85 -0.017088 -7.16 -0.017088 -7.16 -52.011 -62.85
0.3 -51.081 -65.82 -0.018252 -7.95 -0.018252 -7.95 -51.081 -65.82
0.33 -50.234 -68.44 -0.019385 -8.74 -0.019385 -8.74 -50.234 -68.44
0.36 -49.459 -70.81 -0.020492 -9.53 -0.020492 -9.53 -49.459 -70.81
0.39 -48.744 -72.97 -0.021578 -10.32 -0.021578 -10.32 -48.744 -72.97
0.42 -48.082 -74.97 -0.022644 -11.11 -0.022644 -11.11 -48.082 -74.97
0.45 -47.466 -76.82 -0.023693 -11.90 -0.023693 -11.90 -47.466 -76.82
0.48 -46.89 -78.56 -0.024726 -12.69 -0.024726 -12.69 -46.89 -78.56
0.51 -46.351 -80.20 -0.025746 -13.48 -0.025746 -13.48 -46.351 -80.20
0.54 -45.843 -81.76 -0.026754 -14.27 -0.026754 -14.27 -45.843 -81.76
0.57 -45.364 -83.25 -0.027751 -15.05 -0.027751 -15.05 -45.364 -83.25
0.6 -44.911 -84.68 -0.028737 -15.84 -0.028737 -15.84 -44.911 -84.68
0.63 -44.482 -86.06 -0.029714 -16.63 -0.029714 -16.63 -44.482 -86.06
0.66 -44.074 -87.39 -0.030683 -17.42 -0.030683 -17.42 -44.074 -87.39
0.69 -43.685 -88.68 -0.031643 -18.20 -0.031643 -18.20 -43.685 -88.68
0.72 -43.315 -89.93 -0.032596 -18.99 -0.032596 -18.99 -43.315 -89.93
0.75 -42.961 -91.16 -0.033543 -19.78 -0.033543 -19.78 -42.961 -91.16
0.78 -42.622 -92.35 -0.034483 -20.57 -0.034483 -20.57 -42.622 -92.35
0.81 -42.298 -93.51 -0.035417 -21.35 -0.035417 -21.35 -42.298 -93.51
0.84 -41.987 -94.66 -0.036346 -22.14 -0.036346 -22.14 -41.987 -94.66
0.87 -41.688 -95.78 -0.037269 -22.93 -0.037269 -22.93 -41.688 -95.78
0.9 -41.401 -96.88 -0.038187 -23.72 -0.038187 -23.72 -41.401 -96.88
0.93 -41.125 -97.97 -0.039101 -24.50 -0.039101 -24.50 -41.125 -97.97
0.96 -40.858 -99.04 -0.04001 -25.29 -0.04001 -25.29 -40.858 -99.04
0.99 -40.602 -100.09 -0.040916 -26.08 -0.040916 -26.08 -40.602 -100.09
1.02 -40.354 -101.13 -0.041817 -26.86 -0.041817 -26.86 -40.354 -101.13
1.05 -40.115 -102.16 -0.042714 -27.65 -0.042714 -27.65 -40.115 -102.16
1.08 -39.884 -103.18 -0.043608 -28.44 -0.043608 -28.44 -39.884 -103.18
1.11 -39.66 -104.18 -0.044498 -29.22 -0.044498 -29.22 -39.66 -104.18
1.14 -39.444 -105.18 -0.045386 -30.01 -0.045386 -30.01 -39.444 -105.18
1.17 -39.235 -106.17 -0.046269 -30.80 -0.046269 -30.80 -39.235 -106.17
1.2 -39.033 -107.14 -0.04715 -31.58 -0.04715 -31.58 -39.033 -107.14
1.23 -38.836 -108.11 -0.048028 -32.37 -0.048028 -32.37 -38.836 -108.11
1.26 -38.646 -109.08 -0.048903 -33.16 -0.048903 -33.16 -38.646 -109.08
1.29 -38.462 -110.03 -0.049776 -33.94 -0.049776 -33.94 -38.462 -110.03
1.32 -38.283 -110.98 -0.050646 -34.73 -0.050646 -34.73 -38.283 -110.98
1.35 -38.109 -111.92 -0.051513 -35.52 -0.051513 -35.52 -38.109 -111.92
1.38 -37.941 -112.86 -0.052378 -36.30 -0.052378 -36.30 -37.941 -112.86
1.41 -37.777 -113.79 -0.05324 -37.09 -0.05324 -37.09 -37.777 -113.79
1.44 -37.618 -114.72 -0.0541 -37.87 -0.0541 -37.87 -37.618 -114.72
1.47 -37.464 -115.64 -0.054958 -38.66 -0.054958 -38.66 -37.464 -115.64
1.5 -37.314 -116.56 -0.055813 -39.45 -0.055813 -39.45 -37.314 -116.56
1.53 -37.169 -117.47 -0.056667 -40.23 -0.056667 -40.23 -37.169 -117.47
1.56 -37.027 -118.38 -0.057518 -41.02 -0.057518 -41.02 -37.027 -118.38
1.59 -36.889 -119.28 -0.058367 -41.81 -0.058367 -41.81 -36.889 -119.28
1.62 -36.756 -120.18 -0.059214 -42.59 -0.059214 -42.59 -36.756 -120.18
1.65 -36.626 -121.08 -0.060059 -43.38 -0.060059 -43.38 -36.626 -121.08
1.68 -36.499 -121.97 -0.060902 -44.16 -0.060902 -44.16 -36.499 -121.97
1.71 -36.376 -122.86 -0.061743 -44.95 -0.061743 -44.95 -36.376 -122.86
1.74 -36.257 -123.75 -0.062582 -45.73 -0.062582 -45.73 -36.257 -123.75
1.77 -36.141 -124.63 -0.06342 -46.52 -0.06342 -46.52 -36.141 -124.63
1.8 -36.028 -125.51 -0.064255 -47.31 -0.064255 -47.31 -36.028 -125.51
1.83 -35.918 -126.39 -0.065089 -48.09 -0.065089 -48.09 -35.918 -126.39
1.86 -35.811 -127.27 -0.065921 -48.88 -0.065921 -48.88 -35.811 -127.27
1.89 -35.707 -128.14 -0.066751 -49.66 -0.066751 -49.66 -35.707 -128.14
1.92 -35.606 -129.01 -0.067579 -50.45 -0.067579 -50.45 -35.606 -129.01
1.95 -35.508 -129.88 -0.068405 -51.23 -0.068405 -51.23 -35.508 -129.88
1.98 -35.413 -130.74 -0.06923 -52.02 -0.06923 -52.02 -35.413 -130.74
2.01 -35.32 -131.61 -0.070053 -52.81 -0.070053 -52.81 -35.32 -131.61
2.04 -35.231 -132.47 -0.070874 -53.59 -0.070874 -53.59 -35.231 -132.47
2.07 -35.143 -133.33 -0.071693 -54.38 -0.071693 -54.38 -35.143 -133.33
2.1 -35.059 -134.19 -0.072511 -55.16 -0.072511 -55.16 -35.059 -134.19
2.13 -34.976 -135.05 -0.073327 -55.95 -0.073327 -55.95 -34.976 -135.05
2.16 -34.896 -135.90 -0.074141 -56.73 -0.074141 -56.73 -34.896 -135.90
2.19 -34.819 -136.75 -0.074953 -57.52 -0.074953 -57.52 -34.819 -136.75
2.22 -34.744 -137.60 -0.075764 -58.30 -0.075764 -58.30 -34.744 -137.60
2.25 -34.671 -138.45 -0.076573 -59.09 -0.076573 -59.09 -34.671 -138.45
2.28 -34.601 -139.30 -0.07738 -59.88 -0.07738 -59.88 -34.601 -139.30
2.31 -34.533 -140.15 -0.078186 -60.66 -0.078186 -60.66 -34.533 -140.15
2.34 -34.467 -140.99 -0.07899 -61.45 -0.07899 -61.45 -34.467 -140.99
2.37 -34.403 -141.84 -0.079792 -62.23 -0.079792 -62.23 -34.403 -141.84
2.4 -34.341 -142.68 -0.080592 -63.02 -0.080592 -63.02 -34.341 -142.68
2.43 -34.281 -143.52 -0.081391 -63.80 -0.081391 -63.80 -34.281 -143.52
2.46 -34.224 -144.36 -0.082188 -64.59 -0.082188 -64.59 -34.224 -144.36
2.49 -34.168 -145.20 -0.082983 -65.37 -0.082983 -65.37 -34.168 -145.20
2.52 -34.115 -146.04 -0.083777 -66.16 -0.083777 -66.16 -34.115 -146.04
2.55 -34.063 -146.87 -0.084569 -66.94 -0.084569 -66.94 -34.063 -146.87
2.58 -34.014 -147.71 -0.085359 -67.73 -0.085359 -67.73 -34.014 -147.71
2.61 -33.966 -148.54 -0.086147 -68.51 -0.086147 -68.51 -33.966 -148.54
2.64 -33.921 -149.38 -0.086934 -69.30 -0.086934 -69.30 -33.921 -149.38
2.67 -33.877 -150.21 -0.087719 -70.09 -0.087719 -70.09 -33.877 -150.21
2.7 -33.835 -151.04 -0.088502 -70.87 -0.088502 -70.87 -33.835 -151.04
2.73 -33.795 -151.87 -0.089284 -71.66 -0.089284 -71.66 -33.795 -151.87
2.76 -33.757 -152.70 -0.090064 -72.44 -0.090064 -72.44 -33.757 -152.70
2.79 -33.72 -153.53 -0.090842 -73.23 -0.090842 -73.23 -33.72 -153.53
2.82 -33.686 -154.35 -0.091618 -74.01 -0.091618 -74.01 -33.686 -154.35
2.85 -33.653 -155.18 -0.092393 -74.80 -0.092393 -74.80 -33.653 -155.18
2.88 -33.622 -156.00 -0.093166 -75.58 -0.093166 -75.58 -33.622 -156.00
2.91 -33.593 -156.83 -0.093937 -76.37 -0.093937 -76.37 -33.593 -156.83
2.94 -33.565 -157.65 -0.094706 -77.15 -0.094706 -77.15 -33.565 -157.65
2.97 -33.539 -158.48 -0.095474 -77.94 -0.095474 -77.94 -33.539 -158.48
3 -33.515 -159.30 -0.09624 -78.72 -0.09624 -78.72 -33.515 -159.30
3.03 -33.493 -160.12 -0.097004 -79.51 -0.097004 -79.51 -33.493 -160.12
3.06 -33.473 -160.94 -0.097766 -80.29 -0.097766 -80.29 -33.473 -160.94
3.09 -33.454 -161.76 -0.098527 -81.08 -0.098527 -81.08 -33.454 -161.76
3.12 -33.436 -162.58 -0.099286 -81.86 -0.099286 -81.86 -33.436 -162.58
3.15 -33.421 -163.40 -0.10004 -82.65 -0.10004 -82.65 -33.421 -163.40
3.18 -33.407 -164.22 -0.1008 -83.43 -0.1008 -83.43 -33.407 -164.22
3.21 -33.395 -165.03 -0.10155 -84.22 -0.10155 -84.22 -33.395 -165.03
3.24 -33.384 -165.85 -0.1023 -85.00 -0.1023 -85.00 -33.384 -165.85
3.27 -33.376 -166.66 -0.10305 -85.79 -0.10305 -85.79 -33.376 -166.66
3.3 -33.368 -167.48 -0.1038 -86.57 -0.1038 -86.57 -33.368 -167.48
3.33 -33.363 -168.29 -0.10455 -87.36 -0.10455 -87.36 -33.363 -168.29
3.36 -33.359 -169.11 -0.10529 -88.14 -0.10529 -88.14 -33.359 -169.11
3.39 -33.357 -169.92 -0.10604 -88.93 -0.10604 -88.93 -33.357 -169.92
3.42 -33.356 -170.73 -0.10678 -89.71 -0.10678 -89.71 -33.356 -170.73
3.45 -33.357 -171.54 -0.10752 -90.50 -0.10752 -90.50 -33.357 -171.54
3.48 -33.36 -172.36 -0.10826 -91.28 -0.10826 -91.28 -33.36 -172.36
3.51 -33.364 -173.17 -0.10899 -92.07 -0.10899 -92.07 -33.364 -173.17
3.54 -33.37 -173.98 -0.10973 -92.85 -0.10973 -92.85 -33.37 -173.98
3.57 -33.378 -174.79 -0.11046 -93.64 -0.11046 -93.64 -33.378 -174.79
3.6 -33.387 -175.59 -0.11119 -94.42 -0.11119 -94.42 -33.387 -175.59
3.63 -33.398 -176.40 -0.11192 -95.21 -0.11192 -95.21 -33.398 -176.40
3.66 -33.41 -177.21 -0.11265 -95.99 -0.11265 -95.99 -33.41 -177.21
3.69 -33.425 -178.02 -0.11337 -96.78 -0.11337 -96.78 -33.425 -178.02
3.72 -33.44 -178.82 -0.1141 -97.56 -0.1141 -97.56 -33.44 -178.82
3.75 -33.458 -179.63 -0.11482 -98.35 -0.11482 -98.35 -33.458 -179.63
3.78 -33.477 179.56 -0.11554 -99.13 -0.11554 -99.13 -33.477 179.56
3.81 -33.498 178.76 -0.11626 -99.92 -0.11626 -99.92 -33.498 178.76
3.84 -33.521 177.95 -0.11698 -100.70 -0.11698 -100.70 -33.521 177.95
3.87 -33.545 177.15 -0.11769 -101.49 -0.11769 -101.49 -33.545 177.15
3.9 -33.571 176.35 -0.11841 -102.27 -0.11841 -102.27 -33.571 176.35
3.93 -33.599 175.54 -0.11912 -103.06 -0.11912 -103.06 -33.599 175.54
3.96 -33.628 174.74 -0.11983 -103.84 -0.11983 -103.84 -33.628 174.74
3.99 -33.659 173.94 -0.12054 -104.63 -0.12054 -104.63 -33.659 173.94
4.02 -33.692 173.14 -0.12125 -105.41 -0.12125 -105.41 -33.692 173.14
4.05 -33.727 172.34 -0.12195 -106.20 -0.12195 -106.20 -33.727 172.34
4.08 -33.763 171.54 -0.12266 -106.98 -0.12266 -106.98 -33.763 171.54
4.11 -33.801 170.74 -0.12336 -107.77 -0.12336 -107.77 -33.801 170.74
4.14 -33.842 169.94 -0.12406 -108.55 -0.12406 -108.55 -33.842 169.94
4.17 -33.883 169.14 -0.12476 -109.34 -0.12476 -109.34 -33.883 169.14
4.2 -33.927 168.34 -0.12546 -110.12 -0.12546 -110.12 -33.927 168.34
4.23 -33.973 167.55 -0.12616 -110.91 -0.12616 -110.91 -33.973 167.55
4.26 -34.02 166.75 -0.12686 -111.69 -0.12686 -111.69 -34.02 166.75
4.29 -34.069 165.95 -0.12755 -112.48 -0.12755 -112.48 -34.069 165.95
4.32 -34.121 165.16 -0.12824 -113.26 -0.12824 -113.26 -34.121 165.16
4.35 -34.174 164.36 -0.12893 -114.05 -0.12893 -114.05 -34.174 164.36
4.38 -34.229 163.57 -0.12963 -114.83 -0.12963 -114.83 -34.229 163.57
4.41 -34.286 162.77 -0.13031 -115.62 -0.13031 -115.62 -34.286 162.77
4.44 -34.345 161.98 -0.131 -116.40 -0.131 -116.40 -34.345 161.98
4.47 -34.406 161.19 -0.13169 -117.19 -0.13169 -117.19 -34.406 161.19
4.5 -34.469 160.39 -0.13237 -117.97 -0.13237 -117.97 -34.469 160.39
4.53 -34.535 159.60 -0.13306 -118.76 -0.13306 -118.76 -34.535 159.60
4.56 -34.602 158.81 -0.13374 -119.54 -0.13374 -119.54 -34.602 158.81
4.59 -34.672 158.02 -0.13442 -120.33 -0.13442 -120.33 -34.672 158.02
4.62 -34.744 157.23 -0.1351 -121.11 -0.1351 -121.11 -34.744 157.23
4.65 -34.818 156.44 -0.13578 -121.90 -0.13578 -121.90 -34.818 156.44
4.68 -34.894 155.65 -0.13645 -122.68 -0.13645 -122.68 -34.894 155.65
4.71 -34.972 154.87 -0.13713 -123.47 -0.13713 -123.47 -34.972 154.87
4.74 -35.053 154.08 -0.13781 -124.25 -0.13781 -124.25 -35.053 154.08
4.77 -35.137 153.29 -0.13848 -125.04 -0.13848 -125.04 -35.137 153.29
4.8 -35.222 152.51 -0.13915 -125.82 -0.13915 -125.82 -35.222 152.51
4.83 -35.311 151.72 -0.13982 -126.61 -0.13982 -126.61 -35.311 151.72
4.86 -35.401 150.94 -0.14049 -127.39 -0.14049 -127.39 -35.401 150.94
4.89 -35.495 150.15 -0.14116 -128.18 -0.14116 -128.18 -35.495 150.15
4.92 -35.591 149.37 -0.14183 -128.97 -0.14183 -128.97 -35.591 149.37
4.95 -35.689 148.59 -0.1425 -129.75 -0.1425 -129.75 -35.689 148.59
4.98 -35.791 147.81 -0.14317 -130.54 -0.14317 -130.54 -35.791 147.81
5.01 -35.895 147.03 -0.14383 -131.32 -0.14383 -131.32 -35.895 147.03
5.04 -36.002 146.25 -0.1445 -132.11 -0.1445 -132.11 -36.002 146.25
5.07 -36.112 145.47 -0.14516 -132.89 -0.14516 -132.89 -36.112 145.47
5.1 -36.226 144.69 -0.14582 -133.68 -0.14582 -133.68 -36.226 144.69
5.13 -36.342 143.92 -0.14649 -134.46 -0.14649 -134.46 -36.342 143.92
5.16 -36.461 143.14 -0.14715 -135.25 -0.14715 -135.25 -36.461 143.14
5.19 -36.584 142.37 -0.14781 -136.03 -0.14781 -136.03 -36.584 142.37
5.22 -36.71 141.60 -0.14847 -136.82 -0.14847 -136.82 -36.71 141.60
5.25 -36.84 140.83 -0.14913 -137.60 -0.14913 -137.60 -36.84 140.83
5.28 -36.973 140.06 -0.14979 -138.39 -0.14979 -138.39 -36.973 140.06
5.31 -37.11 139.29 -0.15044 -139.17 -0.15044 -139.17 -37.11 139.29
5.34 -37.251 138.52 -0.1511 -139.96 -0.1511 -139.96 -37.251 138.52
5.37 -37.395 137.75 -0.15176 -140.74 -0.15176 -140.74 -37.395 137.75
5.4 -37.544 136.99 -0.15241 -141.53 -0.15241 -141.53 -37.544 136.99
5.43 -37.697 136.23 -0.15307 -142.32 -0.15307 -142.32 -37.697 136.23
5.46 -37.854 135.47 -0.15372 -143.10 -0.15372 -143.10 -37.854 135.47
5.49 -38.016 134.71 -0.15438 -143.89 -0.15438 -143.89 -38.016 134.71
5.52 -38.183 133.95 -0.15503 -144.67 -0.15503 -144.67 -38.183 133.95
5.55 -38.354 133.20 -0.15568 -145.46 -0.15568 -145.46 -38.354 133.20
5.58 -38.531 132.44 -0.15634 -146.24 -0.15634 -146.24 -38.531 132.44
5.61 -38.712 131.69 -0.15699 -147.03 -0.15699 -147.03 -38.712 131.69
5.64 -38.9 130.95 -0.15764 -147.81 -0.15764 -147.81 -38.9 130.95
5.67 -39.093 130.20 -0.15829 -148.60 -0.15829 -148.60 -39.093 130.20
5.7 -39.292 129.46 -0.15894 -149.38 -0.15894 -149.38 -39.292 129.46
5.73 -39.497 128.72 -0.15959 -150.17 -0.15959 -150.17 -39.497 128.72
5.76 -39.709 127.98 -0.16025 -150.95 -0.16025 -150.95 -39.709 127.98
5.79 -39.927 127.25 -0.1609 -151.74 -0.1609 -151.74 -39.927 127.25
5.82 -40.153 126.52 -0.16155 -152.53 -0.16155 -152.53 -40.153 126.52
5.85 -40.387 125.80 -0.1622 -153.31 -0.1622 -153.31 -40.387 125.80
5.88 -40.629 125.08 -0.16284 -154.10 -0.16284 -154.10 -40.629 125.08
5.91 -40.879 124.37 -0.16349 -154.88 -0.16349 -154.88 -40.879 124.37
5.94 -41.138 123.66 -0.16414 -155.67 -0.16414 -155.67 -41.138 123.66
5.97 -41.407 122.96 -0.16479 -156.45 -0.16479 -156.45 -41.407 122.96
6 -41.686 122.26 -0.16544 -157.24 -0.16544 -157.24 -41.686 122.26
