! yapnr Order 0 O0-M: O0-M A04 M dL30 (line, family M)
! stackup OSHPARK-4L-EM528, nominal parameters; geometry of the OSHPARK-4L-FR408HR design
! model: 2D quasi-static RLGC (Djordjevic-Sarkar, Huray roughness, Wheeler loss); generated by python -m yapnr.rf.coupons expected --stackup OSHPARK-4L-FR408HR --upload M
! reference planes 10 mm from each end; 50 ohm (from the M line's Zc)
# GHz S DB R 50
0.03 -58.6 4.82 -0.01136 -1.89 -0.01136 -1.89 -58.6 4.82
0.06 -55.698 -15.81 -0.016393 -3.73 -0.016393 -3.73 -55.698 -15.81
0.09 -53.404 -30.94 -0.02047 -5.57 -0.02047 -5.57 -53.404 -30.94
0.12 -51.442 -42.23 -0.024055 -7.40 -0.024055 -7.40 -51.442 -42.23
0.15 -49.749 -50.96 -0.027331 -9.23 -0.027331 -9.23 -49.749 -50.96
0.18 -48.277 -57.99 -0.030389 -11.05 -0.030389 -11.05 -48.277 -57.99
0.21 -46.988 -63.87 -0.033286 -12.88 -0.033286 -12.88 -46.988 -63.87
0.24 -45.848 -68.93 -0.036057 -14.70 -0.036057 -14.70 -45.848 -68.93
0.27 -44.83 -73.40 -0.038727 -16.53 -0.038727 -16.53 -44.83 -73.40
0.3 -43.916 -77.42 -0.041313 -18.35 -0.041313 -18.35 -43.916 -77.42
0.33 -43.089 -81.11 -0.043829 -20.17 -0.043829 -20.17 -43.089 -81.11
0.36 -42.335 -84.53 -0.046286 -21.99 -0.046286 -21.99 -42.335 -84.53
0.39 -41.646 -87.74 -0.048692 -23.81 -0.048692 -23.81 -41.646 -87.74
0.42 -41.012 -90.78 -0.051052 -25.63 -0.051052 -25.63 -41.012 -90.78
0.45 -40.427 -93.68 -0.053372 -27.45 -0.053372 -27.45 -40.427 -93.68
0.48 -39.885 -96.46 -0.055657 -29.27 -0.055657 -29.27 -39.885 -96.46
0.51 -39.383 -99.14 -0.057911 -31.09 -0.057911 -31.09 -39.383 -99.14
0.54 -38.914 -101.74 -0.060135 -32.91 -0.060135 -32.91 -38.914 -101.74
0.57 -38.478 -104.27 -0.062334 -34.73 -0.062334 -34.73 -38.478 -104.27
0.6 -38.07 -106.73 -0.064508 -36.54 -0.064508 -36.54 -38.07 -106.73
0.63 -37.689 -109.15 -0.06666 -38.36 -0.06666 -38.36 -37.689 -109.15
0.66 -37.332 -111.51 -0.068792 -40.18 -0.068792 -40.18 -37.332 -111.51
0.69 -36.997 -113.83 -0.070904 -41.99 -0.070904 -41.99 -36.997 -113.83
0.72 -36.683 -116.12 -0.072998 -43.81 -0.072998 -43.81 -36.683 -116.12
0.75 -36.388 -118.37 -0.075074 -45.63 -0.075074 -45.63 -36.388 -118.37
0.78 -36.112 -120.59 -0.077135 -47.44 -0.077135 -47.44 -36.112 -120.59
0.81 -35.853 -122.79 -0.07918 -49.26 -0.07918 -49.26 -35.853 -122.79
0.84 -35.609 -124.96 -0.081209 -51.07 -0.081209 -51.07 -35.609 -124.96
0.87 -35.382 -127.11 -0.083225 -52.89 -0.083225 -52.89 -35.382 -127.11
0.9 -35.168 -129.24 -0.085226 -54.70 -0.085226 -54.70 -35.168 -129.24
0.93 -34.969 -131.35 -0.087214 -56.52 -0.087214 -56.52 -34.969 -131.35
0.96 -34.783 -133.45 -0.089188 -58.33 -0.089188 -58.33 -34.783 -133.45
0.99 -34.609 -135.53 -0.09115 -60.15 -0.09115 -60.15 -34.609 -135.53
1.02 -34.448 -137.59 -0.093098 -61.96 -0.093098 -61.96 -34.448 -137.59
1.05 -34.298 -139.64 -0.095034 -63.77 -0.095034 -63.77 -34.298 -139.64
1.08 -34.16 -141.68 -0.096958 -65.59 -0.096958 -65.59 -34.16 -141.68
1.11 -34.033 -143.71 -0.098869 -67.40 -0.098869 -67.40 -34.033 -143.71
1.14 -33.916 -145.73 -0.10077 -69.21 -0.10077 -69.21 -33.916 -145.73
1.17 -33.81 -147.73 -0.10265 -71.03 -0.10265 -71.03 -33.81 -147.73
1.2 -33.714 -149.73 -0.10453 -72.84 -0.10453 -72.84 -33.714 -149.73
1.23 -33.628 -151.72 -0.10639 -74.65 -0.10639 -74.65 -33.628 -151.72
1.26 -33.552 -153.70 -0.10824 -76.47 -0.10824 -76.47 -33.552 -153.70
1.29 -33.485 -155.67 -0.11008 -78.28 -0.11008 -78.28 -33.485 -155.67
1.32 -33.427 -157.64 -0.11191 -80.09 -0.11191 -80.09 -33.427 -157.64
1.35 -33.379 -159.60 -0.11373 -81.91 -0.11373 -81.91 -33.379 -159.60
1.38 -33.34 -161.55 -0.11553 -83.72 -0.11553 -83.72 -33.34 -161.55
1.41 -33.31 -163.50 -0.11732 -85.53 -0.11732 -85.53 -33.31 -163.50
1.44 -33.289 -165.44 -0.11911 -87.34 -0.11911 -87.34 -33.289 -165.44
1.47 -33.277 -167.37 -0.12088 -89.16 -0.12088 -89.16 -33.277 -167.37
1.5 -33.274 -169.30 -0.12263 -90.97 -0.12263 -90.97 -33.274 -169.30
1.53 -33.279 -171.22 -0.12438 -92.78 -0.12438 -92.78 -33.279 -171.22
1.56 -33.294 -173.14 -0.12612 -94.59 -0.12612 -94.59 -33.294 -173.14
1.59 -33.318 -175.05 -0.12784 -96.40 -0.12784 -96.40 -33.318 -175.05
1.62 -33.35 -176.96 -0.12956 -98.22 -0.12956 -98.22 -33.35 -176.96
1.65 -33.392 -178.86 -0.13126 -100.03 -0.13126 -100.03 -33.392 -178.86
1.68 -33.443 179.24 -0.13296 -101.84 -0.13296 -101.84 -33.443 179.24
1.71 -33.502 177.35 -0.13464 -103.65 -0.13464 -103.65 -33.502 177.35
1.74 -33.572 175.46 -0.13631 -105.46 -0.13631 -105.46 -33.572 175.46
1.77 -33.651 173.57 -0.13797 -107.27 -0.13797 -107.27 -33.651 173.57
1.8 -33.739 171.69 -0.13963 -109.09 -0.13963 -109.09 -33.739 171.69
1.83 -33.837 169.81 -0.14127 -110.90 -0.14127 -110.90 -33.837 169.81
1.86 -33.946 167.94 -0.14291 -112.71 -0.14291 -112.71 -33.946 167.94
1.89 -34.064 166.07 -0.14453 -114.52 -0.14453 -114.52 -34.064 166.07
1.92 -34.193 164.21 -0.14615 -116.33 -0.14615 -116.33 -34.193 164.21
1.95 -34.334 162.35 -0.14775 -118.14 -0.14775 -118.14 -34.334 162.35
1.98 -34.485 160.49 -0.14935 -119.95 -0.14935 -119.95 -34.485 160.49
2.01 -34.648 158.64 -0.15095 -121.77 -0.15095 -121.77 -34.648 158.64
2.04 -34.823 156.80 -0.15253 -123.58 -0.15253 -123.58 -34.823 156.80
2.07 -35.011 154.96 -0.15411 -125.39 -0.15411 -125.39 -35.011 154.96
2.1 -35.212 153.12 -0.15568 -127.20 -0.15568 -127.20 -35.212 153.12
2.13 -35.426 151.29 -0.15724 -129.01 -0.15724 -129.01 -35.426 151.29
2.16 -35.656 149.47 -0.1588 -130.82 -0.1588 -130.82 -35.656 149.47
2.19 -35.9 147.65 -0.16035 -132.63 -0.16035 -132.63 -35.9 147.65
2.22 -36.16 145.83 -0.16189 -134.45 -0.16189 -134.45 -36.16 145.83
2.25 -36.438 144.03 -0.16343 -136.26 -0.16343 -136.26 -36.438 144.03
2.28 -36.733 142.23 -0.16496 -138.07 -0.16496 -138.07 -36.733 142.23
2.31 -37.049 140.44 -0.16649 -139.88 -0.16649 -139.88 -37.049 140.44
2.34 -37.385 138.66 -0.16802 -141.69 -0.16802 -141.69 -37.385 138.66
2.37 -37.743 136.89 -0.16954 -143.50 -0.16954 -143.50 -37.743 136.89
2.4 -38.127 135.13 -0.17106 -145.31 -0.17106 -145.31 -38.127 135.13
2.43 -38.537 133.39 -0.17258 -147.12 -0.17258 -147.12 -38.537 133.39
2.46 -38.976 131.66 -0.17409 -148.94 -0.17409 -148.94 -38.976 131.66
2.49 -39.448 129.95 -0.1756 -150.75 -0.1756 -150.75 -39.448 129.95
2.52 -39.956 128.25 -0.17711 -152.56 -0.17711 -152.56 -39.956 128.25
2.55 -40.505 126.59 -0.17861 -154.37 -0.17861 -154.37 -40.505 126.59
2.58 -41.101 124.95 -0.18012 -156.18 -0.18012 -156.18 -41.101 124.95
2.61 -41.749 123.36 -0.18162 -157.99 -0.18162 -157.99 -41.749 123.36
2.64 -42.459 121.81 -0.18312 -159.80 -0.18312 -159.80 -42.459 121.81
2.67 -43.241 120.32 -0.18462 -161.61 -0.18462 -161.61 -43.241 120.32
2.7 -44.109 118.91 -0.18612 -163.43 -0.18612 -163.43 -44.109 118.91
2.73 -45.083 117.62 -0.18762 -165.24 -0.18762 -165.24 -45.083 117.62
2.76 -46.189 116.47 -0.18913 -167.05 -0.18913 -167.05 -46.189 116.47
2.79 -47.463 115.56 -0.19063 -168.86 -0.19063 -168.86 -47.463 115.56
2.82 -48.964 115.01 -0.19213 -170.67 -0.19213 -170.67 -48.964 115.01
2.85 -50.782 115.07 -0.19363 -172.48 -0.19363 -172.48 -50.782 115.07
2.88 -53.075 116.29 -0.19514 -174.29 -0.19514 -174.29 -53.075 116.29
2.91 -56.143 120.15 -0.19664 -176.10 -0.19664 -176.10 -56.143 120.15
2.94 -60.587 131.98 -0.19815 -177.92 -0.19815 -177.92 -60.587 131.98
2.97 -65.832 176.32 -0.19966 -179.73 -0.19966 -179.73 -65.832 176.32
3 -62.252 -124.59 -0.20117 178.46 -0.20117 178.46 -62.252 -124.59
3.03 -57.272 -107.40 -0.20268 176.65 -0.20268 176.65 -57.272 -107.40
3.06 -53.88 -102.11 -0.20419 174.84 -0.20419 174.84 -53.88 -102.11
3.09 -51.403 -100.34 -0.2057 173.03 -0.2057 173.03 -51.403 -100.34
3.12 -49.468 -100.01 -0.20722 171.22 -0.20722 171.22 -49.468 -100.01
3.15 -47.887 -100.41 -0.20874 169.41 -0.20874 169.41 -47.887 -100.41
3.18 -46.554 -101.22 -0.21026 167.59 -0.21026 167.59 -46.554 -101.22
3.21 -45.405 -102.29 -0.21178 165.78 -0.21178 165.78 -45.405 -102.29
3.24 -44.397 -103.53 -0.21331 163.97 -0.21331 163.97 -44.397 -103.53
3.27 -43.502 -104.89 -0.21483 162.16 -0.21483 162.16 -43.502 -104.89
3.3 -42.697 -106.34 -0.21636 160.35 -0.21636 160.35 -42.697 -106.34
3.33 -41.969 -107.85 -0.21789 158.54 -0.21789 158.54 -41.969 -107.85
3.36 -41.305 -109.41 -0.21942 156.73 -0.21942 156.73 -41.305 -109.41
3.39 -40.697 -111.01 -0.22095 154.92 -0.22095 154.92 -40.697 -111.01
3.42 -40.136 -112.64 -0.22248 153.11 -0.22248 153.11 -40.136 -112.64
3.45 -39.618 -114.29 -0.22402 151.29 -0.22402 151.29 -39.618 -114.29
3.48 -39.137 -115.97 -0.22555 149.48 -0.22555 149.48 -39.137 -115.97
3.51 -38.69 -117.66 -0.22709 147.67 -0.22709 147.67 -38.69 -117.66
3.54 -38.272 -119.36 -0.22862 145.86 -0.22862 145.86 -38.272 -119.36
3.57 -37.883 -121.08 -0.23016 144.05 -0.23016 144.05 -37.883 -121.08
3.6 -37.518 -122.80 -0.2317 142.24 -0.2317 142.24 -37.518 -122.80
3.63 -37.177 -124.54 -0.23323 140.43 -0.23323 140.43 -37.177 -124.54
3.66 -36.857 -126.28 -0.23477 138.62 -0.23477 138.62 -36.857 -126.28
3.69 -36.557 -128.03 -0.2363 136.81 -0.2363 136.81 -36.557 -128.03
3.72 -36.275 -129.78 -0.23784 135.00 -0.23784 135.00 -36.275 -129.78
3.75 -36.011 -131.54 -0.23937 133.19 -0.23937 133.19 -36.011 -131.54
3.78 -35.763 -133.30 -0.2409 131.37 -0.2409 131.37 -35.763 -133.30
3.81 -35.53 -135.06 -0.24244 129.56 -0.24244 129.56 -35.53 -135.06
3.84 -35.312 -136.83 -0.24396 127.75 -0.24396 127.75 -35.312 -136.83
3.87 -35.108 -138.60 -0.24549 125.94 -0.24549 125.94 -35.108 -138.60
3.9 -34.917 -140.37 -0.24702 124.13 -0.24702 124.13 -34.917 -140.37
3.93 -34.738 -142.15 -0.24854 122.32 -0.24854 122.32 -34.738 -142.15
3.96 -34.572 -143.92 -0.25006 120.51 -0.25006 120.51 -34.572 -143.92
3.99 -34.418 -145.70 -0.25158 118.70 -0.25158 118.70 -34.418 -145.70
4.02 -34.275 -147.48 -0.25309 116.89 -0.25309 116.89 -34.275 -147.48
4.05 -34.142 -149.26 -0.2546 115.08 -0.2546 115.08 -34.142 -149.26
4.08 -34.021 -151.04 -0.2561 113.27 -0.2561 113.27 -34.021 -151.04
4.11 -33.909 -152.82 -0.25761 111.46 -0.25761 111.46 -33.909 -152.82
4.14 -33.808 -154.60 -0.2591 109.65 -0.2591 109.65 -33.808 -154.60
4.17 -33.716 -156.38 -0.2606 107.84 -0.2606 107.84 -33.716 -156.38
4.2 -33.634 -158.17 -0.26209 106.03 -0.26209 106.03 -33.634 -158.17
4.23 -33.561 -159.95 -0.26357 104.22 -0.26357 104.22 -33.561 -159.95
4.26 -33.498 -161.73 -0.26505 102.41 -0.26505 102.41 -33.498 -161.73
4.29 -33.444 -163.51 -0.26653 100.60 -0.26653 100.60 -33.444 -163.51
4.32 -33.398 -165.30 -0.26799 98.79 -0.26799 98.79 -33.398 -165.30
4.35 -33.362 -167.08 -0.26946 96.98 -0.26946 96.98 -33.362 -167.08
4.38 -33.334 -168.86 -0.27092 95.16 -0.27092 95.16 -33.334 -168.86
4.41 -33.315 -170.64 -0.27237 93.35 -0.27237 93.35 -33.315 -170.64
4.44 -33.305 -172.42 -0.27382 91.54 -0.27382 91.54 -33.305 -172.42
4.47 -33.303 -174.20 -0.27526 89.73 -0.27526 89.73 -33.303 -174.20
4.5 -33.31 -175.98 -0.27669 87.92 -0.27669 87.92 -33.31 -175.98
4.53 -33.326 -177.75 -0.27813 86.11 -0.27813 86.11 -33.326 -177.75
4.56 -33.35 -179.53 -0.27955 84.30 -0.27955 84.30 -33.35 -179.53
4.59 -33.384 178.70 -0.28097 82.49 -0.28097 82.49 -33.384 178.70
4.62 -33.426 176.92 -0.28238 80.68 -0.28238 80.68 -33.426 176.92
4.65 -33.477 175.15 -0.28379 78.87 -0.28379 78.87 -33.477 175.15
4.68 -33.537 173.38 -0.28519 77.06 -0.28519 77.06 -33.537 173.38
4.71 -33.606 171.61 -0.28659 75.25 -0.28659 75.25 -33.606 171.61
4.74 -33.684 169.84 -0.28798 73.44 -0.28798 73.44 -33.684 169.84
4.77 -33.772 168.08 -0.28937 71.63 -0.28937 71.63 -33.772 168.08
4.8 -33.869 166.31 -0.29075 69.82 -0.29075 69.82 -33.869 166.31
4.83 -33.976 164.55 -0.29212 68.01 -0.29212 68.01 -33.976 164.55
4.86 -34.094 162.80 -0.29349 66.20 -0.29349 66.20 -34.094 162.80
4.89 -34.221 161.04 -0.29486 64.39 -0.29486 64.39 -34.221 161.04
4.92 -34.36 159.29 -0.29622 62.58 -0.29622 62.58 -34.36 159.29
4.95 -34.509 157.54 -0.29758 60.77 -0.29758 60.77 -34.509 157.54
4.98 -34.67 155.80 -0.29893 58.96 -0.29893 58.96 -34.67 155.80
5.01 -34.842 154.06 -0.30028 57.15 -0.30028 57.15 -34.842 154.06
5.04 -35.027 152.32 -0.30162 55.33 -0.30162 55.33 -35.027 152.32
5.07 -35.224 150.59 -0.30297 53.52 -0.30297 53.52 -35.224 150.59
5.1 -35.435 148.86 -0.3043 51.71 -0.3043 51.71 -35.435 148.86
5.13 -35.66 147.15 -0.30564 49.90 -0.30564 49.90 -35.66 147.15
5.16 -35.9 145.43 -0.30697 48.09 -0.30697 48.09 -35.9 145.43
5.19 -36.155 143.73 -0.3083 46.28 -0.3083 46.28 -36.155 143.73
5.22 -36.427 142.03 -0.30963 44.47 -0.30963 44.47 -36.427 142.03
5.25 -36.717 140.35 -0.31096 42.66 -0.31096 42.66 -36.717 140.35
5.28 -37.025 138.67 -0.31228 40.85 -0.31228 40.85 -37.025 138.67
5.31 -37.353 137.01 -0.3136 39.04 -0.3136 39.04 -37.353 137.01
5.34 -37.703 135.36 -0.31492 37.23 -0.31492 37.23 -37.703 135.36
5.37 -38.077 133.73 -0.31624 35.41 -0.31624 35.41 -38.077 133.73
5.4 -38.476 132.12 -0.31756 33.60 -0.31756 33.60 -38.476 132.12
5.43 -38.904 130.53 -0.31888 31.79 -0.31888 31.79 -38.904 130.53
5.46 -39.362 128.96 -0.3202 29.98 -0.3202 29.98 -39.362 128.96
5.49 -39.855 127.43 -0.32152 28.17 -0.32152 28.17 -39.855 127.43
5.52 -40.386 125.94 -0.32284 26.36 -0.32284 26.36 -40.386 125.94
5.55 -40.96 124.49 -0.32416 24.55 -0.32416 24.55 -40.96 124.49
5.58 -41.583 123.10 -0.32549 22.74 -0.32549 22.74 -41.583 123.10
5.61 -42.264 121.78 -0.32681 20.92 -0.32681 20.92 -42.264 121.78
5.64 -43.01 120.55 -0.32813 19.11 -0.32813 19.11 -43.01 120.55
5.67 -43.835 119.44 -0.32946 17.30 -0.32946 17.30 -43.835 119.44
5.7 -44.754 118.49 -0.33079 15.49 -0.33079 15.49 -44.754 118.49
5.73 -45.787 117.77 -0.33212 13.68 -0.33212 13.68 -45.787 117.77
5.76 -46.966 117.36 -0.33345 11.87 -0.33345 11.87 -46.966 117.36
5.79 -48.331 117.44 -0.33478 10.05 -0.33478 10.05 -48.331 117.44
5.82 -49.945 118.30 -0.33612 8.24 -0.33612 8.24 -49.945 118.30
5.85 -51.903 120.54 -0.33745 6.43 -0.33745 6.43 -51.903 120.54
5.88 -54.348 125.45 -0.3388 4.62 -0.3388 4.62 -54.348 125.45
5.91 -57.437 136.46 -0.34014 2.81 -0.34014 2.81 -57.437 136.46
5.94 -60.718 162.18 -0.34149 1.00 -0.34149 1.00 -60.718 162.18
5.97 -60.93 -155.94 -0.34284 -0.82 -0.34284 -0.82 -60.93 -155.94
6 -57.74 -128.41 -0.34419 -2.63 -0.34419 -2.63 -57.74 -128.41
