! yapnr Order 0 O0-M: O0-M A05 M dL70 (line, family M)
! stackup OSHPARK-4L-EM528, nominal parameters; geometry of the OSHPARK-4L-FR408HR design
! model: 2D quasi-static RLGC (Djordjevic-Sarkar, Huray roughness, Wheeler loss); generated by python -m yapnr.rf.coupons expected --stackup OSHPARK-4L-FR408HR --upload M
! reference planes 10 mm from each end; 50 ohm (from the M line's Zc)
# GHz S DB R 50
0.03 -51.231 2.48 -0.026565 -4.40 -0.026565 -4.40 -51.231 2.48
0.06 -48.346 -20.34 -0.03843 -8.71 -0.03843 -8.71 -48.346 -20.34
0.09 -46.097 -37.68 -0.048111 -12.99 -0.048111 -12.99 -46.097 -37.68
0.12 -44.2 -51.23 -0.056689 -17.27 -0.056689 -17.27 -44.2 -51.23
0.15 -42.585 -62.27 -0.064582 -21.54 -0.064582 -21.54 -42.585 -62.27
0.18 -41.205 -71.64 -0.072005 -25.80 -0.072005 -25.80 -41.205 -71.64
0.21 -40.019 -79.87 -0.079083 -30.06 -0.079083 -30.06 -40.019 -79.87
0.24 -38.995 -87.29 -0.085897 -34.32 -0.085897 -34.32 -38.995 -87.29
0.27 -38.107 -94.13 -0.0925 -38.58 -0.0925 -38.58 -38.107 -94.13
0.3 -37.335 -100.53 -0.098931 -42.83 -0.098931 -42.83 -37.335 -100.53
0.33 -36.663 -106.59 -0.10522 -47.08 -0.10522 -47.08 -36.663 -106.59
0.36 -36.081 -112.39 -0.11137 -51.33 -0.11137 -51.33 -36.081 -112.39
0.39 -35.577 -117.97 -0.11742 -55.58 -0.11742 -55.58 -35.577 -117.97
0.42 -35.144 -123.39 -0.12337 -59.83 -0.12337 -59.83 -35.144 -123.39
0.45 -34.777 -128.66 -0.12922 -64.08 -0.12922 -64.08 -34.777 -128.66
0.48 -34.471 -133.81 -0.13499 -68.32 -0.13499 -68.32 -34.471 -133.81
0.51 -34.222 -138.87 -0.14067 -72.57 -0.14067 -72.57 -34.222 -138.87
0.54 -34.026 -143.83 -0.14627 -76.81 -0.14627 -76.81 -34.026 -143.83
0.57 -33.883 -148.72 -0.15179 -81.05 -0.15179 -81.05 -33.883 -148.72
0.6 -33.789 -153.55 -0.15724 -85.29 -0.15724 -85.29 -33.789 -153.55
0.63 -33.745 -158.31 -0.16261 -89.53 -0.16261 -89.53 -33.745 -158.31
0.66 -33.75 -163.02 -0.16791 -93.77 -0.16791 -93.77 -33.75 -163.02
0.69 -33.804 -167.69 -0.17314 -98.01 -0.17314 -98.01 -33.804 -167.69
0.72 -33.907 -172.31 -0.17829 -102.25 -0.17829 -102.25 -33.907 -172.31
0.75 -34.061 -176.89 -0.18338 -106.49 -0.18338 -106.49 -34.061 -176.89
0.78 -34.268 178.57 -0.18841 -110.73 -0.18841 -110.73 -34.268 178.57
0.81 -34.529 174.06 -0.19337 -114.97 -0.19337 -114.97 -34.529 174.06
0.84 -34.85 169.60 -0.19827 -119.20 -0.19827 -119.20 -34.85 169.60
0.87 -35.233 165.17 -0.20312 -123.44 -0.20312 -123.44 -35.233 165.17
0.9 -35.686 160.79 -0.20791 -127.68 -0.20791 -127.68 -35.686 160.79
0.93 -36.214 156.44 -0.21266 -131.91 -0.21266 -131.91 -36.214 156.44
0.96 -36.829 152.15 -0.21736 -136.15 -0.21736 -136.15 -36.829 152.15
0.99 -37.544 147.92 -0.22202 -140.38 -0.22202 -140.38 -37.544 147.92
1.02 -38.376 143.75 -0.22665 -144.62 -0.22665 -144.62 -38.376 143.75
1.05 -39.35 139.69 -0.23124 -148.85 -0.23124 -148.85 -39.35 139.69
1.08 -40.501 135.75 -0.23581 -153.09 -0.23581 -153.09 -40.501 135.75
1.11 -41.885 132.02 -0.24036 -157.32 -0.24036 -157.32 -41.885 132.02
1.14 -43.589 128.61 -0.2449 -161.56 -0.2449 -161.56 -43.589 128.61
1.17 -45.767 125.81 -0.24942 -165.79 -0.24942 -165.79 -45.767 125.81
1.2 -48.731 124.35 -0.25393 -170.03 -0.25393 -170.03 -48.731 124.35
1.23 -53.256 126.98 -0.25844 -174.26 -0.25844 -174.26 -53.256 126.98
1.26 -61.568 155.16 -0.26294 -178.50 -0.26294 -178.50 -61.568 155.16
1.29 -58.538 -111.16 -0.26745 177.27 -0.26745 177.27 -58.538 -111.16
1.32 -51.661 -97.11 -0.27196 173.03 -0.27196 173.03 -51.661 -97.11
1.35 -47.735 -96.27 -0.27647 168.80 -0.27647 168.80 -47.735 -96.27
1.38 -45.051 -98.21 -0.28099 164.56 -0.28099 164.56 -45.051 -98.21
1.41 -43.034 -101.17 -0.28551 160.33 -0.28551 160.33 -43.034 -101.17
1.44 -41.435 -104.60 -0.29004 156.10 -0.29004 156.10 -41.435 -104.60
1.47 -40.125 -108.29 -0.29458 151.86 -0.29458 151.86 -40.125 -108.29
1.5 -39.028 -112.14 -0.29912 147.63 -0.29912 147.63 -39.028 -112.14
1.53 -38.096 -116.09 -0.30366 143.40 -0.30366 143.40 -38.096 -116.09
1.56 -37.298 -120.11 -0.30821 139.17 -0.30821 139.17 -37.298 -120.11
1.59 -36.61 -124.17 -0.31275 134.93 -0.31275 134.93 -36.61 -124.17
1.62 -36.018 -128.26 -0.31729 130.70 -0.31729 130.70 -36.018 -128.26
1.65 -35.508 -132.38 -0.32183 126.47 -0.32183 126.47 -35.508 -132.38
1.68 -35.071 -136.51 -0.32635 122.24 -0.32635 122.24 -35.071 -136.51
1.71 -34.701 -140.66 -0.33086 118.01 -0.33086 118.01 -34.701 -140.66
1.74 -34.392 -144.81 -0.33536 113.78 -0.33536 113.78 -34.392 -144.81
1.77 -34.139 -148.97 -0.33983 109.55 -0.33983 109.55 -34.139 -148.97
1.8 -33.94 -153.12 -0.34429 105.31 -0.34429 105.31 -33.94 -153.12
1.83 -33.791 -157.28 -0.34872 101.08 -0.34872 101.08 -33.791 -157.28
1.86 -33.692 -161.44 -0.35313 96.85 -0.35313 96.85 -33.692 -161.44
1.89 -33.641 -165.59 -0.35751 92.62 -0.35751 92.62 -33.641 -165.59
1.92 -33.638 -169.74 -0.36186 88.39 -0.36186 88.39 -33.638 -169.74
1.95 -33.681 -173.87 -0.36618 84.17 -0.36618 84.17 -33.681 -173.87
1.98 -33.773 -178.00 -0.37047 79.94 -0.37047 79.94 -33.773 -178.00
2.01 -33.914 177.88 -0.37472 75.71 -0.37472 75.71 -33.914 177.88
2.04 -34.105 173.77 -0.37895 71.48 -0.37895 71.48 -34.105 173.77
2.07 -34.348 169.68 -0.38315 67.25 -0.38315 67.25 -34.348 169.68
2.1 -34.648 165.62 -0.38732 63.02 -0.38732 63.02 -34.648 165.62
2.13 -35.006 161.57 -0.39146 58.79 -0.39146 58.79 -35.006 161.57
2.16 -35.429 157.56 -0.39558 54.56 -0.39558 54.56 -35.429 157.56
2.19 -35.924 153.59 -0.39967 50.33 -0.39967 50.33 -35.924 153.59
2.22 -36.498 149.66 -0.40375 46.10 -0.40375 46.10 -36.498 149.66
2.25 -37.162 145.80 -0.4078 41.87 -0.4078 41.87 -37.162 145.80
2.28 -37.932 142.02 -0.41185 37.64 -0.41185 37.64 -37.932 142.02
2.31 -38.828 138.35 -0.41588 33.41 -0.41588 33.41 -38.828 138.35
2.34 -39.877 134.85 -0.41991 29.19 -0.41991 29.19 -39.877 134.85
2.37 -41.123 131.60 -0.42393 24.96 -0.42393 24.96 -41.123 131.60
2.4 -42.627 128.74 -0.42796 20.73 -0.42796 20.73 -42.627 128.74
2.43 -44.495 126.56 -0.43198 16.50 -0.43198 16.50 -44.495 126.56
2.46 -46.913 125.73 -0.43601 12.27 -0.43601 12.27 -46.913 125.73
2.49 -50.251 128.17 -0.44005 8.04 -0.44005 8.04 -50.251 128.17
2.52 -55.235 141.67 -0.44409 3.81 -0.44409 3.81 -55.235 141.67
2.55 -59.362 -161.98 -0.44815 -0.42 -0.44815 -0.42 -59.362 -161.98
2.58 -54.028 -117.00 -0.45222 -4.65 -0.45222 -4.65 -54.028 -117.00
2.61 -49.464 -107.26 -0.4563 -8.88 -0.4563 -8.88 -49.464 -107.26
2.64 -46.37 -105.78 -0.4604 -13.11 -0.4604 -13.11 -46.37 -105.78
2.67 -44.096 -106.97 -0.46451 -17.34 -0.46451 -17.34 -44.096 -106.97
2.7 -42.322 -109.30 -0.46863 -21.57 -0.46863 -21.57 -42.322 -109.30
2.73 -40.885 -112.24 -0.47277 -25.80 -0.47277 -25.80 -40.885 -112.24
2.76 -39.692 -115.52 -0.47691 -30.03 -0.47691 -30.03 -39.692 -115.52
2.79 -38.684 -119.02 -0.48107 -34.26 -0.48107 -34.26 -38.684 -119.02
2.82 -37.823 -122.67 -0.48523 -38.49 -0.48523 -38.49 -37.823 -122.67
2.85 -37.083 -126.42 -0.4894 -42.72 -0.4894 -42.72 -37.083 -126.42
2.88 -36.445 -130.25 -0.49357 -46.95 -0.49357 -46.95 -36.445 -130.25
2.91 -35.895 -134.12 -0.49774 -51.17 -0.49774 -51.17 -35.895 -134.12
2.94 -35.422 -138.04 -0.5019 -55.40 -0.5019 -55.40 -35.422 -138.04
2.97 -35.019 -141.99 -0.50606 -59.63 -0.50606 -59.63 -35.019 -141.99
3 -34.68 -145.96 -0.51021 -63.86 -0.51021 -63.86 -34.68 -145.96
3.03 -34.399 -149.94 -0.51434 -68.09 -0.51434 -68.09 -34.399 -149.94
3.06 -34.172 -153.94 -0.51846 -72.31 -0.51846 -72.31 -34.172 -153.94
3.09 -33.998 -157.95 -0.52256 -76.54 -0.52256 -76.54 -33.998 -157.95
3.12 -33.873 -161.96 -0.52665 -80.77 -0.52665 -80.77 -33.873 -161.96
3.15 -33.797 -165.97 -0.53071 -85.00 -0.53071 -85.00 -33.797 -165.97
3.18 -33.769 -169.98 -0.53474 -89.22 -0.53474 -89.22 -33.769 -169.98
3.21 -33.787 -173.99 -0.53876 -93.45 -0.53876 -93.45 -33.787 -173.99
3.24 -33.853 -177.99 -0.54274 -97.68 -0.54274 -97.68 -33.853 -177.99
3.27 -33.967 178.02 -0.5467 -101.91 -0.5467 -101.91 -33.967 178.02
3.3 -34.13 174.05 -0.55064 -106.13 -0.55064 -106.13 -34.13 174.05
3.33 -34.345 170.09 -0.55455 -110.36 -0.55455 -110.36 -34.345 170.09
3.36 -34.612 166.15 -0.55844 -114.59 -0.55844 -114.59 -34.612 166.15
3.39 -34.937 162.24 -0.56231 -118.82 -0.56231 -118.82 -34.937 162.24
3.42 -35.322 158.36 -0.56616 -123.04 -0.56616 -123.04 -35.322 158.36
3.45 -35.775 154.52 -0.56998 -127.27 -0.56998 -127.27 -35.775 154.52
3.48 -36.301 150.75 -0.5738 -131.50 -0.5738 -131.50 -36.301 150.75
3.51 -36.911 147.04 -0.57759 -135.73 -0.57759 -135.73 -36.911 147.04
3.54 -37.616 143.43 -0.58138 -139.95 -0.58138 -139.95 -37.616 143.43
3.57 -38.433 139.94 -0.58517 -144.18 -0.58517 -144.18 -38.433 139.94
3.6 -39.384 136.64 -0.58894 -148.41 -0.58894 -148.41 -39.384 136.64
3.63 -40.502 133.59 -0.59272 -152.64 -0.59272 -152.64 -40.502 133.59
3.66 -41.833 130.95 -0.5965 -156.87 -0.5965 -156.87 -41.833 130.95
3.69 -43.448 128.96 -0.60028 -161.09 -0.60028 -161.09 -43.448 128.96
3.72 -45.466 128.16 -0.60407 -165.32 -0.60407 -165.32 -45.466 128.16
3.75 -48.087 129.80 -0.60787 -169.55 -0.60787 -169.55 -48.087 129.80
3.78 -51.637 137.62 -0.61167 -173.78 -0.61167 -173.78 -51.637 137.62
3.81 -55.92 164.37 -0.6155 -178.01 -0.6155 -178.01 -55.92 164.37
3.84 -55.666 -144.96 -0.61933 177.76 -0.61933 177.76 -55.666 -144.96
3.87 -51.363 -120.27 -0.62318 173.53 -0.62318 173.53 -51.363 -120.27
3.9 -47.897 -113.13 -0.62705 169.30 -0.62705 169.30 -47.897 -113.13
3.93 -45.335 -111.72 -0.63093 165.08 -0.63093 165.08 -45.335 -111.72
3.96 -43.359 -112.62 -0.63483 160.85 -0.63483 160.85 -43.359 -112.62
3.99 -41.774 -114.65 -0.63874 156.62 -0.63874 156.62 -41.774 -114.65
4.02 -40.468 -117.31 -0.64266 152.39 -0.64266 152.39 -40.468 -117.31
4.05 -39.371 -120.35 -0.64659 148.16 -0.64659 148.16 -39.371 -120.35
4.08 -38.438 -123.65 -0.65053 143.93 -0.65053 143.93 -38.438 -123.65
4.11 -37.637 -127.11 -0.65448 139.70 -0.65448 139.70 -37.637 -127.11
4.14 -36.947 -130.70 -0.65843 135.48 -0.65843 135.48 -36.947 -130.70
4.17 -36.351 -134.37 -0.66239 131.25 -0.66239 131.25 -36.351 -134.37
4.2 -35.838 -138.11 -0.66634 127.02 -0.66634 127.02 -35.838 -138.11
4.23 -35.398 -141.91 -0.67029 122.79 -0.67029 122.79 -35.398 -141.91
4.26 -35.024 -145.73 -0.67423 118.56 -0.67423 118.56 -35.024 -145.73
4.29 -34.712 -149.59 -0.67816 114.34 -0.67816 114.34 -34.712 -149.59
4.32 -34.455 -153.47 -0.68208 110.11 -0.68208 110.11 -34.455 -153.47
4.35 -34.252 -157.37 -0.68599 105.88 -0.68599 105.88 -34.252 -157.37
4.38 -34.1 -161.27 -0.68987 101.65 -0.68987 101.65 -34.1 -161.27
4.41 -33.997 -165.18 -0.69374 97.43 -0.69374 97.43 -33.997 -165.18
4.44 -33.941 -169.10 -0.69759 93.20 -0.69759 93.20 -33.941 -169.10
4.47 -33.933 -173.01 -0.70142 88.97 -0.70142 88.97 -33.933 -173.01
4.5 -33.972 -176.92 -0.70522 84.74 -0.70522 84.74 -33.972 -176.92
4.53 -34.058 179.18 -0.709 80.52 -0.709 80.52 -34.058 179.18
4.56 -34.193 175.29 -0.71276 76.29 -0.71276 76.29 -34.193 175.29
4.59 -34.377 171.42 -0.7165 72.06 -0.7165 72.06 -34.377 171.42
4.62 -34.613 167.57 -0.72021 67.83 -0.72021 67.83 -34.613 167.57
4.65 -34.904 163.75 -0.7239 63.61 -0.7239 63.61 -34.904 163.75
4.68 -35.253 159.97 -0.72758 59.38 -0.72758 59.38 -35.253 159.97
4.71 -35.665 156.23 -0.73124 55.15 -0.73124 55.15 -35.665 156.23
4.74 -36.146 152.56 -0.73488 50.92 -0.73488 50.92 -36.146 152.56
4.77 -36.703 148.96 -0.73852 46.69 -0.73852 46.69 -36.703 148.96
4.8 -37.349 145.46 -0.74214 42.47 -0.74214 42.47 -37.349 145.46
4.83 -38.094 142.09 -0.74575 38.24 -0.74575 38.24 -38.094 142.09
4.86 -38.958 138.90 -0.74937 34.01 -0.74937 34.01 -38.958 138.90
4.89 -39.966 135.98 -0.75298 29.78 -0.75298 29.78 -39.966 135.98
4.92 -41.152 133.43 -0.75659 25.55 -0.75659 25.55 -41.152 133.43
4.95 -42.568 131.49 -0.76021 21.32 -0.76021 21.32 -42.568 131.49
4.98 -44.292 130.55 -0.76383 17.09 -0.76383 17.09 -44.292 130.55
5.01 -46.445 131.48 -0.76747 12.87 -0.76747 12.87 -46.445 131.48
5.04 -49.203 136.37 -0.77111 8.64 -0.77111 8.64 -49.203 136.37
5.07 -52.618 150.98 -0.77477 4.41 -0.77477 4.41 -52.618 150.98
5.1 -54.982 -174.35 -0.77844 0.18 -0.77844 0.18 -54.982 -174.35
5.13 -52.872 -138.35 -0.78212 -4.05 -0.78212 -4.05 -52.872 -138.35
5.16 -49.439 -122.66 -0.78583 -8.28 -0.78583 -8.28 -49.439 -122.66
5.19 -46.64 -117.33 -0.78954 -12.51 -0.78954 -12.51 -46.64 -117.33
5.22 -44.458 -116.21 -0.79327 -16.74 -0.79327 -16.74 -44.458 -116.21
5.25 -42.716 -117.04 -0.79702 -20.97 -0.79702 -20.97 -42.716 -117.04
5.28 -41.289 -118.91 -0.80078 -25.20 -0.80078 -25.20 -41.289 -118.91
5.31 -40.097 -121.40 -0.80455 -29.43 -0.80455 -29.43 -40.097 -121.40
5.34 -39.086 -124.29 -0.80833 -33.66 -0.80833 -33.66 -39.086 -124.29
5.37 -38.22 -127.43 -0.81212 -37.89 -0.81212 -37.89 -38.22 -127.43
5.4 -37.474 -130.76 -0.81592 -42.12 -0.81592 -42.12 -37.474 -130.76
5.43 -36.83 -134.23 -0.81972 -46.35 -0.81972 -46.35 -36.83 -134.23
5.46 -36.274 -137.79 -0.82352 -50.57 -0.82352 -50.57 -36.274 -137.79
5.49 -35.796 -141.43 -0.82731 -54.80 -0.82731 -54.80 -35.796 -141.43
5.52 -35.387 -145.12 -0.8311 -59.03 -0.8311 -59.03 -35.387 -145.12
5.55 -35.042 -148.85 -0.83489 -63.26 -0.83489 -63.26 -35.042 -148.85
5.58 -34.755 -152.62 -0.83866 -67.49 -0.83866 -67.49 -34.755 -152.62
5.61 -34.522 -156.41 -0.84242 -71.72 -0.84242 -71.72 -34.522 -156.41
5.64 -34.342 -160.22 -0.84617 -75.95 -0.84617 -75.95 -34.342 -160.22
5.67 -34.211 -164.05 -0.8499 -80.18 -0.8499 -80.18 -34.211 -164.05
5.7 -34.129 -167.87 -0.85361 -84.40 -0.85361 -84.40 -34.129 -167.87
5.73 -34.094 -171.71 -0.8573 -88.63 -0.8573 -88.63 -34.094 -171.71
5.76 -34.106 -175.54 -0.86097 -92.86 -0.86097 -92.86 -34.106 -175.54
5.79 -34.165 -179.36 -0.86462 -97.09 -0.86462 -97.09 -34.165 -179.36
5.82 -34.272 176.83 -0.86825 -101.32 -0.86825 -101.32 -34.272 176.83
5.85 -34.427 173.04 -0.87185 -105.55 -0.87185 -105.55 -34.427 173.04
5.88 -34.633 169.26 -0.87544 -109.78 -0.87544 -109.78 -34.633 169.26
5.91 -34.891 165.52 -0.87901 -114.00 -0.87901 -114.00 -34.891 165.52
5.94 -35.205 161.81 -0.88256 -118.23 -0.88256 -118.23 -35.205 161.81
5.97 -35.579 158.16 -0.88609 -122.46 -0.88609 -122.46 -35.579 158.16
6 -36.018 154.56 -0.88961 -126.69 -0.88961 -126.69 -36.018 154.56
