! yapnr Order 0 O0-M: O0-M A07 M VER21 (verify, family M)
! stackup OSHPARK-4L-EM528, nominal parameters; geometry of the OSHPARK-4L-FR408HR design
! model: 2D quasi-static RLGC (Djordjevic-Sarkar, Huray roughness, Wheeler loss); generated by python -m yapnr.rf.coupons expected --stackup OSHPARK-4L-FR408HR --upload M
! reference planes 10 mm from each end; 50 ohm (from the M line's Zc)
# GHz S DB R 50
0.03 -61.694 5.39 -0.0079532 -1.32 -0.0079532 -1.32 -61.694 5.39
0.06 -58.788 -14.70 -0.011477 -2.61 -0.011477 -2.61 -58.788 -14.70
0.09 -56.489 -29.28 -0.014331 -3.90 -0.014331 -3.90 -56.489 -29.28
0.12 -54.521 -40.01 -0.01684 -5.18 -0.01684 -5.18 -54.521 -40.01
0.15 -52.819 -48.20 -0.019131 -6.46 -0.019131 -6.46 -52.819 -48.20
0.18 -51.339 -54.69 -0.021269 -7.74 -0.021269 -7.74 -51.339 -54.69
0.21 -50.038 -60.02 -0.023292 -9.02 -0.023292 -9.02 -50.038 -60.02
0.24 -48.886 -64.53 -0.025226 -10.29 -0.025226 -10.29 -48.886 -64.53
0.27 -47.855 -68.45 -0.027088 -11.57 -0.027088 -11.57 -47.855 -68.45
0.3 -46.926 -71.93 -0.02889 -12.84 -0.02889 -12.84 -46.926 -71.93
0.33 -46.082 -75.07 -0.030643 -14.12 -0.030643 -14.12 -46.082 -75.07
0.36 -45.31 -77.95 -0.032352 -15.39 -0.032352 -15.39 -45.31 -77.95
0.39 -44.601 -80.62 -0.034025 -16.67 -0.034025 -16.67 -44.601 -80.62
0.42 -43.945 -83.11 -0.035665 -17.94 -0.035665 -17.94 -43.945 -83.11
0.45 -43.338 -85.47 -0.037276 -19.22 -0.037276 -19.22 -43.338 -85.47
0.48 -42.771 -87.71 -0.038862 -20.49 -0.038862 -20.49 -42.771 -87.71
0.51 -42.243 -89.85 -0.040425 -21.76 -0.040425 -21.76 -42.243 -89.85
0.54 -41.747 -91.91 -0.041967 -23.04 -0.041967 -23.04 -41.747 -91.91
0.57 -41.281 -93.89 -0.043491 -24.31 -0.043491 -24.31 -41.281 -93.89
0.6 -40.842 -95.82 -0.044997 -25.58 -0.044997 -25.58 -40.842 -95.82
0.63 -40.428 -97.69 -0.046488 -26.85 -0.046488 -26.85 -40.428 -97.69
0.66 -40.037 -99.51 -0.047964 -28.12 -0.047964 -28.12 -40.037 -99.51
0.69 -39.666 -101.30 -0.049427 -29.40 -0.049427 -29.40 -39.666 -101.30
0.72 -39.314 -103.04 -0.050877 -30.67 -0.050877 -30.67 -39.314 -103.04
0.75 -38.98 -104.75 -0.052316 -31.94 -0.052316 -31.94 -38.98 -104.75
0.78 -38.662 -106.44 -0.053744 -33.21 -0.053744 -33.21 -38.662 -106.44
0.81 -38.36 -108.09 -0.055161 -34.48 -0.055161 -34.48 -38.36 -108.09
0.84 -38.072 -109.73 -0.056569 -35.75 -0.056569 -35.75 -38.072 -109.73
0.87 -37.797 -111.34 -0.057968 -37.02 -0.057968 -37.02 -37.797 -111.34
0.9 -37.535 -112.93 -0.059357 -38.29 -0.059357 -38.29 -37.535 -112.93
0.93 -37.285 -114.50 -0.060739 -39.56 -0.060739 -39.56 -37.285 -114.50
0.96 -37.046 -116.06 -0.062113 -40.83 -0.062113 -40.83 -37.046 -116.06
0.99 -36.818 -117.60 -0.063479 -42.10 -0.063479 -42.10 -36.818 -117.60
1.02 -36.6 -119.13 -0.064837 -43.37 -0.064837 -43.37 -36.6 -119.13
1.05 -36.391 -120.65 -0.066189 -44.64 -0.066189 -44.64 -36.391 -120.65
1.08 -36.192 -122.15 -0.067533 -45.91 -0.067533 -45.91 -36.192 -122.15
1.11 -36.001 -123.64 -0.068871 -47.18 -0.068871 -47.18 -36.001 -123.64
1.14 -35.819 -125.12 -0.070203 -48.45 -0.070203 -48.45 -35.819 -125.12
1.17 -35.645 -126.59 -0.071528 -49.72 -0.071528 -49.72 -35.645 -126.59
1.2 -35.479 -128.06 -0.072847 -50.99 -0.072847 -50.99 -35.479 -128.06
1.23 -35.32 -129.51 -0.07416 -52.26 -0.07416 -52.26 -35.32 -129.51
1.26 -35.168 -130.96 -0.075467 -53.53 -0.075467 -53.53 -35.168 -130.96
1.29 -35.023 -132.40 -0.076768 -54.80 -0.076768 -54.80 -35.023 -132.40
1.32 -34.885 -133.83 -0.078063 -56.07 -0.078063 -56.07 -34.885 -133.83
1.35 -34.754 -135.26 -0.079353 -57.34 -0.079353 -57.34 -34.754 -135.26
1.38 -34.628 -136.68 -0.080637 -58.61 -0.080637 -58.61 -34.628 -136.68
1.41 -34.509 -138.09 -0.081915 -59.88 -0.081915 -59.88 -34.509 -138.09
1.44 -34.396 -139.50 -0.083188 -61.15 -0.083188 -61.15 -34.396 -139.50
1.47 -34.289 -140.90 -0.084456 -62.41 -0.084456 -62.41 -34.289 -140.90
1.5 -34.187 -142.30 -0.085718 -63.68 -0.085718 -63.68 -34.187 -142.30
1.53 -34.091 -143.70 -0.086974 -64.95 -0.086974 -64.95 -34.091 -143.70
1.56 -34 -145.08 -0.088225 -66.22 -0.088225 -66.22 -34 -145.08
1.59 -33.914 -146.47 -0.089471 -67.49 -0.089471 -67.49 -33.914 -146.47
1.62 -33.834 -147.85 -0.090711 -68.76 -0.090711 -68.76 -33.834 -147.85
1.65 -33.759 -149.23 -0.091946 -70.03 -0.091946 -70.03 -33.759 -149.23
1.68 -33.688 -150.60 -0.093176 -71.29 -0.093176 -71.29 -33.688 -150.60
1.71 -33.623 -151.97 -0.0944 -72.56 -0.0944 -72.56 -33.623 -151.97
1.74 -33.562 -153.34 -0.095619 -73.83 -0.095619 -73.83 -33.562 -153.34
1.77 -33.507 -154.70 -0.096833 -75.10 -0.096833 -75.10 -33.507 -154.70
1.8 -33.455 -156.06 -0.098041 -76.37 -0.098041 -76.37 -33.455 -156.06
1.83 -33.409 -157.42 -0.099245 -77.64 -0.099245 -77.64 -33.409 -157.42
1.86 -33.367 -158.77 -0.10044 -78.90 -0.10044 -78.90 -33.367 -158.77
1.89 -33.33 -160.12 -0.10164 -80.17 -0.10164 -80.17 -33.33 -160.12
1.92 -33.297 -161.47 -0.10282 -81.44 -0.10282 -81.44 -33.297 -161.47
1.95 -33.268 -162.82 -0.104 -82.71 -0.104 -82.71 -33.268 -162.82
1.98 -33.244 -164.16 -0.10518 -83.98 -0.10518 -83.98 -33.244 -164.16
2.01 -33.225 -165.50 -0.10635 -85.24 -0.10635 -85.24 -33.225 -165.50
2.04 -33.21 -166.84 -0.10752 -86.51 -0.10752 -86.51 -33.21 -166.84
2.07 -33.199 -168.18 -0.10868 -87.78 -0.10868 -87.78 -33.199 -168.18
2.1 -33.192 -169.51 -0.10984 -89.05 -0.10984 -89.05 -33.192 -169.51
2.13 -33.19 -170.84 -0.11099 -90.31 -0.11099 -90.31 -33.19 -170.84
2.16 -33.192 -172.17 -0.11213 -91.58 -0.11213 -91.58 -33.192 -172.17
2.19 -33.199 -173.50 -0.11328 -92.85 -0.11328 -92.85 -33.199 -173.50
2.22 -33.21 -174.82 -0.11441 -94.12 -0.11441 -94.12 -33.21 -174.82
2.25 -33.225 -176.15 -0.11554 -95.39 -0.11554 -95.39 -33.225 -176.15
2.28 -33.244 -177.47 -0.11667 -96.65 -0.11667 -96.65 -33.244 -177.47
2.31 -33.268 -178.79 -0.11779 -97.92 -0.11779 -97.92 -33.268 -178.79
2.34 -33.297 179.89 -0.11891 -99.19 -0.11891 -99.19 -33.297 179.89
2.37 -33.329 178.58 -0.12002 -100.46 -0.12002 -100.46 -33.329 178.58
2.4 -33.367 177.26 -0.12112 -101.72 -0.12112 -101.72 -33.367 177.26
2.43 -33.408 175.95 -0.12223 -102.99 -0.12223 -102.99 -33.408 175.95
2.46 -33.455 174.64 -0.12332 -104.26 -0.12332 -104.26 -33.455 174.64
2.49 -33.505 173.33 -0.12442 -105.53 -0.12442 -105.53 -33.505 173.33
2.52 -33.561 172.03 -0.12551 -106.79 -0.12551 -106.79 -33.561 172.03
2.55 -33.621 170.72 -0.12659 -108.06 -0.12659 -108.06 -33.621 170.72
2.58 -33.686 169.42 -0.12767 -109.33 -0.12767 -109.33 -33.686 169.42
2.61 -33.755 168.11 -0.12874 -110.60 -0.12874 -110.60 -33.755 168.11
2.64 -33.83 166.81 -0.12982 -111.86 -0.12982 -111.86 -33.83 166.81
2.67 -33.909 165.52 -0.13088 -113.13 -0.13088 -113.13 -33.909 165.52
2.7 -33.994 164.22 -0.13194 -114.40 -0.13194 -114.40 -33.994 164.22
2.73 -34.084 162.92 -0.133 -115.67 -0.133 -115.67 -34.084 162.92
2.76 -34.179 161.63 -0.13406 -116.93 -0.13406 -116.93 -34.179 161.63
2.79 -34.279 160.34 -0.13511 -118.20 -0.13511 -118.20 -34.279 160.34
2.82 -34.385 159.05 -0.13616 -119.47 -0.13616 -119.47 -34.385 159.05
2.85 -34.497 157.76 -0.1372 -120.74 -0.1372 -120.74 -34.497 157.76
2.88 -34.614 156.48 -0.13824 -122.00 -0.13824 -122.00 -34.614 156.48
2.91 -34.737 155.19 -0.13928 -123.27 -0.13928 -123.27 -34.737 155.19
2.94 -34.867 153.91 -0.14031 -124.54 -0.14031 -124.54 -34.867 153.91
2.97 -35.002 152.63 -0.14134 -125.80 -0.14134 -125.80 -35.002 152.63
3 -35.145 151.36 -0.14237 -127.07 -0.14237 -127.07 -35.145 151.36
3.03 -35.293 150.08 -0.1434 -128.34 -0.1434 -128.34 -35.293 150.08
3.06 -35.449 148.81 -0.14442 -129.61 -0.14442 -129.61 -35.449 148.81
3.09 -35.612 147.54 -0.14544 -130.87 -0.14544 -130.87 -35.612 147.54
3.12 -35.783 146.27 -0.14646 -132.14 -0.14646 -132.14 -35.783 146.27
3.15 -35.961 145.01 -0.14747 -133.41 -0.14747 -133.41 -35.961 145.01
3.18 -36.147 143.75 -0.14848 -134.68 -0.14848 -134.68 -36.147 143.75
3.21 -36.342 142.49 -0.14949 -135.94 -0.14949 -135.94 -36.342 142.49
3.24 -36.545 141.23 -0.1505 -137.21 -0.1505 -137.21 -36.545 141.23
3.27 -36.758 139.98 -0.15151 -138.48 -0.15151 -138.48 -36.758 139.98
3.3 -36.98 138.73 -0.15251 -139.75 -0.15251 -139.75 -36.98 138.73
3.33 -37.213 137.49 -0.15351 -141.01 -0.15351 -141.01 -37.213 137.49
3.36 -37.456 136.25 -0.15451 -142.28 -0.15451 -142.28 -37.456 136.25
3.39 -37.711 135.01 -0.15551 -143.55 -0.15551 -143.55 -37.711 135.01
3.42 -37.977 133.78 -0.15651 -144.82 -0.15651 -144.82 -37.977 133.78
3.45 -38.257 132.56 -0.1575 -146.08 -0.1575 -146.08 -38.257 132.56
3.48 -38.55 131.34 -0.1585 -147.35 -0.1585 -147.35 -38.55 131.34
3.51 -38.858 130.13 -0.15949 -148.62 -0.15949 -148.62 -38.858 130.13
3.54 -39.181 128.92 -0.16049 -149.89 -0.16049 -149.89 -39.181 128.92
3.57 -39.521 127.73 -0.16148 -151.15 -0.16148 -151.15 -39.521 127.73
3.6 -39.88 126.54 -0.16247 -152.42 -0.16247 -152.42 -39.88 126.54
3.63 -40.258 125.37 -0.16346 -153.69 -0.16346 -153.69 -40.258 125.37
3.66 -40.658 124.21 -0.16445 -154.96 -0.16445 -154.96 -40.658 124.21
3.69 -41.081 123.06 -0.16544 -156.23 -0.16544 -156.23 -41.081 123.06
3.72 -41.53 121.93 -0.16643 -157.49 -0.16643 -157.49 -41.53 121.93
3.75 -42.009 120.83 -0.16742 -158.76 -0.16742 -158.76 -42.009 120.83
3.78 -42.519 119.74 -0.16841 -160.03 -0.16841 -160.03 -42.519 119.74
3.81 -43.066 118.68 -0.16939 -161.30 -0.16939 -161.30 -43.066 118.68
3.84 -43.653 117.66 -0.17038 -162.56 -0.17038 -162.56 -43.653 117.66
3.87 -44.288 116.68 -0.17137 -163.83 -0.17137 -163.83 -44.288 116.68
3.9 -44.976 115.75 -0.17236 -165.10 -0.17236 -165.10 -44.976 115.75
3.93 -45.728 114.89 -0.17335 -166.37 -0.17335 -166.37 -45.728 114.89
3.96 -46.555 114.12 -0.17434 -167.63 -0.17434 -167.63 -46.555 114.12
3.99 -47.473 113.47 -0.17533 -168.90 -0.17533 -168.90 -47.473 113.47
4.02 -48.503 112.98 -0.17632 -170.17 -0.17632 -170.17 -48.503 112.98
4.05 -49.673 112.72 -0.17731 -171.44 -0.17731 -171.44 -49.673 112.72
4.08 -51.025 112.81 -0.17831 -172.71 -0.17831 -172.71 -51.025 112.81
4.11 -52.624 113.47 -0.1793 -173.97 -0.1793 -173.97 -52.624 113.47
4.14 -54.572 115.11 -0.18029 -175.24 -0.18029 -175.24 -54.572 115.11
4.17 -57.04 118.70 -0.18129 -176.51 -0.18129 -176.51 -57.04 118.70
4.2 -60.324 126.90 -0.18228 -177.78 -0.18228 -177.78 -60.324 126.90
4.23 -64.621 148.88 -0.18328 -179.04 -0.18328 -179.04 -64.621 148.88
4.26 -66.408 -159.68 -0.18427 179.69 -0.18427 179.69 -66.408 -159.68
4.29 -62.374 -123.08 -0.18527 178.42 -0.18527 178.42 -62.374 -123.08
4.32 -58.555 -109.98 -0.18627 177.15 -0.18627 177.15 -58.555 -109.98
4.35 -55.728 -104.63 -0.18727 175.88 -0.18727 175.88 -55.728 -104.63
4.38 -53.551 -102.20 -0.18827 174.62 -0.18827 174.62 -53.551 -102.20
4.41 -51.797 -101.12 -0.18927 173.35 -0.18927 173.35 -51.797 -101.12
4.44 -50.333 -100.78 -0.19027 172.08 -0.19027 172.08 -50.333 -100.78
4.47 -49.08 -100.88 -0.19128 170.81 -0.19128 170.81 -49.08 -100.88
4.5 -47.987 -101.26 -0.19228 169.55 -0.19228 169.55 -47.987 -101.26
4.53 -47.019 -101.83 -0.19328 168.28 -0.19328 168.28 -47.019 -101.83
4.56 -46.151 -102.54 -0.19429 167.01 -0.19429 167.01 -46.151 -102.54
4.59 -45.365 -103.35 -0.1953 165.74 -0.1953 165.74 -45.365 -103.35
4.62 -44.648 -104.24 -0.19631 164.47 -0.19631 164.47 -44.648 -104.24
4.65 -43.99 -105.18 -0.19731 163.21 -0.19731 163.21 -43.99 -105.18
4.68 -43.381 -106.18 -0.19832 161.94 -0.19832 161.94 -43.381 -106.18
4.71 -42.817 -107.21 -0.19934 160.67 -0.19934 160.67 -42.817 -107.21
4.74 -42.291 -108.27 -0.20035 159.40 -0.20035 159.40 -42.291 -108.27
4.77 -41.799 -109.35 -0.20136 158.13 -0.20136 158.13 -41.799 -109.35
4.8 -41.338 -110.46 -0.20237 156.87 -0.20237 156.87 -41.338 -110.46
4.83 -40.904 -111.58 -0.20339 155.60 -0.20339 155.60 -40.904 -111.58
4.86 -40.494 -112.72 -0.2044 154.33 -0.2044 154.33 -40.494 -112.72
4.89 -40.107 -113.87 -0.20542 153.06 -0.20542 153.06 -40.107 -113.87
4.92 -39.741 -115.03 -0.20643 151.80 -0.20643 151.80 -39.741 -115.03
4.95 -39.394 -116.21 -0.20745 150.53 -0.20745 150.53 -39.394 -116.21
4.98 -39.064 -117.39 -0.20846 149.26 -0.20846 149.26 -39.064 -117.39
5.01 -38.751 -118.57 -0.20948 147.99 -0.20948 147.99 -38.751 -118.57
5.04 -38.453 -119.77 -0.2105 146.72 -0.2105 146.72 -38.453 -119.77
5.07 -38.168 -120.97 -0.21151 145.46 -0.21151 145.46 -38.168 -120.97
5.1 -37.897 -122.17 -0.21253 144.19 -0.21253 144.19 -37.897 -122.17
5.13 -37.638 -123.38 -0.21355 142.92 -0.21355 142.92 -37.638 -123.38
5.16 -37.391 -124.60 -0.21457 141.65 -0.21457 141.65 -37.391 -124.60
5.19 -37.155 -125.81 -0.21558 140.39 -0.21558 140.39 -37.155 -125.81
5.22 -36.93 -127.03 -0.2166 139.12 -0.2166 139.12 -36.93 -127.03
5.25 -36.714 -128.26 -0.21762 137.85 -0.21762 137.85 -36.714 -128.26
5.28 -36.508 -129.48 -0.21863 136.58 -0.21863 136.58 -36.508 -129.48
5.31 -36.311 -130.71 -0.21965 135.31 -0.21965 135.31 -36.311 -130.71
5.34 -36.122 -131.94 -0.22066 134.05 -0.22066 134.05 -36.122 -131.94
5.37 -35.941 -133.18 -0.22168 132.78 -0.22168 132.78 -35.941 -133.18
5.4 -35.769 -134.41 -0.22269 131.51 -0.22269 131.51 -35.769 -134.41
5.43 -35.604 -135.65 -0.22371 130.24 -0.22371 130.24 -35.604 -135.65
5.46 -35.446 -136.88 -0.22472 128.98 -0.22472 128.98 -35.446 -136.88
5.49 -35.296 -138.12 -0.22573 127.71 -0.22573 127.71 -35.296 -138.12
5.52 -35.152 -139.36 -0.22674 126.44 -0.22674 126.44 -35.152 -139.36
5.55 -35.014 -140.60 -0.22775 125.17 -0.22775 125.17 -35.014 -140.60
5.58 -34.883 -141.84 -0.22876 123.90 -0.22876 123.90 -34.883 -141.84
5.61 -34.759 -143.09 -0.22976 122.64 -0.22976 122.64 -34.759 -143.09
5.64 -34.64 -144.33 -0.23077 121.37 -0.23077 121.37 -34.64 -144.33
5.67 -34.527 -145.58 -0.23177 120.10 -0.23177 120.10 -34.527 -145.58
5.7 -34.42 -146.82 -0.23278 118.83 -0.23278 118.83 -34.42 -146.82
5.73 -34.318 -148.07 -0.23378 117.57 -0.23378 117.57 -34.318 -148.07
5.76 -34.222 -149.31 -0.23478 116.30 -0.23478 116.30 -34.222 -149.31
5.79 -34.131 -150.56 -0.23577 115.03 -0.23577 115.03 -34.131 -150.56
5.82 -34.045 -151.80 -0.23677 113.76 -0.23677 113.76 -34.045 -151.80
5.85 -33.964 -153.05 -0.23776 112.49 -0.23776 112.49 -33.964 -153.05
5.88 -33.888 -154.30 -0.23875 111.23 -0.23875 111.23 -33.888 -154.30
5.91 -33.817 -155.55 -0.23974 109.96 -0.23974 109.96 -33.817 -155.55
5.94 -33.751 -156.79 -0.24073 108.69 -0.24073 108.69 -33.751 -156.79
5.97 -33.69 -158.04 -0.24171 107.42 -0.24171 107.42 -33.69 -158.04
6 -33.633 -159.29 -0.2427 106.16 -0.2427 106.16 -33.633 -159.29
