! yapnr Order 0 O0-M: O0-M A08 M0.7 30 (variant, family M0.7)
! stackup OSHPARK-4L-EM528, nominal parameters; geometry of the OSHPARK-4L-FR408HR design
! model: 2D quasi-static RLGC (Djordjevic-Sarkar, Huray roughness, Wheeler loss); generated by python -m yapnr.rf.coupons expected --stackup OSHPARK-4L-FR408HR --upload M
! reference planes 10 mm from each end; 50 ohm (from the M line's Zc)
# GHz S DB R 50
0.03 -43.576 74.92 -0.014286 -1.89 -0.014286 -1.89 -43.576 74.92
0.06 -38.227 76.44 -0.020779 -3.73 -0.020779 -3.73 -38.227 76.44
0.09 -35.014 76.23 -0.026318 -5.56 -0.026318 -5.56 -35.014 76.23
0.12 -32.707 75.41 -0.031471 -7.39 -0.031471 -7.39 -32.707 75.41
0.15 -30.905 74.30 -0.036459 -9.21 -0.036459 -9.21 -30.905 74.30
0.18 -29.429 73.01 -0.041389 -11.02 -0.041389 -11.02 -29.429 73.01
0.21 -28.18 71.62 -0.046323 -12.84 -0.046323 -12.84 -28.18 71.62
0.24 -27.1 70.15 -0.051297 -14.65 -0.051297 -14.65 -27.1 70.15
0.27 -26.15 68.62 -0.056334 -16.46 -0.056334 -16.46 -26.15 68.62
0.3 -25.304 67.06 -0.061447 -18.27 -0.061447 -18.27 -25.304 67.06
0.33 -24.542 65.47 -0.066643 -20.08 -0.066643 -20.08 -24.542 65.47
0.36 -23.851 63.85 -0.071925 -21.89 -0.071925 -21.89 -23.851 63.85
0.39 -23.221 62.21 -0.077292 -23.69 -0.077292 -23.69 -23.221 62.21
0.42 -22.642 60.56 -0.08274 -25.49 -0.08274 -25.49 -22.642 60.56
0.45 -22.108 58.90 -0.088265 -27.29 -0.088265 -27.29 -22.108 58.90
0.48 -21.614 57.22 -0.093859 -29.09 -0.093859 -29.09 -21.614 57.22
0.51 -21.155 55.54 -0.099515 -30.89 -0.099515 -30.89 -21.155 55.54
0.54 -20.728 53.85 -0.10522 -32.68 -0.10522 -32.68 -20.728 53.85
0.57 -20.33 52.16 -0.11097 -34.47 -0.11097 -34.47 -20.33 52.16
0.6 -19.958 50.46 -0.11676 -36.27 -0.11676 -36.27 -19.958 50.46
0.63 -19.61 48.76 -0.12256 -38.05 -0.12256 -38.05 -19.61 48.76
0.66 -19.284 47.05 -0.12837 -39.84 -0.12837 -39.84 -19.284 47.05
0.69 -18.978 45.34 -0.13418 -41.63 -0.13418 -41.63 -18.978 45.34
0.72 -18.691 43.63 -0.13997 -43.41 -0.13997 -43.41 -18.691 43.63
0.75 -18.422 41.91 -0.14573 -45.19 -0.14573 -45.19 -18.422 41.91
0.78 -18.169 40.20 -0.15146 -46.97 -0.15146 -46.97 -18.169 40.20
0.81 -17.932 38.48 -0.15712 -48.75 -0.15712 -48.75 -17.932 38.48
0.84 -17.709 36.77 -0.16272 -50.53 -0.16272 -50.53 -17.709 36.77
0.87 -17.501 35.05 -0.16824 -52.31 -0.16824 -52.31 -17.501 35.05
0.9 -17.305 33.33 -0.17367 -54.08 -0.17367 -54.08 -17.305 33.33
0.93 -17.122 31.62 -0.17899 -55.85 -0.17899 -55.85 -17.122 31.62
0.96 -16.952 29.90 -0.1842 -57.62 -0.1842 -57.62 -16.952 29.90
0.99 -16.793 28.18 -0.18928 -59.39 -0.18928 -59.39 -16.793 28.18
1.02 -16.644 26.46 -0.19422 -61.16 -0.19422 -61.16 -16.644 26.46
1.05 -16.507 24.74 -0.19902 -62.93 -0.19902 -62.93 -16.507 24.74
1.08 -16.38 23.03 -0.20365 -64.69 -0.20365 -64.69 -16.38 23.03
1.11 -16.263 21.31 -0.20811 -66.46 -0.20811 -66.46 -16.263 21.31
1.14 -16.156 19.59 -0.21239 -68.22 -0.21239 -68.22 -16.156 19.59
1.17 -16.058 17.88 -0.21649 -69.98 -0.21649 -69.98 -16.058 17.88
1.2 -15.97 16.16 -0.22039 -71.74 -0.22039 -71.74 -15.97 16.16
1.23 -15.89 14.44 -0.22409 -73.50 -0.22409 -73.50 -15.89 14.44
1.26 -15.819 12.73 -0.22758 -75.26 -0.22758 -75.26 -15.819 12.73
1.29 -15.757 11.01 -0.23085 -77.02 -0.23085 -77.02 -15.757 11.01
1.32 -15.704 9.30 -0.23391 -78.78 -0.23391 -78.78 -15.704 9.30
1.35 -15.659 7.58 -0.23674 -80.54 -0.23674 -80.54 -15.659 7.58
1.38 -15.622 5.87 -0.23934 -82.29 -0.23934 -82.29 -15.622 5.87
1.41 -15.593 4.16 -0.24171 -84.05 -0.24171 -84.05 -15.593 4.16
1.44 -15.573 2.44 -0.24385 -85.81 -0.24385 -85.81 -15.573 2.44
1.47 -15.561 0.73 -0.24576 -87.56 -0.24576 -87.56 -15.561 0.73
1.5 -15.557 -0.98 -0.24743 -89.32 -0.24743 -89.32 -15.557 -0.98
1.53 -15.561 -2.70 -0.24887 -91.07 -0.24887 -91.07 -15.561 -2.70
1.56 -15.573 -4.41 -0.25007 -92.83 -0.25007 -92.83 -15.573 -4.41
1.59 -15.593 -6.12 -0.25105 -94.59 -0.25105 -94.59 -15.593 -6.12
1.62 -15.622 -7.84 -0.2518 -96.34 -0.2518 -96.34 -15.622 -7.84
1.65 -15.658 -9.55 -0.25232 -98.10 -0.25232 -98.10 -15.658 -9.55
1.68 -15.703 -11.26 -0.25263 -99.86 -0.25263 -99.86 -15.703 -11.26
1.71 -15.756 -12.97 -0.25272 -101.61 -0.25272 -101.61 -15.756 -12.97
1.74 -15.818 -14.69 -0.25261 -103.37 -0.25261 -103.37 -15.818 -14.69
1.77 -15.888 -16.40 -0.25229 -105.13 -0.25229 -105.13 -15.888 -16.40
1.8 -15.968 -18.11 -0.25178 -106.89 -0.25178 -106.89 -15.968 -18.11
1.83 -16.056 -19.82 -0.25109 -108.65 -0.25109 -108.65 -16.056 -19.82
1.86 -16.153 -21.53 -0.25022 -110.41 -0.25022 -110.41 -16.153 -21.53
1.89 -16.26 -23.25 -0.24918 -112.18 -0.24918 -112.18 -16.26 -23.25
1.92 -16.376 -24.96 -0.24798 -113.94 -0.24798 -113.94 -16.376 -24.96
1.95 -16.502 -26.67 -0.24664 -115.70 -0.24664 -115.70 -16.502 -26.67
1.98 -16.638 -28.38 -0.24517 -117.47 -0.24517 -117.47 -16.638 -28.38
2.01 -16.785 -30.09 -0.24357 -119.24 -0.24357 -119.24 -16.785 -30.09
2.04 -16.943 -31.80 -0.24186 -121.01 -0.24186 -121.01 -16.943 -31.80
2.07 -17.112 -33.50 -0.24006 -122.78 -0.24006 -122.78 -17.112 -33.50
2.1 -17.294 -35.21 -0.23817 -124.55 -0.23817 -124.55 -17.294 -35.21
2.13 -17.487 -36.92 -0.2362 -126.32 -0.2362 -126.32 -17.487 -36.92
2.16 -17.693 -38.62 -0.23418 -128.10 -0.23418 -128.10 -17.693 -38.62
2.19 -17.913 -40.32 -0.23211 -129.87 -0.23211 -129.87 -17.913 -40.32
2.22 -18.148 -42.02 -0.23002 -131.65 -0.23002 -131.65 -18.148 -42.02
2.25 -18.397 -43.72 -0.22791 -133.43 -0.22791 -133.43 -18.397 -43.72
2.28 -18.662 -45.41 -0.22579 -135.21 -0.22579 -135.21 -18.662 -45.41
2.31 -18.945 -47.10 -0.22369 -136.99 -0.22369 -136.99 -18.945 -47.10
2.34 -19.246 -48.78 -0.22161 -138.77 -0.22161 -138.77 -19.246 -48.78
2.37 -19.566 -50.46 -0.21958 -140.56 -0.21958 -140.56 -19.566 -50.46
2.4 -19.908 -52.13 -0.21759 -142.34 -0.21759 -142.34 -19.908 -52.13
2.43 -20.272 -53.79 -0.21568 -144.13 -0.21568 -144.13 -20.272 -53.79
2.46 -20.661 -55.45 -0.21385 -145.92 -0.21385 -145.92 -20.661 -55.45
2.49 -21.077 -57.09 -0.21211 -147.71 -0.21211 -147.71 -21.077 -57.09
2.52 -21.524 -58.72 -0.21048 -149.50 -0.21048 -149.50 -21.524 -58.72
2.55 -22.003 -60.33 -0.20898 -151.29 -0.20898 -151.29 -22.003 -60.33
2.58 -22.519 -61.92 -0.2076 -153.08 -0.2076 -153.08 -22.519 -61.92
2.61 -23.078 -63.48 -0.20637 -154.88 -0.20637 -154.88 -23.078 -63.48
2.64 -23.683 -65.02 -0.20529 -156.68 -0.20529 -156.68 -23.683 -65.02
2.67 -24.343 -66.51 -0.20438 -158.47 -0.20438 -158.47 -24.343 -66.51
2.7 -25.067 -67.96 -0.20364 -160.27 -0.20364 -160.27 -25.067 -67.96
2.73 -25.865 -69.34 -0.20308 -162.07 -0.20308 -162.07 -25.865 -69.34
2.76 -26.753 -70.63 -0.20272 -163.87 -0.20272 -163.87 -26.753 -70.63
2.79 -27.75 -71.80 -0.20256 -165.67 -0.20256 -165.67 -27.75 -71.80
2.82 -28.886 -72.79 -0.2026 -167.47 -0.2026 -167.47 -28.886 -72.79
2.85 -30.199 -73.53 -0.20286 -169.27 -0.20286 -169.27 -30.199 -73.53
2.88 -31.753 -73.85 -0.20333 -171.07 -0.20333 -171.07 -31.753 -73.85
2.91 -33.645 -73.46 -0.20402 -172.88 -0.20402 -172.88 -33.645 -73.46
2.94 -36.052 -71.66 -0.20494 -174.68 -0.20494 -174.68 -36.052 -71.66
2.97 -39.307 -66.55 -0.20608 -176.48 -0.20608 -176.48 -39.307 -66.55
3 -44.008 -50.86 -0.20745 -178.28 -0.20745 -178.28 -44.008 -50.86
3.03 -48.029 2.41 -0.20905 179.91 -0.20905 179.91 -48.029 2.41
3.06 -43.433 50.69 -0.21088 178.11 -0.21088 178.11 -43.433 50.69
3.09 -38.915 64.47 -0.21294 176.31 -0.21294 176.31 -38.915 64.47
3.12 -35.777 69.05 -0.21522 174.51 -0.21522 174.51 -35.777 69.05
3.15 -33.441 70.65 -0.21772 172.70 -0.21772 172.70 -33.441 70.65
3.18 -31.595 70.94 -0.22044 170.90 -0.22044 170.90 -31.595 70.94
3.21 -30.075 70.57 -0.22337 169.10 -0.22337 169.10 -30.075 70.57
3.24 -28.786 69.80 -0.22651 167.30 -0.22651 167.30 -28.786 69.80
3.27 -27.671 68.79 -0.22984 165.50 -0.22984 165.50 -27.671 68.79
3.3 -26.69 67.61 -0.23338 163.70 -0.23338 163.70 -26.69 67.61
3.33 -25.817 66.31 -0.23709 161.91 -0.23709 161.91 -25.817 66.31
3.36 -25.031 64.93 -0.24099 160.11 -0.24099 160.11 -25.031 64.93
3.39 -24.319 63.48 -0.24505 158.31 -0.24505 158.31 -24.319 63.48
3.42 -23.669 61.99 -0.24926 156.52 -0.24926 156.52 -23.669 61.99
3.45 -23.073 60.45 -0.25362 154.72 -0.25362 154.72 -23.073 60.45
3.48 -22.523 58.89 -0.25812 152.93 -0.25812 152.93 -22.523 58.89
3.51 -22.015 57.30 -0.26274 151.14 -0.26274 151.14 -22.015 57.30
3.54 -21.543 55.70 -0.26747 149.35 -0.26747 149.35 -21.543 55.70
3.57 -21.104 54.07 -0.27229 147.56 -0.27229 147.56 -21.104 54.07
3.6 -20.694 52.44 -0.2772 145.78 -0.2772 145.78 -20.694 52.44
3.63 -20.312 50.79 -0.28218 143.99 -0.28218 143.99 -20.312 50.79
3.66 -19.954 49.14 -0.28722 142.21 -0.28722 142.21 -19.954 49.14
3.69 -19.618 47.47 -0.29231 140.42 -0.29231 140.42 -19.618 47.47
3.72 -19.304 45.80 -0.29742 138.64 -0.29742 138.64 -19.304 45.80
3.75 -19.009 44.13 -0.30255 136.86 -0.30255 136.86 -19.009 44.13
3.78 -18.732 42.45 -0.30768 135.09 -0.30768 135.09 -18.732 42.45
3.81 -18.472 40.77 -0.3128 133.31 -0.3128 133.31 -18.472 40.77
3.84 -18.228 39.08 -0.3179 131.53 -0.3179 131.53 -18.228 39.08
3.87 -17.999 37.39 -0.32295 129.76 -0.32295 129.76 -17.999 37.39
3.9 -17.784 35.70 -0.32796 127.99 -0.32796 127.99 -17.784 35.70
3.93 -17.583 34.01 -0.33289 126.22 -0.33289 126.22 -17.583 34.01
3.96 -17.394 32.31 -0.33775 124.45 -0.33775 124.45 -17.394 32.31
3.99 -17.218 30.62 -0.34251 122.68 -0.34251 122.68 -17.218 30.62
4.02 -17.054 28.92 -0.34717 120.91 -0.34717 120.91 -17.054 28.92
4.05 -16.901 27.23 -0.35171 119.15 -0.35171 119.15 -16.901 27.23
4.08 -16.759 25.53 -0.35613 117.38 -0.35613 117.38 -16.759 25.53
4.11 -16.627 23.83 -0.3604 115.62 -0.3604 115.62 -16.627 23.83
4.14 -16.506 22.13 -0.36453 113.86 -0.36453 113.86 -16.506 22.13
4.17 -16.394 20.44 -0.3685 112.10 -0.3685 112.10 -16.394 20.44
4.2 -16.292 18.74 -0.3723 110.34 -0.3723 110.34 -16.292 18.74
4.23 -16.199 17.04 -0.37592 108.58 -0.37592 108.58 -16.199 17.04
4.26 -16.116 15.35 -0.37936 106.82 -0.37936 106.82 -16.116 15.35
4.29 -16.041 13.65 -0.3826 105.06 -0.3826 105.06 -16.041 13.65
4.32 -15.976 11.95 -0.38565 103.31 -0.38565 103.31 -15.976 11.95
4.35 -15.919 10.26 -0.38849 101.55 -0.38849 101.55 -15.919 10.26
4.38 -15.87 8.56 -0.39113 99.80 -0.39113 99.80 -15.87 8.56
4.41 -15.83 6.86 -0.39355 98.04 -0.39355 98.04 -15.83 6.86
4.44 -15.798 5.17 -0.39575 96.29 -0.39575 96.29 -15.798 5.17
4.47 -15.774 3.47 -0.39773 94.53 -0.39773 94.53 -15.774 3.47
4.5 -15.759 1.78 -0.39949 92.78 -0.39949 92.78 -15.759 1.78
4.53 -15.751 0.09 -0.40103 91.02 -0.40103 91.02 -15.751 0.09
4.56 -15.752 -1.61 -0.40235 89.27 -0.40235 89.27 -15.752 -1.61
4.59 -15.761 -3.30 -0.40344 87.51 -0.40344 87.51 -15.761 -3.30
4.62 -15.778 -4.99 -0.40431 85.76 -0.40431 85.76 -15.778 -4.99
4.65 -15.803 -6.68 -0.40496 84.01 -0.40496 84.01 -15.803 -6.68
4.68 -15.837 -8.38 -0.4054 82.25 -0.4054 82.25 -15.837 -8.38
4.71 -15.878 -10.07 -0.40563 80.49 -0.40563 80.49 -15.878 -10.07
4.74 -15.929 -11.76 -0.40565 78.74 -0.40565 78.74 -15.929 -11.76
4.77 -15.987 -13.45 -0.40546 76.98 -0.40546 76.98 -15.987 -13.45
4.8 -16.055 -15.13 -0.40508 75.22 -0.40508 75.22 -16.055 -15.13
4.83 -16.131 -16.82 -0.40451 73.47 -0.40451 73.47 -16.131 -16.82
4.86 -16.216 -18.51 -0.40376 71.71 -0.40376 71.71 -16.216 -18.51
4.89 -16.31 -20.19 -0.40284 69.95 -0.40284 69.95 -16.31 -20.19
4.92 -16.413 -21.88 -0.40175 68.19 -0.40175 68.19 -16.413 -21.88
4.95 -16.526 -23.56 -0.4005 66.42 -0.4005 66.42 -16.526 -23.56
4.98 -16.649 -25.24 -0.39911 64.66 -0.39911 64.66 -16.649 -25.24
5.01 -16.782 -26.92 -0.39759 62.90 -0.39759 62.90 -16.782 -26.92
5.04 -16.925 -28.60 -0.39594 61.13 -0.39594 61.13 -16.925 -28.60
5.07 -17.079 -30.27 -0.39418 59.36 -0.39418 59.36 -17.079 -30.27
5.1 -17.245 -31.95 -0.39232 57.59 -0.39232 57.59 -17.245 -31.95
5.13 -17.422 -33.62 -0.39037 55.83 -0.39037 55.83 -17.422 -33.62
5.16 -17.612 -35.28 -0.38835 54.05 -0.38835 54.05 -17.612 -35.28
5.19 -17.814 -36.94 -0.38626 52.28 -0.38626 52.28 -17.814 -36.94
5.22 -18.029 -38.60 -0.38413 50.51 -0.38413 50.51 -18.029 -38.60
5.25 -18.259 -40.25 -0.38196 48.73 -0.38196 48.73 -18.259 -40.25
5.28 -18.504 -41.90 -0.37977 46.96 -0.37977 46.96 -18.504 -41.90
5.31 -18.764 -43.54 -0.37757 45.18 -0.37757 45.18 -18.764 -43.54
5.34 -19.041 -45.17 -0.37538 43.40 -0.37538 43.40 -19.041 -45.17
5.37 -19.336 -46.80 -0.37321 41.62 -0.37321 41.62 -19.336 -46.80
5.4 -19.651 -48.41 -0.37107 39.83 -0.37107 39.83 -19.651 -48.41
5.43 -19.985 -50.01 -0.36897 38.05 -0.36897 38.05 -19.985 -50.01
5.46 -20.343 -51.60 -0.36694 36.27 -0.36694 36.27 -20.343 -51.60
5.49 -20.724 -53.17 -0.36499 34.48 -0.36499 34.48 -20.724 -53.17
5.52 -21.132 -54.72 -0.36312 32.69 -0.36312 32.69 -21.132 -54.72
5.55 -21.568 -56.24 -0.36135 30.90 -0.36135 30.90 -21.568 -56.24
5.58 -22.037 -57.74 -0.35969 29.11 -0.35969 29.11 -22.037 -57.74
5.61 -22.541 -59.21 -0.35815 27.32 -0.35815 27.32 -22.541 -59.21
5.64 -23.086 -60.63 -0.35675 25.52 -0.35675 25.52 -23.086 -60.63
5.67 -23.675 -62.00 -0.3555 23.73 -0.3555 23.73 -23.675 -62.00
5.7 -24.317 -63.31 -0.3544 21.93 -0.3544 21.93 -24.317 -63.31
5.73 -25.018 -64.54 -0.35347 20.14 -0.35347 20.14 -25.018 -64.54
5.76 -25.789 -65.67 -0.35271 18.34 -0.35271 18.34 -25.789 -65.67
5.79 -26.644 -66.66 -0.35214 16.54 -0.35214 16.54 -26.644 -66.66
5.82 -27.599 -67.46 -0.35175 14.74 -0.35175 14.74 -27.599 -67.46
5.85 -28.678 -67.99 -0.35157 12.94 -0.35157 12.94 -28.678 -67.99
5.88 -29.914 -68.15 -0.35159 11.14 -0.35159 11.14 -29.914 -68.15
5.91 -31.354 -67.71 -0.35182 9.34 -0.35182 9.34 -31.354 -67.71
5.94 -33.068 -66.28 -0.35226 7.54 -0.35226 7.54 -33.068 -66.28
5.97 -35.162 -63.08 -0.35292 5.74 -0.35292 5.74 -35.162 -63.08
6 -37.782 -56.26 -0.3538 3.94 -0.3538 3.94 -37.782 -56.26
