! yapnr Order 0 O0-M: O0-M A09 M1.4 30 (variant, family M1.4)
! stackup OSHPARK-4L-EM528, nominal parameters; geometry of the OSHPARK-4L-FR408HR design
! model: 2D quasi-static RLGC (Djordjevic-Sarkar, Huray roughness, Wheeler loss); generated by python -m yapnr.rf.coupons expected --stackup OSHPARK-4L-FR408HR --upload M
! reference planes 10 mm from each end; 50 ohm (from the M line's Zc)
# GHz S DB R 50
0.03 -43.277 -84.49 -0.0094978 -1.96 -0.0094978 -1.96 -43.277 -84.49
0.06 -37.016 -88.97 -0.014461 -3.88 -0.014461 -3.88 -37.016 -88.97
0.09 -33.398 -91.95 -0.01913 -5.79 -0.01913 -5.79 -33.398 -91.95
0.12 -30.853 -94.48 -0.023874 -7.70 -0.023874 -7.70 -30.853 -94.48
0.15 -28.893 -96.79 -0.028833 -9.61 -0.028833 -9.61 -28.893 -96.79
0.18 -27.302 -98.99 -0.034071 -11.52 -0.034071 -11.52 -27.302 -98.99
0.21 -25.967 -101.12 -0.039622 -13.42 -0.039622 -13.42 -25.967 -101.12
0.24 -24.819 -103.20 -0.045502 -15.32 -0.045502 -15.32 -24.819 -103.20
0.27 -23.815 -105.25 -0.051714 -17.21 -0.051714 -17.21 -23.815 -105.25
0.3 -22.925 -107.26 -0.058257 -19.11 -0.058257 -19.11 -22.925 -107.26
0.33 -22.127 -109.26 -0.065122 -21.00 -0.065122 -21.00 -22.127 -109.26
0.36 -21.406 -111.24 -0.072296 -22.89 -0.072296 -22.89 -21.406 -111.24
0.39 -20.75 -113.20 -0.079765 -24.78 -0.079765 -24.78 -20.75 -113.20
0.42 -20.15 -115.15 -0.087511 -26.66 -0.087511 -26.66 -20.15 -115.15
0.45 -19.599 -117.09 -0.095512 -28.54 -0.095512 -28.54 -19.599 -117.09
0.48 -19.09 -119.02 -0.10375 -30.42 -0.10375 -30.42 -19.09 -119.02
0.51 -18.619 -120.94 -0.11219 -32.29 -0.11219 -32.29 -18.619 -120.94
0.54 -18.182 -122.86 -0.12083 -34.16 -0.12083 -34.16 -18.182 -122.86
0.57 -17.776 -124.76 -0.12962 -36.03 -0.12962 -36.03 -17.776 -124.76
0.6 -17.397 -126.66 -0.13854 -37.90 -0.13854 -37.90 -17.397 -126.66
0.63 -17.044 -128.55 -0.14757 -39.76 -0.14757 -39.76 -17.044 -128.55
0.66 -16.715 -130.44 -0.15667 -41.62 -0.15667 -41.62 -16.715 -130.44
0.69 -16.406 -132.32 -0.16582 -43.47 -0.16582 -43.47 -16.406 -132.32
0.72 -16.118 -134.19 -0.17499 -45.32 -0.17499 -45.32 -16.118 -134.19
0.75 -15.849 -136.06 -0.18415 -47.17 -0.18415 -47.17 -15.849 -136.06
0.78 -15.597 -137.92 -0.19326 -49.02 -0.19326 -49.02 -15.597 -137.92
0.81 -15.361 -139.78 -0.20231 -50.86 -0.20231 -50.86 -15.361 -139.78
0.84 -15.141 -141.63 -0.21127 -52.70 -0.21127 -52.70 -15.141 -141.63
0.87 -14.935 -143.48 -0.22009 -54.53 -0.22009 -54.53 -14.935 -143.48
0.9 -14.744 -145.32 -0.22877 -56.37 -0.22877 -56.37 -14.744 -145.32
0.93 -14.565 -147.16 -0.23727 -58.20 -0.23727 -58.20 -14.565 -147.16
0.96 -14.399 -148.99 -0.24556 -60.02 -0.24556 -60.02 -14.399 -148.99
0.99 -14.246 -150.82 -0.25363 -61.85 -0.25363 -61.85 -14.246 -150.82
1.02 -14.104 -152.65 -0.26144 -63.67 -0.26144 -63.67 -14.104 -152.65
1.05 -13.973 -154.47 -0.26897 -65.49 -0.26897 -65.49 -13.973 -154.47
1.08 -13.853 -156.29 -0.27621 -67.31 -0.27621 -67.31 -13.853 -156.29
1.11 -13.743 -158.11 -0.28312 -69.12 -0.28312 -69.12 -13.743 -158.11
1.14 -13.644 -159.92 -0.2897 -70.93 -0.2897 -70.93 -13.644 -159.92
1.17 -13.554 -161.73 -0.29593 -72.74 -0.29593 -72.74 -13.554 -161.73
1.2 -13.474 -163.54 -0.30178 -74.55 -0.30178 -74.55 -13.474 -163.54
1.23 -13.404 -165.34 -0.30725 -76.36 -0.30725 -76.36 -13.404 -165.34
1.26 -13.342 -167.14 -0.31231 -78.16 -0.31231 -78.16 -13.342 -167.14
1.29 -13.29 -168.94 -0.31697 -79.97 -0.31697 -79.97 -13.29 -168.94
1.32 -13.247 -170.73 -0.3212 -81.77 -0.3212 -81.77 -13.247 -170.73
1.35 -13.213 -172.53 -0.325 -83.57 -0.325 -83.57 -13.213 -172.53
1.38 -13.187 -174.32 -0.32836 -85.37 -0.32836 -85.37 -13.187 -174.32
1.41 -13.17 -176.11 -0.33128 -87.17 -0.33128 -87.17 -13.17 -176.11
1.44 -13.162 -177.90 -0.33375 -88.97 -0.33375 -88.97 -13.162 -177.90
1.47 -13.162 -179.69 -0.33577 -90.77 -0.33577 -90.77 -13.162 -179.69
1.5 -13.171 178.53 -0.33735 -92.57 -0.33735 -92.57 -13.171 178.53
1.53 -13.188 176.74 -0.33847 -94.37 -0.33847 -94.37 -13.188 176.74
1.56 -13.214 174.96 -0.33916 -96.17 -0.33916 -96.17 -13.214 174.96
1.59 -13.249 173.17 -0.3394 -97.97 -0.3394 -97.97 -13.249 173.17
1.62 -13.293 171.39 -0.33921 -99.77 -0.33921 -99.77 -13.293 171.39
1.65 -13.345 169.61 -0.3386 -101.57 -0.3386 -101.57 -13.345 169.61
1.68 -13.407 167.83 -0.33757 -103.37 -0.33757 -103.37 -13.407 167.83
1.71 -13.477 166.04 -0.33613 -105.18 -0.33613 -105.18 -13.477 166.04
1.74 -13.557 164.26 -0.33431 -106.98 -0.33431 -106.98 -13.557 164.26
1.77 -13.647 162.48 -0.33211 -108.79 -0.33211 -108.79 -13.647 162.48
1.8 -13.746 160.70 -0.32954 -110.60 -0.32954 -110.60 -13.746 160.70
1.83 -13.855 158.92 -0.32664 -112.41 -0.32664 -112.41 -13.855 158.92
1.86 -13.975 157.14 -0.32341 -114.22 -0.32341 -114.22 -13.975 157.14
1.89 -14.105 155.36 -0.31987 -116.04 -0.31987 -116.04 -14.105 155.36
1.92 -14.246 153.57 -0.31605 -117.85 -0.31605 -117.85 -14.246 153.57
1.95 -14.399 151.79 -0.31197 -119.67 -0.31197 -119.67 -14.399 151.79
1.98 -14.563 150.01 -0.30766 -121.49 -0.30766 -121.49 -14.563 150.01
2.01 -14.74 148.23 -0.30312 -123.32 -0.30312 -123.32 -14.74 148.23
2.04 -14.929 146.45 -0.2984 -125.14 -0.2984 -125.14 -14.929 146.45
2.07 -15.132 144.67 -0.29352 -126.97 -0.29352 -126.97 -15.132 144.67
2.1 -15.349 142.89 -0.2885 -128.81 -0.2885 -128.81 -15.349 142.89
2.13 -15.582 141.12 -0.28338 -130.64 -0.28338 -130.64 -15.582 141.12
2.16 -15.83 139.34 -0.27817 -132.48 -0.27817 -132.48 -15.83 139.34
2.19 -16.095 137.57 -0.27291 -134.32 -0.27291 -134.32 -16.095 137.57
2.22 -16.378 135.80 -0.26763 -136.16 -0.26763 -136.16 -16.378 135.80
2.25 -16.68 134.03 -0.26236 -138.01 -0.26236 -138.01 -16.68 134.03
2.28 -17.003 132.27 -0.25712 -139.86 -0.25712 -139.86 -17.003 132.27
2.31 -17.348 130.52 -0.25194 -141.71 -0.25194 -141.71 -17.348 130.52
2.34 -17.717 128.77 -0.24686 -143.57 -0.24686 -143.57 -17.717 128.77
2.37 -18.113 127.02 -0.24189 -145.42 -0.24189 -145.42 -18.113 127.02
2.4 -18.537 125.29 -0.23708 -147.29 -0.23708 -147.29 -18.537 125.29
2.43 -18.994 123.58 -0.23244 -149.15 -0.23244 -149.15 -18.994 123.58
2.46 -19.486 121.87 -0.228 -151.02 -0.228 -151.02 -19.486 121.87
2.49 -20.018 120.19 -0.22379 -152.88 -0.22379 -152.88 -20.018 120.19
2.52 -20.595 118.54 -0.21984 -154.75 -0.21984 -154.75 -20.595 118.54
2.55 -21.224 116.91 -0.21616 -156.63 -0.21616 -156.63 -21.224 116.91
2.58 -21.912 115.32 -0.21278 -158.50 -0.21278 -158.50 -21.912 115.32
2.61 -22.67 113.79 -0.20972 -160.38 -0.20972 -160.38 -22.67 113.79
2.64 -23.51 112.33 -0.20701 -162.26 -0.20701 -162.26 -23.51 112.33
2.67 -24.452 110.96 -0.20465 -164.14 -0.20465 -164.14 -24.452 110.96
2.7 -25.518 109.72 -0.20268 -166.02 -0.20268 -166.02 -25.518 109.72
2.73 -26.743 108.69 -0.20109 -167.91 -0.20109 -167.91 -26.743 108.69
2.76 -28.178 107.95 -0.19991 -169.79 -0.19991 -169.79 -28.178 107.95
2.79 -29.904 107.73 -0.19915 -171.68 -0.19915 -171.68 -29.904 107.73
2.82 -32.058 108.45 -0.19882 -173.57 -0.19882 -173.57 -32.058 108.45
2.85 -34.898 111.20 -0.19893 -175.46 -0.19893 -175.46 -34.898 111.20
2.88 -38.954 119.62 -0.19947 -177.34 -0.19947 -177.34 -38.954 119.62
2.91 -44.704 151.33 -0.20047 -179.23 -0.20047 -179.23 -44.704 151.33
2.94 -43.569 -140.28 -0.20191 178.88 -0.20191 178.88 -43.569 -140.28
2.97 -38.029 -116.30 -0.2038 176.99 -0.2038 176.99 -38.029 -116.30
3 -34.276 -109.59 -0.20614 175.10 -0.20614 175.10 -34.276 -109.59
3.03 -31.603 -107.39 -0.20892 173.21 -0.20892 173.21 -31.603 -107.39
3.06 -29.55 -106.90 -0.21214 171.32 -0.21214 171.32 -29.55 -106.90
3.09 -27.892 -107.25 -0.21578 169.44 -0.21578 169.44 -27.892 -107.25
3.12 -26.505 -108.05 -0.21985 167.55 -0.21985 167.55 -26.505 -108.05
3.15 -25.317 -109.13 -0.22432 165.67 -0.22432 165.67 -25.317 -109.13
3.18 -24.281 -110.39 -0.22919 163.78 -0.22919 163.78 -24.281 -110.39
3.21 -23.363 -111.77 -0.23444 161.90 -0.23444 161.90 -23.363 -111.77
3.24 -22.542 -113.25 -0.24005 160.02 -0.24005 160.02 -22.542 -113.25
3.27 -21.802 -114.79 -0.246 158.14 -0.246 158.14 -21.802 -114.79
3.3 -21.129 -116.37 -0.25228 156.27 -0.25228 156.27 -21.129 -116.37
3.33 -20.513 -118.00 -0.25886 154.40 -0.25886 154.40 -20.513 -118.00
3.36 -19.948 -119.66 -0.26572 152.52 -0.26572 152.52 -19.948 -119.66
3.39 -19.427 -121.33 -0.27284 150.65 -0.27284 150.65 -19.427 -121.33
3.42 -18.944 -123.03 -0.2802 148.79 -0.2802 148.79 -18.944 -123.03
3.45 -18.497 -124.74 -0.28776 146.92 -0.28776 146.92 -18.497 -124.74
3.48 -18.081 -126.47 -0.2955 145.06 -0.2955 145.06 -18.081 -126.47
3.51 -17.693 -128.20 -0.3034 143.20 -0.3034 143.20 -17.693 -128.20
3.54 -17.331 -129.94 -0.31142 141.35 -0.31142 141.35 -17.331 -129.94
3.57 -16.993 -131.68 -0.31955 139.49 -0.31955 139.49 -16.993 -131.68
3.6 -16.677 -133.44 -0.32774 137.64 -0.32774 137.64 -16.677 -133.44
3.63 -16.381 -135.19 -0.33598 135.80 -0.33598 135.80 -16.381 -135.19
3.66 -16.105 -136.95 -0.34423 133.95 -0.34423 133.95 -16.105 -136.95
3.69 -15.846 -138.71 -0.35248 132.11 -0.35248 132.11 -15.846 -138.71
3.72 -15.603 -140.47 -0.36067 130.27 -0.36067 130.27 -15.603 -140.47
3.75 -15.377 -142.23 -0.36881 128.44 -0.36881 128.44 -15.377 -142.23
3.78 -15.165 -143.99 -0.37684 126.60 -0.37684 126.60 -15.165 -143.99
3.81 -14.967 -145.75 -0.38475 124.77 -0.38475 124.77 -14.967 -145.75
3.84 -14.783 -147.51 -0.39252 122.95 -0.39252 122.95 -14.783 -147.51
3.87 -14.611 -149.28 -0.40011 121.12 -0.40011 121.12 -14.611 -149.28
3.9 -14.452 -151.04 -0.4075 119.30 -0.4075 119.30 -14.452 -151.04
3.93 -14.304 -152.80 -0.41467 117.48 -0.41467 117.48 -14.304 -152.80
3.96 -14.168 -154.56 -0.42159 115.66 -0.42159 115.66 -14.168 -154.56
3.99 -14.042 -156.32 -0.42825 113.84 -0.42825 113.84 -14.042 -156.32
4.02 -13.927 -158.07 -0.43462 112.03 -0.43462 112.03 -13.927 -158.07
4.05 -13.823 -159.83 -0.44068 110.22 -0.44068 110.22 -13.823 -159.83
4.08 -13.728 -161.58 -0.44642 108.41 -0.44642 108.41 -13.728 -161.58
4.11 -13.643 -163.34 -0.45182 106.60 -0.45182 106.60 -13.643 -163.34
4.14 -13.567 -165.09 -0.45687 104.79 -0.45687 104.79 -13.567 -165.09
4.17 -13.501 -166.84 -0.46154 102.99 -0.46154 102.99 -13.501 -166.84
4.2 -13.444 -168.60 -0.46584 101.19 -0.46584 101.19 -13.444 -168.60
4.23 -13.396 -170.35 -0.46974 99.38 -0.46974 99.38 -13.396 -170.35
4.26 -13.356 -172.09 -0.47323 97.58 -0.47323 97.58 -13.356 -172.09
4.29 -13.326 -173.84 -0.47632 95.78 -0.47632 95.78 -13.326 -173.84
4.32 -13.304 -175.59 -0.479 93.98 -0.479 93.98 -13.304 -175.59
4.35 -13.291 -177.34 -0.48125 92.18 -0.48125 92.18 -13.291 -177.34
4.38 -13.286 -179.08 -0.48308 90.38 -0.48308 90.38 -13.286 -179.08
4.41 -13.29 179.17 -0.48449 88.58 -0.48449 88.58 -13.29 179.17
4.44 -13.302 177.43 -0.48547 86.78 -0.48547 86.78 -13.302 177.43
4.47 -13.323 175.68 -0.48603 84.98 -0.48603 84.98 -13.323 175.68
4.5 -13.353 173.94 -0.48618 83.18 -0.48618 83.18 -13.353 173.94
4.53 -13.391 172.20 -0.48591 81.38 -0.48591 81.38 -13.391 172.20
4.56 -13.438 170.45 -0.48523 79.58 -0.48523 79.58 -13.438 170.45
4.59 -13.494 168.71 -0.48416 77.77 -0.48416 77.77 -13.494 168.71
4.62 -13.559 166.97 -0.4827 75.97 -0.4827 75.97 -13.559 166.97
4.65 -13.634 165.23 -0.48086 74.16 -0.48086 74.16 -13.634 165.23
4.68 -13.717 163.49 -0.47866 72.35 -0.47866 72.35 -13.717 163.49
4.71 -13.81 161.75 -0.47611 70.55 -0.47611 70.55 -13.81 161.75
4.74 -13.914 160.01 -0.47323 68.74 -0.47323 68.74 -13.914 160.01
4.77 -14.027 158.27 -0.47003 66.92 -0.47003 66.92 -14.027 158.27
4.8 -14.15 156.53 -0.46654 65.11 -0.46654 65.11 -14.15 156.53
4.83 -14.284 154.79 -0.46276 63.29 -0.46276 63.29 -14.284 154.79
4.86 -14.43 153.05 -0.45873 61.47 -0.45873 61.47 -14.43 153.05
4.89 -14.587 151.32 -0.45447 59.65 -0.45447 59.65 -14.587 151.32
4.92 -14.756 149.58 -0.44999 57.83 -0.44999 57.83 -14.756 149.58
4.95 -14.937 147.85 -0.44532 56.00 -0.44532 56.00 -14.937 147.85
4.98 -15.131 146.12 -0.44049 54.17 -0.44049 54.17 -15.131 146.12
5.01 -15.34 144.40 -0.43552 52.34 -0.43552 52.34 -15.34 144.40
5.04 -15.562 142.67 -0.43044 50.51 -0.43044 50.51 -15.562 142.67
5.07 -15.8 140.95 -0.42527 48.67 -0.42527 48.67 -15.8 140.95
5.1 -16.054 139.24 -0.42005 46.83 -0.42005 46.83 -16.054 139.24
5.13 -16.325 137.53 -0.41479 44.99 -0.41479 44.99 -16.325 137.53
5.16 -16.615 135.83 -0.40952 43.14 -0.40952 43.14 -16.615 135.83
5.19 -16.924 134.14 -0.40428 41.30 -0.40428 41.30 -16.924 134.14
5.22 -17.255 132.45 -0.39909 39.44 -0.39909 39.44 -17.255 132.45
5.25 -17.608 130.78 -0.39398 37.59 -0.39398 37.59 -17.608 130.78
5.28 -17.986 129.13 -0.38898 35.73 -0.38898 35.73 -17.986 129.13
5.31 -18.391 127.49 -0.38411 33.87 -0.38411 33.87 -18.391 127.49
5.34 -18.826 125.87 -0.3794 32.01 -0.3794 32.01 -18.826 125.87
5.37 -19.294 124.28 -0.37487 30.15 -0.37487 30.15 -19.294 124.28
5.4 -19.799 122.71 -0.37056 28.28 -0.37056 28.28 -19.799 122.71
5.43 -20.344 121.19 -0.36648 26.41 -0.36648 26.41 -20.344 121.19
5.46 -20.937 119.71 -0.36266 24.54 -0.36266 24.54 -20.937 119.71
5.49 -21.583 118.29 -0.35912 22.66 -0.35912 22.66 -21.583 118.29
5.52 -22.291 116.95 -0.35588 20.79 -0.35588 20.79 -22.291 116.95
5.55 -23.071 115.71 -0.35297 18.91 -0.35297 18.91 -23.071 115.71
5.58 -23.938 114.60 -0.3504 17.03 -0.3504 17.03 -23.938 114.60
5.61 -24.91 113.68 -0.34818 15.15 -0.34818 15.15 -24.91 113.68
5.64 -26.013 113.01 -0.34634 13.26 -0.34634 13.26 -26.013 113.01
5.67 -27.281 112.72 -0.34489 11.38 -0.34489 11.38 -27.281 112.72
5.7 -28.768 113.03 -0.34383 9.49 -0.34383 9.49 -28.768 113.03
5.73 -30.552 114.34 -0.34319 7.61 -0.34319 7.61 -30.552 114.34
5.76 -32.756 117.53 -0.34297 5.72 -0.34297 5.72 -32.756 117.53
5.79 -35.559 124.69 -0.34317 3.83 -0.34317 3.83 -35.559 124.69
5.82 -39.02 141.69 -0.3438 1.94 -0.3438 1.94 -39.02 141.69
5.85 -41.384 179.07 -0.34487 0.06 -0.34487 0.06 -41.384 179.07
5.88 -39.194 -142.60 -0.34637 -1.83 -0.34637 -1.83 -39.194 -142.60
5.91 -35.718 -124.85 -0.34831 -3.72 -0.34831 -3.72 -35.718 -124.85
5.94 -32.883 -117.39 -0.35068 -5.61 -0.35068 -5.61 -32.883 -117.39
5.97 -30.657 -114.08 -0.35347 -7.50 -0.35347 -7.50 -30.657 -114.08
6 -28.859 -112.70 -0.35669 -9.38 -0.35669 -9.38 -28.859 -112.70
