! yapnr Order 0 O0-M: O0-M A10 M-MK 30 (variant, family M-MK)
! stackup OSHPARK-4L-EM528, nominal parameters; geometry of the OSHPARK-4L-FR408HR design
! model: 2D quasi-static RLGC (Djordjevic-Sarkar, Huray roughness, Wheeler loss); generated by python -m yapnr.rf.coupons expected --stackup OSHPARK-4L-FR408HR --upload M
! reference planes 10 mm from each end; 50 ohm (from the M line's Zc)
# GHz S DB R 50
0.03 -57.179 -49.24 -0.0098892 -1.93 -0.0098892 -1.93 -57.179 -49.24
0.06 -51.053 -67.10 -0.014448 -3.82 -0.014448 -3.82 -51.053 -67.10
0.09 -47.304 -75.50 -0.01824 -5.71 -0.01824 -5.71 -47.304 -75.50
0.12 -44.644 -81.00 -0.021645 -7.59 -0.021645 -7.59 -44.644 -81.00
0.15 -42.595 -85.23 -0.024814 -9.46 -0.024814 -9.46 -42.595 -85.23
0.18 -40.936 -88.78 -0.027822 -11.34 -0.027822 -11.34 -40.936 -88.78
0.21 -39.545 -91.91 -0.030715 -13.21 -0.030715 -13.21 -39.545 -91.91
0.24 -38.352 -94.77 -0.033522 -15.09 -0.033522 -15.09 -38.352 -94.77
0.27 -37.311 -97.45 -0.036262 -16.96 -0.036262 -16.96 -37.311 -97.45
0.3 -36.388 -99.98 -0.03895 -18.83 -0.03895 -18.83 -36.388 -99.98
0.33 -35.563 -102.42 -0.041596 -20.70 -0.041596 -20.70 -35.563 -102.42
0.36 -34.818 -104.77 -0.044208 -22.57 -0.044208 -22.57 -34.818 -104.77
0.39 -34.14 -107.06 -0.046791 -24.44 -0.046791 -24.44 -34.14 -107.06
0.42 -33.521 -109.30 -0.049349 -26.31 -0.049349 -26.31 -33.521 -109.30
0.45 -32.952 -111.49 -0.051888 -28.17 -0.051888 -28.17 -32.952 -111.49
0.48 -32.427 -113.66 -0.054407 -30.04 -0.054407 -30.04 -32.427 -113.66
0.51 -31.941 -115.79 -0.05691 -31.91 -0.05691 -31.91 -31.941 -115.79
0.54 -31.49 -117.89 -0.059399 -33.77 -0.059399 -33.77 -31.49 -117.89
0.57 -31.071 -119.97 -0.061872 -35.64 -0.061872 -35.64 -31.071 -119.97
0.6 -30.68 -122.04 -0.064333 -37.50 -0.064333 -37.50 -30.68 -122.04
0.63 -30.315 -124.09 -0.066779 -39.37 -0.066779 -39.37 -30.315 -124.09
0.66 -29.975 -126.12 -0.069213 -41.23 -0.069213 -41.23 -29.975 -126.12
0.69 -29.656 -128.14 -0.071632 -43.09 -0.071632 -43.09 -29.656 -128.14
0.72 -29.358 -130.14 -0.074038 -44.96 -0.074038 -44.96 -29.358 -130.14
0.75 -29.08 -132.14 -0.076429 -46.82 -0.076429 -46.82 -29.08 -132.14
0.78 -28.819 -134.13 -0.078806 -48.68 -0.078806 -48.68 -28.819 -134.13
0.81 -28.575 -136.10 -0.081166 -50.54 -0.081166 -50.54 -28.575 -136.10
0.84 -28.347 -138.07 -0.083511 -52.40 -0.083511 -52.40 -28.347 -138.07
0.87 -28.134 -140.04 -0.085838 -54.26 -0.085838 -54.26 -28.134 -140.04
0.9 -27.935 -141.99 -0.088146 -56.13 -0.088146 -56.13 -27.935 -141.99
0.93 -27.751 -143.94 -0.090436 -57.99 -0.090436 -57.99 -27.751 -143.94
0.96 -27.579 -145.89 -0.092706 -59.85 -0.092706 -59.85 -27.579 -145.89
0.99 -27.42 -147.83 -0.094955 -61.71 -0.094955 -61.71 -27.42 -147.83
1.02 -27.273 -149.76 -0.097183 -63.57 -0.097183 -63.57 -27.273 -149.76
1.05 -27.137 -151.69 -0.099388 -65.42 -0.099388 -65.42 -27.137 -151.69
1.08 -27.013 -153.61 -0.10157 -67.28 -0.10157 -67.28 -27.013 -153.61
1.11 -26.9 -155.53 -0.10373 -69.14 -0.10373 -69.14 -26.9 -155.53
1.14 -26.798 -157.45 -0.10586 -71.00 -0.10586 -71.00 -26.798 -157.45
1.17 -26.706 -159.36 -0.10797 -72.86 -0.10797 -72.86 -26.706 -159.36
1.2 -26.624 -161.27 -0.11005 -74.72 -0.11005 -74.72 -26.624 -161.27
1.23 -26.552 -163.18 -0.1121 -76.57 -0.1121 -76.57 -26.552 -163.18
1.26 -26.49 -165.08 -0.11413 -78.43 -0.11413 -78.43 -26.49 -165.08
1.29 -26.438 -166.98 -0.11613 -80.29 -0.11613 -80.29 -26.438 -166.98
1.32 -26.395 -168.87 -0.1181 -82.15 -0.1181 -82.15 -26.395 -168.87
1.35 -26.361 -170.77 -0.12005 -84.00 -0.12005 -84.00 -26.361 -170.77
1.38 -26.337 -172.66 -0.12196 -85.86 -0.12196 -85.86 -26.337 -172.66
1.41 -26.322 -174.55 -0.12385 -87.72 -0.12385 -87.72 -26.322 -174.55
1.44 -26.317 -176.43 -0.12571 -89.57 -0.12571 -89.57 -26.317 -176.43
1.47 -26.32 -178.31 -0.12753 -91.43 -0.12753 -91.43 -26.32 -178.31
1.5 -26.333 179.80 -0.12933 -93.29 -0.12933 -93.29 -26.333 179.80
1.53 -26.355 177.93 -0.13111 -95.14 -0.13111 -95.14 -26.355 177.93
1.56 -26.386 176.05 -0.13285 -97.00 -0.13285 -97.00 -26.386 176.05
1.59 -26.427 174.18 -0.13457 -98.86 -0.13457 -98.86 -26.427 174.18
1.62 -26.477 172.31 -0.13626 -100.71 -0.13626 -100.71 -26.477 172.31
1.65 -26.537 170.44 -0.13792 -102.57 -0.13792 -102.57 -26.537 170.44
1.68 -26.606 168.57 -0.13955 -104.42 -0.13955 -104.42 -26.606 168.57
1.71 -26.684 166.71 -0.14117 -106.28 -0.14117 -106.28 -26.684 166.71
1.74 -26.773 164.85 -0.14275 -108.14 -0.14275 -108.14 -26.773 164.85
1.77 -26.872 162.99 -0.14432 -109.99 -0.14432 -109.99 -26.872 162.99
1.8 -26.982 161.13 -0.14586 -111.85 -0.14586 -111.85 -26.982 161.13
1.83 -27.101 159.28 -0.14738 -113.71 -0.14738 -113.71 -27.101 159.28
1.86 -27.232 157.43 -0.14888 -115.56 -0.14888 -115.56 -27.232 157.43
1.89 -27.374 155.58 -0.15036 -117.42 -0.15036 -117.42 -27.374 155.58
1.92 -27.528 153.74 -0.15182 -119.28 -0.15182 -119.28 -27.528 153.74
1.95 -27.694 151.90 -0.15326 -121.13 -0.15326 -121.13 -27.694 151.90
1.98 -27.872 150.06 -0.15469 -122.99 -0.15469 -122.99 -27.872 150.06
2.01 -28.063 148.22 -0.15611 -124.84 -0.15611 -124.84 -28.063 148.22
2.04 -28.268 146.39 -0.15751 -126.70 -0.15751 -126.70 -28.268 146.39
2.07 -28.487 144.57 -0.15891 -128.56 -0.15891 -128.56 -28.487 144.57
2.1 -28.721 142.74 -0.16029 -130.42 -0.16029 -130.42 -28.721 142.74
2.13 -28.97 140.93 -0.16166 -132.27 -0.16166 -132.27 -28.97 140.93
2.16 -29.236 139.11 -0.16303 -134.13 -0.16303 -134.13 -29.236 139.11
2.19 -29.521 137.31 -0.16439 -135.99 -0.16439 -135.99 -29.521 137.31
2.22 -29.823 135.51 -0.16575 -137.84 -0.16575 -137.84 -29.823 135.51
2.25 -30.147 133.72 -0.1671 -139.70 -0.1671 -139.70 -30.147 133.72
2.28 -30.492 131.93 -0.16846 -141.56 -0.16846 -141.56 -30.492 131.93
2.31 -30.86 130.16 -0.16981 -143.42 -0.16981 -143.42 -30.86 130.16
2.34 -31.255 128.40 -0.17117 -145.27 -0.17117 -145.27 -31.255 128.40
2.37 -31.677 126.65 -0.17253 -147.13 -0.17253 -147.13 -31.677 126.65
2.4 -32.131 124.92 -0.1739 -148.99 -0.1739 -148.99 -32.131 124.92
2.43 -32.618 123.20 -0.17527 -150.85 -0.17527 -150.85 -32.618 123.20
2.46 -33.145 121.50 -0.17665 -152.71 -0.17665 -152.71 -33.145 121.50
2.49 -33.714 119.83 -0.17804 -154.56 -0.17804 -154.56 -33.714 119.83
2.52 -34.333 118.20 -0.17943 -156.42 -0.17943 -156.42 -34.333 118.20
2.55 -35.009 116.60 -0.18084 -158.28 -0.18084 -158.28 -35.009 116.60
2.58 -35.751 115.05 -0.18226 -160.14 -0.18226 -160.14 -35.751 115.05
2.61 -36.571 113.58 -0.1837 -162.00 -0.1837 -162.00 -36.571 113.58
2.64 -37.487 112.19 -0.18515 -163.86 -0.18515 -163.86 -37.487 112.19
2.67 -38.519 110.92 -0.18661 -165.71 -0.18661 -165.71 -38.519 110.92
2.7 -39.699 109.83 -0.18809 -167.57 -0.18809 -167.57 -39.699 109.83
2.73 -41.072 109.02 -0.18958 -169.43 -0.18958 -169.43 -41.072 109.02
2.76 -42.709 108.64 -0.1911 -171.29 -0.1911 -171.29 -42.709 108.64
2.79 -44.727 109.05 -0.19263 -173.15 -0.19263 -173.15 -44.727 109.05
2.82 -47.339 111.07 -0.19417 -175.01 -0.19417 -175.01 -47.339 111.07
2.85 -50.975 117.21 -0.19574 -176.87 -0.19574 -176.87 -50.975 117.21
2.88 -56.365 138.56 -0.19733 -178.73 -0.19733 -178.73 -56.365 138.56
2.91 -58.432 -154.91 -0.19893 179.42 -0.19893 179.42 -58.432 -154.91
2.94 -52.708 -119.20 -0.20055 177.56 -0.20055 177.56 -52.708 -119.20
2.97 -48.519 -109.85 -0.2022 175.70 -0.2022 175.70 -48.519 -109.85
3 -45.607 -106.80 -0.20386 173.84 -0.20386 173.84 -45.607 -106.80
3.03 -43.41 -105.94 -0.20554 171.98 -0.20554 171.98 -43.41 -105.94
3.06 -41.657 -106.08 -0.20724 170.12 -0.20724 170.12 -41.657 -106.08
3.09 -40.202 -106.75 -0.20895 168.26 -0.20895 168.26 -40.202 -106.75
3.12 -38.963 -107.75 -0.21069 166.41 -0.21069 166.41 -38.963 -107.75
3.15 -37.886 -108.95 -0.21244 164.55 -0.21244 164.55 -37.886 -108.95
3.18 -36.936 -110.29 -0.2142 162.69 -0.2142 162.69 -36.936 -110.29
3.21 -36.087 -111.73 -0.21599 160.83 -0.21599 160.83 -36.087 -111.73
3.24 -35.323 -113.24 -0.21778 158.97 -0.21778 158.97 -35.323 -113.24
3.27 -34.629 -114.81 -0.2196 157.12 -0.2196 157.12 -34.629 -114.81
3.3 -33.995 -116.42 -0.22142 155.26 -0.22142 155.26 -33.995 -116.42
3.33 -33.413 -118.06 -0.22326 153.40 -0.22326 153.40 -33.413 -118.06
3.36 -32.876 -119.73 -0.22511 151.54 -0.22511 151.54 -32.876 -119.73
3.39 -32.38 -121.43 -0.22697 149.68 -0.22697 149.68 -32.38 -121.43
3.42 -31.919 -123.14 -0.22883 147.83 -0.22883 147.83 -31.919 -123.14
3.45 -31.49 -124.86 -0.23071 145.97 -0.23071 145.97 -31.49 -124.86
3.48 -31.09 -126.60 -0.23259 144.11 -0.23259 144.11 -31.09 -126.60
3.51 -30.717 -128.34 -0.23448 142.26 -0.23448 142.26 -30.717 -128.34
3.54 -30.368 -130.10 -0.23637 140.40 -0.23637 140.40 -30.368 -130.10
3.57 -30.042 -131.87 -0.23827 138.54 -0.23827 138.54 -30.042 -131.87
3.6 -29.736 -133.64 -0.24016 136.69 -0.24016 136.69 -29.736 -133.64
3.63 -29.45 -135.41 -0.24206 134.83 -0.24206 134.83 -29.45 -135.41
3.66 -29.181 -137.19 -0.24395 132.97 -0.24395 132.97 -29.181 -137.19
3.69 -28.93 -138.98 -0.24584 131.12 -0.24584 131.12 -28.93 -138.98
3.72 -28.695 -140.77 -0.24773 129.26 -0.24773 129.26 -28.695 -140.77
3.75 -28.475 -142.56 -0.24961 127.41 -0.24961 127.41 -28.475 -142.56
3.78 -28.27 -144.36 -0.25149 125.55 -0.25149 125.55 -28.27 -144.36
3.81 -28.078 -146.15 -0.25336 123.69 -0.25336 123.69 -28.078 -146.15
3.84 -27.899 -147.95 -0.25522 121.84 -0.25522 121.84 -27.899 -147.95
3.87 -27.733 -149.75 -0.25706 119.98 -0.25706 119.98 -27.733 -149.75
3.9 -27.58 -151.56 -0.2589 118.13 -0.2589 118.13 -27.58 -151.56
3.93 -27.438 -153.36 -0.26073 116.27 -0.26073 116.27 -27.438 -153.36
3.96 -27.307 -155.16 -0.26254 114.42 -0.26254 114.42 -27.307 -155.16
3.99 -27.187 -156.97 -0.26433 112.56 -0.26433 112.56 -27.187 -156.97
4.02 -27.078 -158.78 -0.26611 110.71 -0.26611 110.71 -27.078 -158.78
4.05 -26.979 -160.58 -0.26788 108.85 -0.26788 108.85 -26.979 -160.58
4.08 -26.89 -162.39 -0.26962 107.00 -0.26962 107.00 -26.89 -162.39
4.11 -26.812 -164.20 -0.27135 105.14 -0.27135 105.14 -26.812 -164.20
4.14 -26.743 -166.01 -0.27306 103.29 -0.27306 103.29 -26.743 -166.01
4.17 -26.684 -167.82 -0.27475 101.44 -0.27475 101.44 -26.684 -167.82
4.2 -26.634 -169.62 -0.27641 99.58 -0.27641 99.58 -26.634 -169.62
4.23 -26.593 -171.43 -0.27806 97.73 -0.27806 97.73 -26.593 -171.43
4.26 -26.562 -173.24 -0.27969 95.87 -0.27969 95.87 -26.562 -173.24
4.29 -26.54 -175.05 -0.28129 94.02 -0.28129 94.02 -26.54 -175.05
4.32 -26.527 -176.85 -0.28288 92.17 -0.28288 92.17 -26.527 -176.85
4.35 -26.523 -178.66 -0.28444 90.31 -0.28444 90.31 -26.523 -178.66
4.38 -26.528 179.54 -0.28598 88.46 -0.28598 88.46 -26.528 179.54
4.41 -26.543 177.73 -0.2875 86.60 -0.2875 86.60 -26.543 177.73
4.44 -26.566 175.93 -0.28899 84.75 -0.28899 84.75 -26.566 175.93
4.47 -26.599 174.13 -0.29047 82.89 -0.29047 82.89 -26.599 174.13
4.5 -26.641 172.33 -0.29192 81.04 -0.29192 81.04 -26.641 172.33
4.53 -26.692 170.53 -0.29335 79.19 -0.29335 79.19 -26.692 170.53
4.56 -26.753 168.73 -0.29476 77.33 -0.29476 77.33 -26.753 168.73
4.59 -26.823 166.93 -0.29616 75.48 -0.29616 75.48 -26.823 166.93
4.62 -26.903 165.14 -0.29753 73.62 -0.29753 73.62 -26.903 165.14
4.65 -26.992 163.34 -0.29888 71.77 -0.29888 71.77 -26.992 163.34
4.68 -27.092 161.55 -0.30022 69.91 -0.30022 69.91 -27.092 161.55
4.71 -27.202 159.76 -0.30154 68.06 -0.30154 68.06 -27.202 159.76
4.74 -27.323 157.98 -0.30284 66.20 -0.30284 66.20 -27.323 157.98
4.77 -27.454 156.20 -0.30413 64.35 -0.30413 64.35 -27.454 156.20
4.8 -27.597 154.42 -0.3054 62.49 -0.3054 62.49 -27.597 154.42
4.83 -27.751 152.64 -0.30667 60.64 -0.30667 60.64 -27.751 152.64
4.86 -27.917 150.87 -0.30791 58.78 -0.30791 58.78 -27.917 150.87
4.89 -28.096 149.10 -0.30915 56.93 -0.30915 56.93 -28.096 149.10
4.92 -28.288 147.34 -0.31038 55.07 -0.31038 55.07 -28.288 147.34
4.95 -28.493 145.58 -0.3116 53.22 -0.3116 53.22 -28.493 145.58
4.98 -28.712 143.83 -0.31281 51.36 -0.31281 51.36 -28.712 143.83
5.01 -28.946 142.08 -0.31402 49.51 -0.31402 49.51 -28.946 142.08
5.04 -29.196 140.34 -0.31522 47.65 -0.31522 47.65 -29.196 140.34
5.07 -29.463 138.61 -0.31642 45.79 -0.31642 45.79 -29.463 138.61
5.1 -29.747 136.89 -0.31761 43.94 -0.31761 43.94 -29.747 136.89
5.13 -30.05 135.18 -0.31881 42.08 -0.31881 42.08 -30.05 135.18
5.16 -30.373 133.49 -0.32001 40.23 -0.32001 40.23 -30.373 133.49
5.19 -30.718 131.80 -0.32121 38.37 -0.32121 38.37 -30.718 131.80
5.22 -31.086 130.13 -0.32241 36.51 -0.32241 36.51 -31.086 130.13
5.25 -31.481 128.48 -0.32361 34.65 -0.32361 34.65 -31.481 128.48
5.28 -31.903 126.86 -0.32483 32.80 -0.32483 32.80 -31.903 126.86
5.31 -32.355 125.25 -0.32605 30.94 -0.32605 30.94 -32.355 125.25
5.34 -32.842 123.68 -0.32727 29.08 -0.32727 29.08 -32.842 123.68
5.37 -33.367 122.15 -0.32851 27.23 -0.32851 27.23 -33.367 122.15
5.4 -33.935 120.66 -0.32976 25.37 -0.32976 25.37 -33.935 120.66
5.43 -34.552 119.22 -0.33102 23.51 -0.33102 23.51 -34.552 119.22
5.46 -35.225 117.86 -0.33229 21.65 -0.33229 21.65 -35.225 117.86
5.49 -35.963 116.58 -0.33357 19.79 -0.33357 19.79 -35.963 116.58
5.52 -36.778 115.42 -0.33487 17.94 -0.33487 17.94 -36.778 115.42
5.55 -37.686 114.41 -0.33618 16.08 -0.33618 16.08 -37.686 114.41
5.58 -38.707 113.61 -0.33751 14.22 -0.33751 14.22 -38.707 113.61
5.61 -39.869 113.12 -0.33886 12.36 -0.33886 12.36 -39.869 113.12
5.64 -41.213 113.10 -0.34022 10.50 -0.34022 10.50 -41.213 113.10
5.67 -42.799 113.81 -0.3416 8.64 -0.3416 8.64 -42.799 113.81
5.7 -44.719 115.79 -0.343 6.79 -0.343 6.79 -44.719 115.79
5.73 -47.112 120.27 -0.34442 4.93 -0.34442 4.93 -47.112 120.27
5.76 -50.147 130.30 -0.34586 3.07 -0.34586 3.07 -50.147 130.30
5.79 -53.526 153.99 -0.34731 1.21 -0.34731 1.21 -53.526 153.99
5.82 -54.229 -164.26 -0.34879 -0.65 -0.34879 -0.65 -54.229 -164.26
5.85 -51.149 -134.50 -0.35028 -2.51 -0.35028 -2.51 -51.149 -134.50
5.88 -47.929 -121.67 -0.35179 -4.37 -0.35179 -4.37 -47.929 -121.67
5.91 -45.37 -116.04 -0.35332 -6.22 -0.35332 -6.22 -45.37 -116.04
5.94 -43.334 -113.50 -0.35487 -8.08 -0.35487 -8.08 -43.334 -113.50
5.97 -41.667 -112.49 -0.35644 -9.94 -0.35644 -9.94 -41.667 -112.49
6 -40.264 -112.34 -0.35802 -11.80 -0.35802 -11.80 -40.264 -112.34
