! yapnr Order 0 O0-M: O0-M A11 RING M (ring, family M)
! stackup OSHPARK-4L-EM528, nominal parameters; geometry of the OSHPARK-4L-FR408HR design
! model: 2D quasi-static RLGC (Djordjevic-Sarkar, Huray roughness, Wheeler loss); generated by python -m yapnr.rf.coupons expected --stackup OSHPARK-4L-FR408HR --upload M
! reference planes 10 mm from each end; 50 ohm (from the M line's Zc)
# GHz S DB R 50
0.03 -27.607 -92.95 -0.02143 -4.44 -0.02143 -4.44 -27.607 -92.95
0.06 -21.567 -97.88 -0.051499 -8.82 -0.051499 -8.82 -21.567 -97.88
0.09 -18.072 -102.47 -0.0958 -13.17 -0.0958 -13.17 -18.072 -102.47
0.12 -15.625 -106.93 -0.15438 -17.49 -0.15438 -17.49 -15.625 -106.93
0.15 -13.759 -111.31 -0.22682 -21.78 -0.22682 -21.78 -13.759 -111.31
0.18 -12.263 -115.62 -0.31243 -26.01 -0.31243 -26.01 -12.263 -115.62
0.21 -11.027 -119.87 -0.41041 -30.20 -0.41041 -30.20 -11.027 -119.87
0.24 -9.9834 -124.05 -0.51981 -34.34 -0.51981 -34.34 -9.9834 -124.05
0.27 -9.0887 -128.17 -0.63964 -38.42 -0.63964 -38.42 -9.0887 -128.17
0.3 -8.3128 -132.22 -0.76886 -42.44 -0.76886 -42.44 -8.3128 -132.22
0.33 -7.6338 -136.21 -0.90644 -46.41 -0.90644 -46.41 -7.6338 -136.21
0.36 -7.0355 -140.14 -1.0513 -50.31 -1.0513 -50.31 -7.0355 -140.14
0.39 -6.505 -144.00 -1.2025 -54.15 -1.2025 -54.15 -6.505 -144.00
0.42 -6.0326 -147.80 -1.3591 -57.92 -1.3591 -57.92 -6.0326 -147.80
0.45 -5.6099 -151.55 -1.5202 -61.65 -1.5202 -61.65 -5.6099 -151.55
0.48 -5.2305 -155.23 -1.685 -65.31 -1.685 -65.31 -5.2305 -155.23
0.51 -4.8887 -158.86 -1.8526 -68.92 -1.8526 -68.92 -4.8887 -158.86
0.54 -4.5799 -162.44 -2.0226 -72.49 -2.0226 -72.49 -4.5799 -162.44
0.57 -4.3002 -165.97 -2.1941 -76.00 -2.1941 -76.00 -4.3002 -165.97
0.6 -4.0461 -169.46 -2.3669 -79.48 -2.3669 -79.48 -4.0461 -169.46
0.63 -3.8148 -172.91 -2.5403 -82.91 -2.5403 -82.91 -3.8148 -172.91
0.66 -3.6037 -176.33 -2.7141 -86.31 -2.7141 -86.31 -3.6037 -176.33
0.69 -3.4105 -179.72 -2.888 -89.69 -2.888 -89.69 -3.4105 -179.72
0.72 -3.2335 176.91 -3.0617 -93.04 -3.0617 -93.04 -3.2335 176.91
0.75 -3.0708 173.57 -3.2351 -96.37 -3.2351 -96.37 -3.0708 173.57
0.78 -2.9209 170.23 -3.4081 -99.68 -3.4081 -99.68 -2.9209 170.23
0.81 -2.7826 166.91 -3.5808 -102.99 -3.5808 -102.99 -2.7826 166.91
0.84 -2.6547 163.58 -3.753 -106.30 -3.753 -106.30 -2.6547 163.58
0.87 -2.536 160.25 -3.9251 -109.61 -3.9251 -109.61 -2.536 160.25
0.9 -2.4257 156.91 -4.0972 -112.93 -4.0972 -112.93 -2.4257 156.91
0.93 -2.3229 153.55 -4.2696 -116.26 -4.2696 -116.26 -2.3229 153.55
0.96 -2.2269 150.17 -4.4426 -119.62 -4.4426 -119.62 -2.2269 150.17
0.99 -2.1368 146.76 -4.6168 -123.01 -4.6168 -123.01 -2.1368 146.76
1.02 -2.0522 143.30 -4.7926 -126.44 -4.7926 -126.44 -2.0522 143.30
1.05 -1.9723 139.79 -4.9709 -129.92 -4.9709 -129.92 -1.9723 139.79
1.08 -1.8967 136.23 -5.1524 -133.45 -5.1524 -133.45 -1.8967 136.23
1.11 -1.8249 132.60 -5.3382 -137.04 -5.3382 -137.04 -1.8249 132.60
1.14 -1.7564 128.88 -5.5295 -140.72 -5.5295 -140.72 -1.7564 128.88
1.17 -1.6908 125.07 -5.7278 -144.48 -5.7278 -144.48 -1.6908 125.07
1.2 -1.6276 121.15 -5.9348 -148.34 -5.9348 -148.34 -1.6276 121.15
1.23 -1.5666 117.11 -6.1526 -152.32 -6.1526 -152.32 -1.5666 117.11
1.26 -1.5073 112.93 -6.384 -156.43 -6.384 -156.43 -1.5073 112.93
1.29 -1.4494 108.59 -6.632 -160.70 -6.632 -160.70 -1.4494 108.59
1.32 -1.3927 104.06 -6.9004 -165.13 -6.9004 -165.13 -1.3927 104.06
1.35 -1.337 99.32 -7.1941 -169.75 -7.1941 -169.75 -1.337 99.32
1.38 -1.2821 94.35 -7.5189 -174.59 -7.5189 -174.59 -1.2821 94.35
1.41 -1.228 89.10 -7.8821 -179.67 -7.8821 -179.67 -1.228 89.10
1.44 -1.1748 83.56 -8.2928 174.97 -8.2928 174.97 -1.1748 83.56
1.47 -1.1227 77.67 -8.7626 169.32 -8.7626 169.32 -1.1227 77.67
1.5 -1.0722 71.39 -9.3061 163.33 -9.3061 163.33 -1.0722 71.39
1.53 -1.0241 64.69 -9.9418 156.97 -9.9418 156.97 -1.0241 64.69
1.56 -0.97943 57.50 -10.694 150.22 -10.694 150.22 -0.97943 57.50
1.59 -0.93961 49.79 -11.592 143.05 -11.592 143.05 -0.93961 49.79
1.62 -0.90632 41.51 -12.678 135.46 -12.678 135.46 -0.90632 41.51
1.65 -0.88137 32.62 -14.003 127.46 -14.003 127.46 -0.88137 32.62
1.68 -0.86636 23.10 -15.64 119.12 -15.64 119.12 -0.86636 23.10
1.71 -0.86226 12.96 -17.687 110.55 -17.687 110.55 -0.86226 12.96
1.74 -0.86885 2.21 -20.287 101.99 -20.287 101.99 -0.86885 2.21
1.77 -0.88426 -9.09 -23.67 93.93 -23.67 93.93 -0.88426 -9.09
1.8 -0.90488 -20.86 -28.233 87.41 -28.233 87.41 -0.90488 -20.86
1.83 -0.92587 -32.99 -34.798 85.38 -34.798 85.38 -0.92587 -32.99
1.86 -0.94227 -45.35 -45.394 100.41 -45.394 100.41 -0.94227 -45.35
1.89 -0.95045 -57.80 -58.298 -140.28 -58.298 -140.28 -0.95045 -57.80
1.92 -0.94921 -70.20 -44.491 -33.45 -44.491 -33.45 -0.94921 -70.20
1.95 -0.94012 -82.40 -34.375 -20.65 -34.375 -20.65 -0.94012 -82.40
1.98 -0.92693 -94.29 -28.065 -22.98 -28.065 -22.98 -0.92693 -94.29
2.01 -0.91435 -105.73 -23.661 -29.38 -23.661 -29.38 -0.91435 -105.73
2.04 -0.90675 -116.67 -20.39 -37.17 -20.39 -37.17 -0.90675 -116.67
2.07 -0.90725 -127.02 -17.868 -45.39 -17.868 -45.39 -0.90725 -127.02
2.1 -0.91743 -136.76 -15.876 -53.59 -15.876 -53.59 -0.91743 -136.76
2.13 -0.93748 -145.89 -14.276 -61.57 -14.276 -61.57 -0.93748 -145.89
2.16 -0.96661 -154.42 -12.973 -69.21 -12.973 -69.21 -0.96661 -154.42
2.19 -1.0035 -162.37 -11.899 -76.48 -11.899 -76.48 -1.0035 -162.37
2.22 -1.0467 -169.79 -11.003 -83.35 -11.003 -83.35 -1.0467 -169.79
2.25 -1.0949 -176.72 -10.248 -89.85 -10.248 -89.85 -1.0949 -176.72
2.28 -1.1469 176.80 -9.6044 -95.98 -9.6044 -95.98 -1.1469 176.80
2.31 -1.2018 170.71 -9.0501 -101.78 -9.0501 -101.78 -1.2018 170.71
2.34 -1.2589 164.98 -8.5674 -107.28 -8.5674 -107.28 -1.2589 164.98
2.37 -1.318 159.57 -8.1425 -112.50 -8.1425 -112.50 -1.318 159.57
2.4 -1.3786 154.44 -7.7644 -117.47 -7.7644 -117.47 -1.3786 154.44
2.43 -1.4408 149.56 -7.4245 -122.22 -7.4245 -122.22 -1.4408 149.56
2.46 -1.5045 144.90 -7.1158 -126.78 -7.1158 -126.78 -1.5045 144.90
2.49 -1.57 140.43 -6.8327 -131.16 -6.8327 -131.16 -1.57 140.43
2.52 -1.6374 136.14 -6.5705 -135.38 -6.5705 -135.38 -1.6374 136.14
2.55 -1.707 131.99 -6.3256 -139.47 -6.3256 -139.47 -1.707 131.99
2.58 -1.7791 127.98 -6.0948 -143.45 -6.0948 -143.45 -1.7791 127.98
2.61 -1.854 124.08 -5.8758 -147.31 -5.8758 -147.31 -1.854 124.08
2.64 -1.9321 120.28 -5.6664 -151.09 -5.6664 -151.09 -1.9321 120.28
2.67 -2.0138 116.56 -5.4648 -154.78 -5.4648 -154.78 -2.0138 116.56
2.7 -2.0996 112.93 -5.2698 -158.41 -5.2698 -158.41 -2.0996 112.93
2.73 -2.1899 109.36 -5.08 -161.98 -5.08 -161.98 -2.1899 109.36
2.76 -2.2853 105.84 -4.8945 -165.50 -4.8945 -165.50 -2.2853 105.84
2.79 -2.3865 102.37 -4.7126 -168.98 -4.7126 -168.98 -2.3865 102.37
2.82 -2.4939 98.94 -4.5334 -172.42 -4.5334 -172.42 -2.4939 98.94
2.85 -2.6083 95.54 -4.3566 -175.84 -4.3566 -175.84 -2.6083 95.54
2.88 -2.7304 92.17 -4.1816 -179.25 -4.1816 -179.25 -2.7304 92.17
2.91 -2.8612 88.81 -4.0081 177.37 -4.0081 177.37 -2.8612 88.81
2.94 -3.0014 85.47 -3.8359 173.98 -3.8359 173.98 -3.0014 85.47
2.97 -3.1522 82.13 -3.6649 170.60 -3.6649 170.60 -3.1522 82.13
3 -3.3146 78.80 -3.4949 167.21 -3.4949 167.21 -3.3146 78.80
3.03 -3.4899 75.46 -3.3259 163.82 -3.3259 163.82 -3.4899 75.46
3.06 -3.6795 72.12 -3.158 160.41 -3.158 160.41 -3.6795 72.12
3.09 -3.885 68.76 -2.9913 156.98 -2.9913 156.98 -3.885 68.76
3.12 -4.1082 65.40 -2.826 153.53 -2.826 153.53 -4.1082 65.40
3.15 -4.3512 62.01 -2.6624 150.05 -2.6624 150.05 -4.3512 62.01
3.18 -4.6161 58.61 -2.5007 146.54 -2.5007 146.54 -4.6161 58.61
3.21 -4.9057 55.18 -2.3413 143.00 -2.3413 143.00 -4.9057 55.18
3.24 -5.223 51.74 -2.1846 139.42 -2.1846 139.42 -5.223 51.74
3.27 -5.5714 48.27 -2.0312 135.80 -2.0312 135.80 -5.5714 48.27
3.3 -5.9551 44.78 -1.8816 132.14 -1.8816 132.14 -5.9551 44.78
3.33 -6.3787 41.27 -1.7364 128.43 -1.7364 128.43 -6.3787 41.27
3.36 -6.848 37.74 -1.5963 124.68 -1.5963 124.68 -6.848 37.74
3.39 -7.3698 34.21 -1.4619 120.88 -1.4619 120.88 -7.3698 34.21
3.42 -7.9524 30.68 -1.3339 117.04 -1.3339 117.04 -7.9524 30.68
3.45 -8.6061 27.15 -1.2132 113.15 -1.2132 113.15 -8.6061 27.15
3.48 -9.3441 23.67 -1.1005 109.22 -1.1005 109.22 -9.3441 23.67
3.51 -10.183 20.24 -0.99648 105.24 -0.99648 105.24 -10.183 20.24
3.54 -11.146 16.91 -0.902 101.22 -0.902 101.22 -11.146 16.91
3.57 -12.265 13.75 -0.81776 97.16 -0.81776 97.16 -12.265 13.75
3.6 -13.586 10.87 -0.7444 93.07 -0.7444 93.07 -13.586 10.87
3.63 -15.177 8.47 -0.68254 88.95 -0.68254 88.95 -15.177 8.47
3.66 -17.156 6.96 -0.63269 84.81 -0.63269 84.81 -17.156 6.96
3.69 -19.724 7.28 -0.59528 80.64 -0.59528 80.64 -19.724 7.28
3.72 -23.269 12.25 -0.5706 76.47 -0.5706 76.47 -23.269 12.25
3.75 -28.219 33.15 -0.55885 72.28 -0.55885 72.28 -28.219 33.15
3.78 -29.651 91.02 -0.56009 68.10 -0.56009 68.10 -29.651 91.02
3.81 -24.651 122.54 -0.57425 63.92 -0.57425 63.92 -24.651 122.54
3.84 -20.72 130.34 -0.60112 59.76 -0.60112 59.76 -20.72 130.34
3.87 -17.931 131.63 -0.6404 55.61 -0.6404 55.61 -17.931 131.63
3.9 -15.823 130.56 -0.69165 51.49 -0.69165 51.49 -15.823 130.56
3.93 -14.15 128.41 -0.75434 47.40 -0.75434 47.40 -14.15 128.41
3.96 -12.776 125.69 -0.82788 43.34 -0.82788 43.34 -12.776 125.69
3.99 -11.621 122.65 -0.91158 39.32 -0.91158 39.32 -11.621 122.65
4.02 -10.633 119.42 -1.0047 35.34 -1.0047 35.34 -10.633 119.42
4.05 -9.7756 116.07 -1.1066 31.40 -1.1066 31.40 -9.7756 116.07
4.08 -9.0247 112.65 -1.2163 27.51 -1.2163 27.51 -9.0247 112.65
4.11 -8.3617 109.20 -1.3333 23.66 -1.3333 23.66 -8.3617 109.20
4.14 -7.7723 105.73 -1.4566 19.86 -1.4566 19.86 -7.7723 105.73
4.17 -7.2456 102.25 -1.5856 16.10 -1.5856 16.10 -7.2456 102.25
4.2 -6.7727 98.79 -1.7196 12.40 -1.7196 12.40 -6.7727 98.79
4.23 -6.3465 95.33 -1.858 8.73 -1.858 8.73 -6.3465 95.33
4.26 -5.961 91.89 -2 5.11 -2 5.11 -5.961 91.89
4.29 -5.6112 88.47 -2.1453 1.52 -2.1453 1.52 -5.6112 88.47
4.32 -5.2931 85.07 -2.2932 -2.02 -2.2932 -2.02 -5.2931 85.07
4.35 -5.0029 81.68 -2.4434 -5.53 -2.4434 -5.53 -5.0029 81.68
4.38 -4.7377 78.32 -2.5955 -9.01 -2.5955 -9.01 -4.7377 78.32
4.41 -4.4947 74.97 -2.7491 -12.46 -2.7491 -12.46 -4.4947 74.97
4.44 -4.2716 71.63 -2.904 -15.89 -2.904 -15.89 -4.2716 71.63
4.47 -4.0665 68.31 -3.0599 -19.30 -3.0599 -19.30 -4.0665 68.31
4.5 -3.8775 64.99 -3.2169 -22.69 -3.2169 -22.69 -3.8775 64.99
4.53 -3.703 61.68 -3.3746 -26.07 -3.3746 -26.07 -3.703 61.68
4.56 -3.5417 58.37 -3.5333 -29.44 -3.5333 -29.44 -3.5417 58.37
4.59 -3.3923 55.06 -3.6927 -32.80 -3.6927 -32.80 -3.3923 55.06
4.62 -3.2538 51.73 -3.8532 -36.17 -3.8532 -36.17 -3.2538 51.73
4.65 -3.125 48.40 -4.0149 -39.55 -4.0149 -39.55 -3.125 48.40
4.68 -3.0052 45.04 -4.1779 -42.93 -4.1779 -42.93 -3.0052 45.04
4.71 -2.8935 41.66 -4.3427 -46.34 -4.3427 -46.34 -2.8935 41.66
4.74 -2.7893 38.25 -4.5097 -49.77 -4.5097 -49.77 -2.7893 38.25
4.77 -2.6918 34.80 -4.6793 -53.23 -4.6793 -53.23 -2.6918 34.80
4.8 -2.6006 31.31 -4.8523 -56.72 -4.8523 -56.72 -2.6006 31.31
4.83 -2.5151 27.76 -5.0293 -60.26 -5.0293 -60.26 -2.5151 27.76
4.86 -2.4349 24.16 -5.2114 -63.86 -5.2114 -63.86 -2.4349 24.16
4.89 -2.3595 20.48 -5.3995 -67.51 -5.3995 -67.51 -2.3595 20.48
4.92 -2.2886 16.72 -5.595 -71.23 -5.595 -71.23 -2.2886 16.72
4.95 -2.2219 12.86 -5.7994 -75.04 -5.7994 -75.04 -2.2219 12.86
4.98 -2.1591 8.90 -6.0146 -78.93 -6.0146 -78.93 -2.1591 8.90
5.01 -2.1 4.82 -6.2428 -82.93 -6.2428 -82.93 -2.1 4.82
5.04 -2.0444 0.60 -6.4866 -87.04 -6.4866 -87.04 -2.0444 0.60
5.07 -1.9924 -3.78 -6.7494 -91.28 -6.7494 -91.28 -1.9924 -3.78
5.1 -1.9438 -8.33 -7.0348 -95.66 -7.0348 -95.66 -1.9438 -8.33
5.13 -1.8987 -13.08 -7.3477 -100.21 -7.3477 -100.21 -1.8987 -13.08
5.16 -1.8574 -18.05 -7.6939 -104.93 -7.6939 -104.93 -1.8574 -18.05
5.19 -1.8201 -23.27 -8.0802 -109.84 -8.0802 -109.84 -1.8201 -23.27
5.22 -1.7874 -28.78 -8.5155 -114.97 -8.5155 -114.97 -1.7874 -28.78
5.25 -1.7598 -34.60 -9.0105 -120.32 -9.0105 -120.32 -1.7598 -34.60
5.28 -1.7383 -40.77 -9.5784 -125.92 -9.5784 -125.92 -1.7383 -40.77
5.31 -1.7238 -47.34 -10.236 -131.77 -10.236 -131.77 -1.7238 -47.34
5.34 -1.7175 -54.33 -11.004 -137.87 -11.004 -137.87 -1.7175 -54.33
5.37 -1.7209 -61.79 -11.909 -144.22 -11.909 -144.22 -1.7209 -61.79
5.4 -1.7352 -69.77 -12.983 -150.77 -12.983 -150.77 -1.7352 -69.77
5.43 -1.7615 -78.28 -14.271 -157.47 -14.271 -157.47 -1.7615 -78.28
5.46 -1.8001 -87.35 -15.827 -164.18 -15.827 -164.18 -1.8001 -87.35
5.49 -1.8506 -96.99 -17.727 -170.70 -17.727 -170.70 -1.8506 -96.99
5.52 -1.911 -107.18 -20.073 -176.65 -20.073 -176.65 -1.911 -107.18
5.55 -1.9774 -117.91 -23.013 178.66 -23.013 178.66 -1.9774 -117.91
5.58 -2.0444 -129.10 -26.769 176.59 -26.769 176.59 -2.0444 -129.10
5.61 -2.1055 -140.70 -31.673 -179.75 -31.673 -179.75 -2.1055 -140.70
5.64 -2.1537 -152.58 -38.059 -162.08 -38.059 -162.08 -2.1537 -152.58
5.67 -2.1835 -164.63 -44.448 -109.98 -44.448 -109.98 -2.1835 -164.63
5.7 -2.1917 -176.73 -43.165 -31.47 -43.165 -31.47 -2.1917 -176.73
5.73 -2.1784 171.27 -36.33 9.37 -36.33 9.37 -2.1784 171.27
5.76 -2.1467 159.48 -30.361 22.15 -30.361 22.15 -2.1467 159.48
5.79 -2.1021 148.02 -25.819 23.96 -25.819 23.96 -2.1021 148.02
5.82 -2.0509 136.99 -22.324 21.14 -22.324 21.14 -2.0509 136.99
5.85 -1.9992 126.46 -19.574 16.16 -19.574 16.16 -1.9992 126.46
5.88 -1.9521 116.47 -17.371 10.16 -17.371 10.16 -1.9521 116.47
5.91 -1.9129 107.04 -15.579 3.71 -15.579 3.71 -1.9129 107.04
5.94 -1.8835 98.18 -14.106 -2.87 -14.106 -2.87 -1.8835 98.18
5.97 -1.8646 89.87 -12.882 -9.41 -12.882 -9.41 -1.8646 89.87
6 -1.8558 82.08 -11.856 -15.79 -11.856 -15.79 -1.8558 82.08
