! yapnr Order 0 O0-M: O0-M A12 STUB (stub, family M)
! stackup OSHPARK-4L-EM528, nominal parameters; geometry of the OSHPARK-4L-FR408HR design
! model: 2D quasi-static RLGC (Djordjevic-Sarkar, Huray roughness, Wheeler loss); generated by python -m yapnr.rf.coupons expected --stackup OSHPARK-4L-FR408HR --upload M
! reference planes 10 mm from each end; 50 ohm (from the M line's Zc)
# GHz S DB R 50
0.03 -47.406 -83.57 -0.0059188 -1.19 -0.0059188 -1.19 -47.406 -83.57
0.06 -41.135 -87.35 -0.0088522 -2.36 -0.0088522 -2.36 -41.135 -87.35
0.09 -37.505 -89.60 -0.01149 -3.52 -0.01149 -3.52 -37.505 -89.60
0.12 -34.944 -91.39 -0.014066 -4.68 -0.014066 -4.68 -34.944 -91.39
0.15 -32.965 -92.97 -0.016672 -5.84 -0.016672 -5.84 -32.965 -92.97
0.18 -31.353 -94.43 -0.019355 -7.00 -0.019355 -7.00 -31.353 -94.43
0.21 -29.992 -95.83 -0.022143 -8.16 -0.022143 -8.16 -29.992 -95.83
0.24 -28.816 -97.17 -0.025055 -9.31 -0.025055 -9.31 -28.816 -97.17
0.27 -27.779 -98.49 -0.028103 -10.47 -0.028103 -10.47 -27.779 -98.49
0.3 -26.853 -99.78 -0.031298 -11.63 -0.031298 -11.63 -26.853 -99.78
0.33 -26.016 -101.05 -0.034646 -12.78 -0.034646 -12.78 -26.016 -101.05
0.36 -25.252 -102.30 -0.038154 -13.94 -0.038154 -13.94 -25.252 -102.30
0.39 -24.55 -103.55 -0.041826 -15.10 -0.041826 -15.10 -24.55 -103.55
0.42 -23.9 -104.78 -0.045666 -16.25 -0.045666 -16.25 -23.9 -104.78
0.45 -23.296 -106.01 -0.049679 -17.41 -0.049679 -17.41 -23.296 -106.01
0.48 -22.731 -107.23 -0.053866 -18.56 -0.053866 -18.56 -22.731 -107.23
0.51 -22.2 -108.44 -0.058231 -19.72 -0.058231 -19.72 -22.2 -108.44
0.54 -21.699 -109.65 -0.062776 -20.88 -0.062776 -20.88 -21.699 -109.65
0.57 -21.226 -110.86 -0.067504 -22.03 -0.067504 -22.03 -21.226 -110.86
0.6 -20.777 -112.06 -0.072416 -23.19 -0.072416 -23.19 -20.777 -112.06
0.63 -20.35 -113.26 -0.077515 -24.35 -0.077515 -24.35 -20.35 -113.26
0.66 -19.943 -114.46 -0.082804 -25.50 -0.082804 -25.50 -19.943 -114.46
0.69 -19.554 -115.65 -0.088283 -26.66 -0.088283 -26.66 -19.554 -115.65
0.72 -19.181 -116.85 -0.093955 -27.82 -0.093955 -27.82 -19.181 -116.85
0.75 -18.824 -118.04 -0.099822 -28.98 -0.099822 -28.98 -18.824 -118.04
0.78 -18.48 -119.23 -0.10589 -30.13 -0.10589 -30.13 -18.48 -119.23
0.81 -18.15 -120.42 -0.11215 -31.29 -0.11215 -31.29 -18.15 -120.42
0.84 -17.831 -121.61 -0.11861 -32.45 -0.11861 -32.45 -17.831 -121.61
0.87 -17.524 -122.79 -0.12528 -33.61 -0.12528 -33.61 -17.524 -122.79
0.9 -17.226 -123.98 -0.13215 -34.77 -0.13215 -34.77 -17.226 -123.98
0.93 -16.939 -125.17 -0.13923 -35.93 -0.13923 -35.93 -16.939 -125.17
0.96 -16.66 -126.36 -0.14651 -37.09 -0.14651 -37.09 -16.66 -126.36
0.99 -16.39 -127.54 -0.15401 -38.25 -0.15401 -38.25 -16.39 -127.54
1.02 -16.128 -128.73 -0.16172 -39.42 -0.16172 -39.42 -16.128 -128.73
1.05 -15.873 -129.91 -0.16964 -40.58 -0.16964 -40.58 -15.873 -129.91
1.08 -15.626 -131.10 -0.17779 -41.74 -0.17779 -41.74 -15.626 -131.10
1.11 -15.385 -132.28 -0.18615 -42.91 -0.18615 -42.91 -15.385 -132.28
1.14 -15.15 -133.47 -0.19474 -44.07 -0.19474 -44.07 -15.15 -133.47
1.17 -14.921 -134.66 -0.20355 -45.24 -0.20355 -45.24 -14.921 -134.66
1.2 -14.698 -135.84 -0.21259 -46.40 -0.21259 -46.40 -14.698 -135.84
1.23 -14.48 -137.03 -0.22186 -47.57 -0.22186 -47.57 -14.48 -137.03
1.26 -14.268 -138.21 -0.23136 -48.74 -0.23136 -48.74 -14.268 -138.21
1.29 -14.06 -139.40 -0.2411 -49.90 -0.2411 -49.90 -14.06 -139.40
1.32 -13.856 -140.59 -0.25108 -51.07 -0.25108 -51.07 -13.856 -140.59
1.35 -13.657 -141.78 -0.2613 -52.24 -0.2613 -52.24 -13.657 -141.78
1.38 -13.463 -142.97 -0.27177 -53.41 -0.27177 -53.41 -13.463 -142.97
1.41 -13.272 -144.16 -0.28249 -54.59 -0.28249 -54.59 -13.272 -144.16
1.44 -13.085 -145.35 -0.29346 -55.76 -0.29346 -55.76 -13.085 -145.35
1.47 -12.902 -146.54 -0.30468 -56.93 -0.30468 -56.93 -12.902 -146.54
1.5 -12.722 -147.73 -0.31617 -58.11 -0.31617 -58.11 -12.722 -147.73
1.53 -12.545 -148.92 -0.32792 -59.28 -0.32792 -59.28 -12.545 -148.92
1.56 -12.372 -150.11 -0.33994 -60.46 -0.33994 -60.46 -12.372 -150.11
1.59 -12.202 -151.31 -0.35223 -61.64 -0.35223 -61.64 -12.202 -151.31
1.62 -12.035 -152.50 -0.36479 -62.82 -0.36479 -62.82 -12.035 -152.50
1.65 -11.87 -153.70 -0.37764 -64.00 -0.37764 -64.00 -11.87 -153.70
1.68 -11.709 -154.90 -0.39077 -65.18 -0.39077 -65.18 -11.709 -154.90
1.71 -11.55 -156.10 -0.4042 -66.36 -0.4042 -66.36 -11.55 -156.10
1.74 -11.393 -157.29 -0.41792 -67.55 -0.41792 -67.55 -11.393 -157.29
1.77 -11.239 -158.50 -0.43194 -68.73 -0.43194 -68.73 -11.239 -158.50
1.8 -11.088 -159.70 -0.44626 -69.92 -0.44626 -69.92 -11.088 -159.70
1.83 -10.938 -160.90 -0.4609 -71.11 -0.4609 -71.11 -10.938 -160.90
1.86 -10.791 -162.11 -0.47586 -72.30 -0.47586 -72.30 -10.791 -162.11
1.89 -10.646 -163.31 -0.49114 -73.49 -0.49114 -73.49 -10.646 -163.31
1.92 -10.502 -164.52 -0.50675 -74.68 -0.50675 -74.68 -10.502 -164.52
1.95 -10.361 -165.73 -0.52269 -75.88 -0.52269 -75.88 -10.361 -165.73
1.98 -10.222 -166.94 -0.53898 -77.07 -0.53898 -77.07 -10.222 -166.94
2.01 -10.084 -168.15 -0.55562 -78.27 -0.55562 -78.27 -10.084 -168.15
2.04 -9.9486 -169.36 -0.57262 -79.47 -0.57262 -79.47 -9.9486 -169.36
2.07 -9.8145 -170.58 -0.58998 -80.67 -0.58998 -80.67 -9.8145 -170.58
2.1 -9.6821 -171.80 -0.60772 -81.87 -0.60772 -81.87 -9.6821 -171.80
2.13 -9.5512 -173.02 -0.62584 -83.08 -0.62584 -83.08 -9.5512 -173.02
2.16 -9.4219 -174.24 -0.64435 -84.29 -0.64435 -84.29 -9.4219 -174.24
2.19 -9.2941 -175.46 -0.66325 -85.49 -0.66325 -85.49 -9.2941 -175.46
2.22 -9.1677 -176.68 -0.68257 -86.70 -0.68257 -86.70 -9.1677 -176.68
2.25 -9.0427 -177.91 -0.7023 -87.92 -0.7023 -87.92 -9.0427 -177.91
2.28 -8.919 -179.14 -0.72246 -89.13 -0.72246 -89.13 -8.919 -179.14
2.31 -8.7966 179.63 -0.74305 -90.35 -0.74305 -90.35 -8.7966 179.63
2.34 -8.6755 178.40 -0.7641 -91.57 -0.7641 -91.57 -8.6755 178.40
2.37 -8.5556 177.16 -0.7856 -92.79 -0.7856 -92.79 -8.5556 177.16
2.4 -8.4369 175.92 -0.80757 -94.01 -0.80757 -94.01 -8.4369 175.92
2.43 -8.3193 174.68 -0.83003 -95.24 -0.83003 -95.24 -8.3193 174.68
2.46 -8.2029 173.44 -0.85298 -96.47 -0.85298 -96.47 -8.2029 173.44
2.49 -8.0875 172.20 -0.87644 -97.70 -0.87644 -97.70 -8.0875 172.20
2.52 -7.9732 170.95 -0.90042 -98.93 -0.90042 -98.93 -7.9732 170.95
2.55 -7.8599 169.70 -0.92494 -100.17 -0.92494 -100.17 -7.8599 169.70
2.58 -7.7475 168.44 -0.95001 -101.41 -0.95001 -101.41 -7.7475 168.44
2.61 -7.6362 167.19 -0.97564 -102.65 -0.97564 -102.65 -7.6362 167.19
2.64 -7.5257 165.93 -1.0018 -103.89 -1.0018 -103.89 -7.5257 165.93
2.67 -7.4162 164.67 -1.0287 -105.14 -1.0287 -105.14 -7.4162 164.67
2.7 -7.3075 163.40 -1.0561 -106.39 -1.0561 -106.39 -7.3075 163.40
2.73 -7.1996 162.14 -1.0841 -107.64 -1.0841 -107.64 -7.1996 162.14
2.76 -7.0926 160.87 -1.1128 -108.90 -1.1128 -108.90 -7.0926 160.87
2.79 -6.9864 159.59 -1.1422 -110.16 -1.1422 -110.16 -6.9864 159.59
2.82 -6.881 158.32 -1.1723 -111.42 -1.1723 -111.42 -6.881 158.32
2.85 -6.7763 157.04 -1.203 -112.68 -1.203 -112.68 -6.7763 157.04
2.88 -6.6723 155.75 -1.2345 -113.95 -1.2345 -113.95 -6.6723 155.75
2.91 -6.5691 154.47 -1.2668 -115.23 -1.2668 -115.23 -6.5691 154.47
2.94 -6.4666 153.17 -1.2998 -116.50 -1.2998 -116.50 -6.4666 153.17
2.97 -6.3647 151.88 -1.3336 -117.78 -1.3336 -117.78 -6.3647 151.88
3 -6.2635 150.58 -1.3683 -119.06 -1.3683 -119.06 -6.2635 150.58
3.03 -6.163 149.28 -1.4038 -120.35 -1.4038 -120.35 -6.163 149.28
3.06 -6.0631 147.97 -1.4402 -121.64 -1.4402 -121.64 -6.0631 147.97
3.09 -5.9638 146.66 -1.4775 -122.94 -1.4775 -122.94 -5.9638 146.66
3.12 -5.8651 145.35 -1.5157 -124.23 -1.5157 -124.23 -5.8651 145.35
3.15 -5.767 144.03 -1.5549 -125.54 -1.5549 -125.54 -5.767 144.03
3.18 -5.6695 142.71 -1.5951 -126.84 -1.5951 -126.84 -5.6695 142.71
3.21 -5.5725 141.38 -1.6363 -128.16 -1.6363 -128.16 -5.5725 141.38
3.24 -5.4761 140.05 -1.6786 -129.47 -1.6786 -129.47 -5.4761 140.05
3.27 -5.3802 138.71 -1.7221 -130.79 -1.7221 -130.79 -5.3802 138.71
3.3 -5.2849 137.37 -1.7666 -132.12 -1.7666 -132.12 -5.2849 137.37
3.33 -5.1901 136.03 -1.8123 -133.44 -1.8123 -133.44 -5.1901 136.03
3.36 -5.0958 134.68 -1.8593 -134.78 -1.8593 -134.78 -5.0958 134.68
3.39 -5.0021 133.32 -1.9075 -136.12 -1.9075 -136.12 -5.0021 133.32
3.42 -4.9088 131.96 -1.9571 -137.46 -1.9571 -137.46 -4.9088 131.96
3.45 -4.8161 130.59 -2.008 -138.81 -2.008 -138.81 -4.8161 130.59
3.48 -4.7238 129.22 -2.0603 -140.16 -2.0603 -140.16 -4.7238 129.22
3.51 -4.632 127.85 -2.1141 -141.52 -2.1141 -141.52 -4.632 127.85
3.54 -4.5407 126.46 -2.1694 -142.88 -2.1694 -142.88 -4.5407 126.46
3.57 -4.45 125.07 -2.2263 -144.25 -2.2263 -144.25 -4.45 125.07
3.6 -4.3597 123.68 -2.2848 -145.63 -2.2848 -145.63 -4.3597 123.68
3.63 -4.2698 122.28 -2.345 -147.01 -2.345 -147.01 -4.2698 122.28
3.66 -4.1805 120.88 -2.407 -148.40 -2.407 -148.40 -4.1805 120.88
3.69 -4.0917 119.46 -2.4708 -149.79 -2.4708 -149.79 -4.0917 119.46
3.72 -4.0034 118.04 -2.5365 -151.19 -2.5365 -151.19 -4.0034 118.04
3.75 -3.9155 116.62 -2.6042 -152.59 -2.6042 -152.59 -3.9155 116.62
3.78 -3.8282 115.19 -2.6739 -154.00 -2.6739 -154.00 -3.8282 115.19
3.81 -3.7414 113.75 -2.7458 -155.41 -2.7458 -155.41 -3.7414 113.75
3.84 -3.655 112.31 -2.8198 -156.84 -2.8198 -156.84 -3.655 112.31
3.87 -3.5693 110.86 -2.8962 -158.27 -2.8962 -158.27 -3.5693 110.86
3.9 -3.484 109.40 -2.975 -159.70 -2.975 -159.70 -3.484 109.40
3.93 -3.3993 107.93 -3.0563 -161.14 -3.0563 -161.14 -3.3993 107.93
3.96 -3.3151 106.46 -3.1403 -162.59 -3.1403 -162.59 -3.3151 106.46
3.99 -3.2315 104.98 -3.2269 -164.05 -3.2269 -164.05 -3.2315 104.98
4.02 -3.1485 103.49 -3.3164 -165.51 -3.3164 -165.51 -3.1485 103.49
4.05 -3.0661 102.00 -3.4088 -166.98 -3.4088 -166.98 -3.0661 102.00
4.08 -2.9843 100.49 -3.5043 -168.45 -3.5043 -168.45 -2.9843 100.49
4.11 -2.9031 98.98 -3.6031 -169.93 -3.6031 -169.93 -2.9031 98.98
4.14 -2.8226 97.46 -3.7052 -171.42 -3.7052 -171.42 -2.8226 97.46
4.17 -2.7427 95.94 -3.8108 -172.92 -3.8108 -172.92 -2.7427 95.94
4.2 -2.6635 94.40 -3.9201 -174.42 -3.9201 -174.42 -2.6635 94.40
4.23 -2.585 92.86 -4.0333 -175.93 -4.0333 -175.93 -2.585 92.86
4.26 -2.5073 91.31 -4.1504 -177.45 -4.1504 -177.45 -2.5073 91.31
4.29 -2.4303 89.75 -4.2718 -178.98 -4.2718 -178.98 -2.4303 89.75
4.32 -2.3541 88.18 -4.3976 179.49 -4.3976 179.49 -2.3541 88.18
4.35 -2.2787 86.61 -4.528 177.95 -4.528 177.95 -2.2787 86.61
4.38 -2.2041 85.02 -4.6633 176.40 -4.6633 176.40 -2.2041 85.02
4.41 -2.1304 83.43 -4.8037 174.85 -4.8037 174.85 -2.1304 83.43
4.44 -2.0576 81.82 -4.9494 173.29 -4.9494 173.29 -2.0576 81.82
4.47 -1.9858 80.21 -5.1008 171.72 -5.1008 171.72 -1.9858 80.21
4.5 -1.9149 78.59 -5.258 170.15 -5.258 170.15 -1.9149 78.59
4.53 -1.845 76.96 -5.4215 168.56 -5.4215 168.56 -1.845 76.96
4.56 -1.7761 75.32 -5.5916 166.98 -5.5916 166.98 -1.7761 75.32
4.59 -1.7083 73.68 -5.7686 165.38 -5.7686 165.38 -1.7083 73.68
4.62 -1.6416 72.02 -5.9529 163.78 -5.9529 163.78 -1.6416 72.02
4.65 -1.5761 70.35 -6.145 162.17 -6.145 162.17 -1.5761 70.35
4.68 -1.5118 68.68 -6.3452 160.56 -6.3452 160.56 -1.5118 68.68
4.71 -1.4487 67.00 -6.5541 158.94 -6.5541 158.94 -1.4487 67.00
4.74 -1.3869 65.30 -6.7722 157.32 -6.7722 157.32 -1.3869 65.30
4.77 -1.3264 63.60 -7.0001 155.69 -7.0001 155.69 -1.3264 63.60
4.8 -1.2673 61.89 -7.2384 154.06 -7.2384 154.06 -1.2673 61.89
4.83 -1.2096 60.17 -7.4879 152.42 -7.4879 152.42 -1.2096 60.17
4.86 -1.1533 58.44 -7.7492 150.78 -7.7492 150.78 -1.1533 58.44
4.89 -1.0986 56.71 -8.0233 149.14 -8.0233 149.14 -1.0986 56.71
4.92 -1.0454 54.96 -8.3111 147.50 -8.3111 147.50 -1.0454 54.96
4.95 -0.99376 53.21 -8.6135 145.86 -8.6135 145.86 -0.99376 53.21
4.98 -0.9438 51.44 -8.9318 144.22 -8.9318 144.22 -0.9438 51.44
5.01 -0.89553 49.67 -9.2673 142.58 -9.2673 142.58 -0.89553 49.67
5.04 -0.849 47.90 -9.6215 140.94 -9.6215 140.94 -0.849 47.90
5.07 -0.80425 46.11 -9.996 139.32 -9.996 139.32 -0.80425 46.11
5.1 -0.76133 44.32 -10.393 137.70 -10.393 137.70 -0.76133 44.32
5.13 -0.72028 42.52 -10.814 136.09 -10.814 136.09 -0.72028 42.52
5.16 -0.68116 40.71 -11.263 134.50 -11.263 134.50 -0.68116 40.71
5.19 -0.64399 38.89 -11.741 132.92 -11.741 132.92 -0.64399 38.89
5.22 -0.60884 37.07 -12.253 131.37 -12.253 131.37 -0.60884 37.07
5.25 -0.57573 35.24 -12.803 129.85 -12.803 129.85 -0.57573 35.24
5.28 -0.5447 33.41 -13.396 128.37 -13.396 128.37 -0.5447 33.41
5.31 -0.5158 31.57 -14.039 126.95 -14.039 126.95 -0.5158 31.57
5.34 -0.48907 29.73 -14.739 125.59 -14.739 125.59 -0.48907 29.73
5.37 -0.46453 27.88 -15.505 124.31 -15.505 124.31 -0.46453 27.88
5.4 -0.44221 26.02 -16.352 123.15 -16.352 123.15 -0.44221 26.02
5.43 -0.42216 24.17 -17.295 122.15 -17.295 122.15 -0.42216 24.17
5.46 -0.40438 22.30 -18.358 121.38 -18.358 121.38 -0.40438 22.30
5.49 -0.38892 20.44 -19.571 120.93 -19.571 120.93 -0.38892 20.44
5.52 -0.3758 18.57 -20.98 120.99 -20.98 120.99 -0.3758 18.57
5.55 -0.36502 16.70 -22.653 121.87 -22.653 121.87 -0.36502 16.70
5.58 -0.35662 14.83 -24.697 124.23 -24.697 124.23 -0.35662 14.83
5.61 -0.3506 12.95 -27.272 129.59 -27.272 129.59 -0.3506 12.95
5.64 -0.34697 11.08 -30.542 142.01 -30.542 142.01 -0.34697 11.08
5.67 -0.34574 9.20 -33.776 171.65 -33.776 171.65 -0.34574 9.20
5.7 -0.34692 7.32 -33.142 -145.38 -33.142 -145.38 -0.34692 7.32
5.73 -0.35051 5.45 -29.665 -121.20 -29.665 -121.20 -0.35051 5.45
5.76 -0.3565 3.57 -26.57 -111.19 -26.57 -111.19 -0.3565 3.57
5.79 -0.36489 1.70 -24.146 -106.82 -24.146 -106.82 -0.36489 1.70
5.82 -0.37567 -0.18 -22.207 -104.92 -22.207 -104.92 -0.37567 -0.18
5.85 -0.38883 -2.05 -20.607 -104.29 -20.607 -104.29 -0.38883 -2.05
5.88 -0.40436 -3.92 -19.252 -104.38 -19.252 -104.38 -0.40436 -3.92
5.91 -0.42224 -5.79 -18.08 -104.93 -18.08 -104.93 -0.42224 -5.79
5.94 -0.44244 -7.65 -17.05 -105.77 -17.05 -105.77 -0.44244 -7.65
5.97 -0.46496 -9.51 -16.133 -106.82 -16.133 -106.82 -0.46496 -9.51
6 -0.48975 -11.36 -15.307 -108.01 -15.307 -108.01 -0.48975 -11.36
