! yapnr Order 0 O0-M: O0-M A14 SHUNT 100R (switch, family M)
! stackup OSHPARK-4L-EM528, nominal parameters; geometry of the OSHPARK-4L-FR408HR design
! model: 2D quasi-static RLGC (Djordjevic-Sarkar, Huray roughness, Wheeler loss); generated by python -m yapnr.rf.coupons expected --stackup OSHPARK-4L-FR408HR --upload M
! reference planes 10 mm from each end; 50 ohm (from the M line's Zc)
# GHz S DB R 50
0.03 -14.019 179.29 -1.9516 -1.88 -1.9516 -1.88 -14.048 176.76
0.06 -14.034 178.73 -1.9575 -3.70 -1.9575 -3.70 -14.076 173.75
0.09 -14.045 178.19 -1.9621 -5.52 -1.9621 -5.52 -14.099 170.78
0.12 -14.053 177.66 -1.9661 -7.33 -1.9661 -7.33 -14.12 167.83
0.15 -14.058 177.14 -1.9696 -9.14 -1.9696 -9.14 -14.14 164.88
0.18 -14.063 176.62 -1.9729 -10.94 -1.9729 -10.94 -14.16 161.94
0.21 -14.065 176.11 -1.9759 -12.75 -1.9759 -12.75 -14.18 159.00
0.24 -14.066 175.59 -1.9786 -14.55 -1.9786 -14.55 -14.199 156.06
0.27 -14.066 175.08 -1.9812 -16.35 -1.9812 -16.35 -14.22 153.12
0.3 -14.065 174.56 -1.9837 -18.16 -1.9837 -18.16 -14.24 150.17
0.33 -14.063 174.05 -1.986 -19.96 -1.986 -19.96 -14.261 147.23
0.36 -14.06 173.53 -1.9881 -21.76 -1.9881 -21.76 -14.283 144.28
0.39 -14.056 173.01 -1.9902 -23.56 -1.9902 -23.56 -14.305 141.33
0.42 -14.051 172.49 -1.9921 -25.36 -1.9921 -25.36 -14.328 138.37
0.45 -14.045 171.96 -1.9939 -27.16 -1.9939 -27.16 -14.351 135.41
0.48 -14.038 171.43 -1.9957 -28.96 -1.9957 -28.96 -14.375 132.44
0.51 -14.03 170.90 -1.9973 -30.76 -1.9973 -30.76 -14.4 129.46
0.54 -14.022 170.36 -1.9989 -32.56 -1.9989 -32.56 -14.424 126.48
0.57 -14.013 169.82 -2.0003 -34.36 -2.0003 -34.36 -14.45 123.49
0.6 -14.003 169.28 -2.0017 -36.16 -2.0017 -36.16 -14.475 120.50
0.63 -13.993 168.73 -2.0031 -37.95 -2.0031 -37.95 -14.501 117.50
0.66 -13.982 168.17 -2.0044 -39.75 -2.0044 -39.75 -14.528 114.49
0.69 -13.97 167.61 -2.0056 -41.55 -2.0056 -41.55 -14.554 111.47
0.72 -13.959 167.05 -2.0067 -43.35 -2.0067 -43.35 -14.581 108.44
0.75 -13.946 166.47 -2.0078 -45.15 -2.0078 -45.15 -14.608 105.41
0.78 -13.934 165.90 -2.0089 -46.95 -2.0089 -46.95 -14.635 102.36
0.81 -13.921 165.32 -2.0099 -48.75 -2.0099 -48.75 -14.663 99.31
0.84 -13.908 164.73 -2.0109 -50.55 -2.0109 -50.55 -14.69 96.25
0.87 -13.895 164.13 -2.0118 -52.35 -2.0118 -52.35 -14.717 93.18
0.9 -13.882 163.53 -2.0127 -54.15 -2.0127 -54.15 -14.744 90.10
0.93 -13.868 162.93 -2.0136 -55.95 -2.0136 -55.95 -14.771 87.02
0.96 -13.855 162.32 -2.0145 -57.75 -2.0145 -57.75 -14.797 83.92
0.99 -13.841 161.70 -2.0153 -59.55 -2.0153 -59.55 -14.823 80.81
1.02 -13.828 161.08 -2.0161 -61.36 -2.0161 -61.36 -14.849 77.70
1.05 -13.814 160.45 -2.0169 -63.16 -2.0169 -63.16 -14.874 74.57
1.08 -13.801 159.81 -2.0177 -64.96 -2.0177 -64.96 -14.899 71.44
1.11 -13.788 159.17 -2.0185 -66.76 -2.0185 -66.76 -14.923 68.30
1.14 -13.776 158.52 -2.0193 -68.56 -2.0193 -68.56 -14.946 65.15
1.17 -13.763 157.87 -2.0201 -70.37 -2.0201 -70.37 -14.968 61.99
1.2 -13.751 157.22 -2.0209 -72.17 -2.0209 -72.17 -14.99 58.82
1.23 -13.739 156.55 -2.0217 -73.97 -2.0217 -73.97 -15.011 55.65
1.26 -13.728 155.88 -2.0225 -75.78 -2.0225 -75.78 -15.03 52.47
1.29 -13.717 155.21 -2.0233 -77.58 -2.0233 -77.58 -15.049 49.28
1.32 -13.706 154.53 -2.0241 -79.38 -2.0241 -79.38 -15.067 46.08
1.35 -13.696 153.85 -2.025 -81.19 -2.025 -81.19 -15.083 42.88
1.38 -13.687 153.16 -2.0258 -82.99 -2.0258 -82.99 -15.098 39.67
1.41 -13.678 152.47 -2.0267 -84.80 -2.0267 -84.80 -15.112 36.46
1.44 -13.67 151.77 -2.0276 -86.60 -2.0276 -86.60 -15.125 33.24
1.47 -13.662 151.07 -2.0286 -88.41 -2.0286 -88.41 -15.136 30.02
1.5 -13.655 150.37 -2.0295 -90.21 -2.0295 -90.21 -15.146 26.79
1.53 -13.649 149.66 -2.0305 -92.02 -2.0305 -92.02 -15.154 23.56
1.56 -13.643 148.95 -2.0316 -93.82 -2.0316 -93.82 -15.161 20.33
1.59 -13.638 148.24 -2.0326 -95.63 -2.0326 -95.63 -15.166 17.09
1.62 -13.634 147.52 -2.0337 -97.43 -2.0337 -97.43 -15.17 13.85
1.65 -13.631 146.80 -2.0349 -99.24 -2.0349 -99.24 -15.173 10.62
1.68 -13.628 146.08 -2.036 -101.04 -2.036 -101.04 -15.174 7.38
1.71 -13.626 145.36 -2.0372 -102.85 -2.0372 -102.85 -15.173 4.14
1.74 -13.625 144.63 -2.0385 -104.65 -2.0385 -104.65 -15.171 0.90
1.77 -13.625 143.90 -2.0398 -106.46 -2.0398 -106.46 -15.167 -2.33
1.8 -13.625 143.17 -2.0411 -108.27 -2.0411 -108.27 -15.162 -5.56
1.83 -13.627 142.44 -2.0425 -110.07 -2.0425 -110.07 -15.156 -8.79
1.86 -13.629 141.71 -2.0439 -111.88 -2.0439 -111.88 -15.148 -12.02
1.89 -13.632 140.98 -2.0454 -113.68 -2.0454 -113.68 -15.139 -15.25
1.92 -13.636 140.24 -2.0469 -115.49 -2.0469 -115.49 -15.128 -18.46
1.95 -13.64 139.51 -2.0485 -117.30 -2.0485 -117.30 -15.116 -21.68
1.98 -13.646 138.78 -2.0501 -119.10 -2.0501 -119.10 -15.103 -24.89
2.01 -13.652 138.05 -2.0517 -120.91 -2.0517 -120.91 -15.088 -28.09
2.04 -13.659 137.31 -2.0534 -122.71 -2.0534 -122.71 -15.073 -31.29
2.07 -13.667 136.58 -2.0551 -124.52 -2.0551 -124.52 -15.056 -34.48
2.1 -13.676 135.85 -2.0568 -126.32 -2.0568 -126.32 -15.038 -37.66
2.13 -13.686 135.12 -2.0586 -128.13 -2.0586 -128.13 -15.02 -40.83
2.16 -13.696 134.39 -2.0605 -129.93 -2.0605 -129.93 -15 -44.00
2.19 -13.707 133.67 -2.0623 -131.74 -2.0623 -131.74 -14.98 -47.16
2.22 -13.719 132.94 -2.0642 -133.54 -2.0642 -133.54 -14.959 -50.31
2.25 -13.731 132.22 -2.0661 -135.34 -2.0661 -135.34 -14.937 -53.45
2.28 -13.745 131.50 -2.0681 -137.15 -2.0681 -137.15 -14.915 -56.58
2.31 -13.759 130.79 -2.0701 -138.95 -2.0701 -138.95 -14.892 -59.71
2.34 -13.773 130.07 -2.0721 -140.76 -2.0721 -140.76 -14.869 -62.82
2.37 -13.789 129.36 -2.0741 -142.56 -2.0741 -142.56 -14.845 -65.92
2.4 -13.805 128.65 -2.0762 -144.36 -2.0762 -144.36 -14.821 -69.02
2.43 -13.821 127.95 -2.0783 -146.16 -2.0783 -146.16 -14.797 -72.10
2.46 -13.838 127.25 -2.0804 -147.97 -2.0804 -147.97 -14.773 -75.18
2.49 -13.856 126.55 -2.0825 -149.77 -2.0825 -149.77 -14.748 -78.25
2.52 -13.874 125.86 -2.0846 -151.57 -2.0846 -151.57 -14.724 -81.30
2.55 -13.892 125.17 -2.0868 -153.37 -2.0868 -153.37 -14.7 -84.35
2.58 -13.911 124.48 -2.0889 -155.17 -2.0889 -155.17 -14.676 -87.39
2.61 -13.931 123.80 -2.0911 -156.97 -2.0911 -156.97 -14.652 -90.42
2.64 -13.95 123.12 -2.0932 -158.77 -2.0932 -158.77 -14.628 -93.44
2.67 -13.971 122.45 -2.0954 -160.57 -2.0954 -160.57 -14.605 -96.45
2.7 -13.991 121.79 -2.0975 -162.37 -2.0975 -162.37 -14.582 -99.45
2.73 -14.011 121.12 -2.0997 -164.17 -2.0997 -164.17 -14.56 -102.44
2.76 -14.032 120.47 -2.1018 -165.97 -2.1018 -165.97 -14.539 -105.43
2.79 -14.053 119.81 -2.104 -167.77 -2.104 -167.77 -14.517 -108.41
2.82 -14.074 119.17 -2.1061 -169.57 -2.1061 -169.57 -14.497 -111.37
2.85 -14.096 118.52 -2.1082 -171.37 -2.1082 -171.37 -14.477 -114.34
2.88 -14.117 117.89 -2.1103 -173.16 -2.1103 -173.16 -14.458 -117.29
2.91 -14.138 117.25 -2.1123 -174.96 -2.1123 -174.96 -14.44 -120.24
2.94 -14.159 116.63 -2.1144 -176.76 -2.1144 -176.76 -14.423 -123.18
2.97 -14.181 116.00 -2.1164 -178.56 -2.1164 -178.56 -14.406 -126.11
3 -14.202 115.39 -2.1184 179.65 -2.1184 179.65 -14.391 -129.04
3.03 -14.222 114.77 -2.1203 177.85 -2.1203 177.85 -14.376 -131.96
3.06 -14.243 114.17 -2.1222 176.06 -2.1222 176.06 -14.362 -134.88
3.09 -14.263 113.56 -2.1241 174.26 -2.1241 174.26 -14.35 -137.79
3.12 -14.283 112.97 -2.126 172.46 -2.126 172.46 -14.338 -140.70
3.15 -14.303 112.37 -2.1278 170.67 -2.1278 170.67 -14.328 -143.60
3.18 -14.322 111.78 -2.1295 168.87 -2.1295 168.87 -14.319 -146.50
3.21 -14.341 111.20 -2.1312 167.08 -2.1312 167.08 -14.311 -149.40
3.24 -14.36 110.62 -2.1329 165.29 -2.1329 165.29 -14.304 -152.29
3.27 -14.378 110.04 -2.1346 163.49 -2.1346 163.49 -14.298 -155.18
3.3 -14.395 109.47 -2.1361 161.70 -2.1361 161.70 -14.293 -158.07
3.33 -14.412 108.90 -2.1377 159.90 -2.1377 159.90 -14.29 -160.95
3.36 -14.428 108.33 -2.1391 158.11 -2.1391 158.11 -14.287 -163.84
3.39 -14.444 107.77 -2.1406 156.32 -2.1406 156.32 -14.286 -166.72
3.42 -14.459 107.21 -2.142 154.52 -2.142 154.52 -14.286 -169.60
3.45 -14.473 106.65 -2.1433 152.73 -2.1433 152.73 -14.288 -172.48
3.48 -14.487 106.09 -2.1445 150.93 -2.1445 150.93 -14.29 -175.37
3.51 -14.499 105.54 -2.1458 149.14 -2.1458 149.14 -14.294 -178.25
3.54 -14.511 104.99 -2.1469 147.35 -2.1469 147.35 -14.299 178.87
3.57 -14.523 104.44 -2.148 145.55 -2.148 145.55 -14.305 175.98
3.6 -14.533 103.89 -2.1491 143.76 -2.1491 143.76 -14.313 173.09
3.63 -14.543 103.34 -2.15 141.97 -2.15 141.97 -14.322 170.20
3.66 -14.551 102.80 -2.151 140.17 -2.151 140.17 -14.331 167.31
3.69 -14.559 102.25 -2.1519 138.38 -2.1519 138.38 -14.342 164.41
3.72 -14.566 101.70 -2.1527 136.59 -2.1527 136.59 -14.354 161.51
3.75 -14.573 101.16 -2.1534 134.79 -2.1534 134.79 -14.368 158.61
3.78 -14.578 100.61 -2.1542 133.00 -2.1542 133.00 -14.382 155.70
3.81 -14.583 100.06 -2.1548 131.21 -2.1548 131.21 -14.397 152.79
3.84 -14.587 99.51 -2.1554 129.41 -2.1554 129.41 -14.414 149.88
3.87 -14.59 98.96 -2.156 127.62 -2.156 127.62 -14.431 146.95
3.9 -14.592 98.41 -2.1565 125.82 -2.1565 125.82 -14.45 144.02
3.93 -14.593 97.85 -2.1569 124.03 -2.1569 124.03 -14.469 141.09
3.96 -14.594 97.30 -2.1573 122.23 -2.1573 122.23 -14.489 138.15
3.99 -14.593 96.74 -2.1577 120.44 -2.1577 120.44 -14.511 135.20
4.02 -14.592 96.17 -2.158 118.64 -2.158 118.64 -14.533 132.24
4.05 -14.591 95.61 -2.1583 116.85 -2.1583 116.85 -14.555 129.28
4.08 -14.588 95.04 -2.1585 115.05 -2.1585 115.05 -14.579 126.31
4.11 -14.585 94.46 -2.1587 113.26 -2.1587 113.26 -14.603 123.33
4.14 -14.581 93.88 -2.1589 111.46 -2.1589 111.46 -14.628 120.34
4.17 -14.577 93.30 -2.159 109.66 -2.159 109.66 -14.653 117.35
4.2 -14.572 92.72 -2.1591 107.87 -2.1591 107.87 -14.679 114.34
4.23 -14.567 92.13 -2.1592 106.07 -2.1592 106.07 -14.705 111.33
4.26 -14.561 91.53 -2.1592 104.27 -2.1592 104.27 -14.732 108.30
4.29 -14.554 90.93 -2.1592 102.47 -2.1592 102.47 -14.759 105.27
4.32 -14.547 90.32 -2.1592 100.68 -2.1592 100.68 -14.786 102.23
4.35 -14.54 89.71 -2.1592 98.88 -2.1592 98.88 -14.814 99.17
4.38 -14.533 89.10 -2.1591 97.08 -2.1591 97.08 -14.841 96.11
4.41 -14.525 88.47 -2.1591 95.28 -2.1591 95.28 -14.869 93.03
4.44 -14.516 87.85 -2.159 93.48 -2.159 93.48 -14.897 89.95
4.47 -14.508 87.21 -2.1589 91.68 -2.1589 91.68 -14.924 86.86
4.5 -14.499 86.57 -2.1589 89.88 -2.1589 89.88 -14.951 83.75
4.53 -14.491 85.93 -2.1588 88.08 -2.1588 88.08 -14.978 80.63
4.56 -14.482 85.28 -2.1587 86.28 -2.1587 86.28 -15.005 77.51
4.59 -14.473 84.62 -2.1586 84.48 -2.1586 84.48 -15.031 74.37
4.62 -14.464 83.96 -2.1585 82.67 -2.1585 82.67 -15.056 71.23
4.65 -14.455 83.29 -2.1584 80.87 -2.1584 80.87 -15.081 68.07
4.68 -14.446 82.62 -2.1584 79.07 -2.1584 79.07 -15.106 64.91
4.71 -14.437 81.94 -2.1583 77.27 -2.1583 77.27 -15.129 61.73
4.74 -14.428 81.26 -2.1583 75.46 -2.1583 75.46 -15.152 58.55
4.77 -14.42 80.57 -2.1583 73.66 -2.1583 73.66 -15.173 55.36
4.8 -14.412 79.87 -2.1583 71.86 -2.1583 71.86 -15.194 52.15
4.83 -14.404 79.17 -2.1583 70.05 -2.1583 70.05 -15.214 48.94
4.86 -14.396 78.46 -2.1584 68.25 -2.1584 68.25 -15.233 45.73
4.89 -14.389 77.75 -2.1584 66.44 -2.1584 66.44 -15.25 42.50
4.92 -14.382 77.04 -2.1586 64.64 -2.1586 64.64 -15.266 39.27
4.95 -14.375 76.32 -2.1587 62.83 -2.1587 62.83 -15.281 36.03
4.98 -14.369 75.59 -2.1589 61.03 -2.1589 61.03 -15.294 32.79
5.01 -14.363 74.86 -2.1591 59.22 -2.1591 59.22 -15.306 29.54
5.04 -14.358 74.12 -2.1593 57.41 -2.1593 57.41 -15.317 26.28
5.07 -14.353 73.39 -2.1596 55.61 -2.1596 55.61 -15.326 23.03
5.1 -14.349 72.64 -2.1599 53.80 -2.1599 53.80 -15.333 19.76
5.13 -14.345 71.89 -2.1603 52.00 -2.1603 52.00 -15.339 16.50
5.16 -14.342 71.14 -2.1607 50.19 -2.1607 50.19 -15.343 13.23
5.19 -14.339 70.39 -2.1611 48.38 -2.1611 48.38 -15.346 9.97
5.22 -14.338 69.63 -2.1616 46.57 -2.1616 46.57 -15.347 6.70
5.25 -14.336 68.87 -2.1622 44.77 -2.1622 44.77 -15.347 3.43
5.28 -14.336 68.11 -2.1628 42.96 -2.1628 42.96 -15.344 0.16
5.31 -14.336 67.34 -2.1634 41.15 -2.1634 41.15 -15.341 -3.11
5.34 -14.337 66.58 -2.1641 39.35 -2.1641 39.35 -15.335 -6.37
5.37 -14.338 65.81 -2.1648 37.54 -2.1648 37.54 -15.329 -9.64
5.4 -14.34 65.03 -2.1655 35.73 -2.1655 35.73 -15.32 -12.90
5.43 -14.343 64.26 -2.1664 33.92 -2.1664 33.92 -15.31 -16.15
5.46 -14.347 63.48 -2.1672 32.12 -2.1672 32.12 -15.299 -19.41
5.49 -14.351 62.71 -2.1681 30.31 -2.1681 30.31 -15.286 -22.65
5.52 -14.357 61.93 -2.1691 28.50 -2.1691 28.50 -15.272 -25.89
5.55 -14.362 61.15 -2.1701 26.69 -2.1701 26.69 -15.257 -29.13
5.58 -14.369 60.38 -2.1711 24.89 -2.1711 24.89 -15.24 -32.36
5.61 -14.376 59.60 -2.1722 23.08 -2.1722 23.08 -15.222 -35.58
5.64 -14.385 58.82 -2.1733 21.27 -2.1733 21.27 -15.203 -38.80
5.67 -14.393 58.04 -2.1745 19.46 -2.1745 19.46 -15.184 -42.00
5.7 -14.403 57.26 -2.1757 17.66 -2.1757 17.66 -15.163 -45.20
5.73 -14.413 56.49 -2.1769 15.85 -2.1769 15.85 -15.141 -48.39
5.76 -14.424 55.71 -2.1782 14.04 -2.1782 14.04 -15.118 -51.57
5.79 -14.436 54.94 -2.1795 12.24 -2.1795 12.24 -15.095 -54.74
5.82 -14.448 54.17 -2.1808 10.43 -2.1808 10.43 -15.071 -57.90
5.85 -14.461 53.39 -2.1822 8.62 -2.1822 8.62 -15.047 -61.06
5.88 -14.475 52.63 -2.1836 6.82 -2.1836 6.82 -15.022 -64.20
5.91 -14.489 51.86 -2.185 5.01 -2.185 5.01 -14.997 -67.33
5.94 -14.504 51.10 -2.1865 3.21 -2.1865 3.21 -14.971 -70.46
5.97 -14.52 50.33 -2.1879 1.40 -2.1879 1.40 -14.945 -73.57
6 -14.536 49.58 -2.1894 -0.40 -2.1894 -0.40 -14.919 -76.67
