! yapnr Order 0 O0-M: A16 port 1, 6 mm C-pad
! stackup OSHPARK-4L-EM528, nominal parameters; geometry of the OSHPARK-4L-FR408HR design
! model: 2D quasi-static RLGC (Djordjevic-Sarkar, Huray roughness, Wheeler loss); generated by python -m yapnr.rf.coupons expected --stackup OSHPARK-4L-FR408HR --upload M
! open-ended wide line + KJK open end; the line-to-pad step not modelled; 50 ohm
# GHz S DB R 50
0.006 -0.0010571 -1.46
0.012 -0.0021134 -2.91
0.018 -0.0031677 -4.36
0.024 -0.0042193 -5.80
0.03 -0.005267 -7.25
0.036 -0.0063099 -8.69
0.042 -0.0073472 -10.12
0.048 -0.0083779 -11.55
0.054 -0.0094011 -12.98
0.06 -0.010416 -14.41
0.066 -0.011422 -15.82
0.072 -0.012417 -17.24
0.078 -0.013402 -18.65
0.084 -0.014375 -20.05
0.09 -0.015336 -21.44
0.096 -0.016284 -22.83
0.102 -0.017218 -24.22
0.108 -0.018138 -25.59
0.114 -0.019043 -26.96
0.12 -0.019933 -28.32
0.126 -0.020807 -29.67
0.132 -0.021664 -31.01
0.138 -0.022505 -32.35
0.144 -0.023329 -33.67
0.15 -0.024135 -34.99
0.156 -0.024923 -36.29
0.162 -0.025693 -37.59
0.168 -0.026445 -38.88
0.174 -0.027178 -40.16
0.18 -0.027893 -41.42
0.186 -0.028589 -42.68
0.192 -0.029266 -43.92
0.198 -0.029924 -45.16
0.204 -0.030563 -46.38
0.21 -0.031184 -47.59
0.216 -0.031785 -48.80
0.222 -0.032368 -49.99
0.228 -0.032931 -51.17
0.234 -0.033477 -52.33
0.24 -0.034003 -53.49
0.246 -0.034512 -54.63
0.252 -0.035002 -55.77
0.258 -0.035474 -56.89
0.264 -0.035929 -58.00
0.27 -0.036366 -59.10
0.276 -0.036786 -60.18
0.282 -0.037189 -61.26
0.288 -0.037575 -62.32
0.294 -0.037945 -63.37
0.3 -0.038299 -64.41
0.306 -0.038637 -65.44
0.312 -0.038959 -66.46
0.318 -0.039266 -67.46
0.324 -0.039558 -68.46
0.33 -0.039836 -69.44
0.336 -0.0401 -70.41
0.342 -0.04035 -71.37
0.348 -0.040586 -72.32
0.354 -0.040809 -73.25
0.36 -0.041019 -74.18
0.366 -0.041217 -75.10
0.372 -0.041402 -76.00
0.378 -0.041576 -76.89
0.384 -0.041738 -77.78
0.39 -0.041889 -78.65
0.396 -0.042029 -79.51
0.402 -0.042158 -80.36
0.408 -0.042277 -81.20
0.414 -0.042386 -82.03
0.42 -0.042486 -82.85
0.426 -0.042576 -83.66
0.432 -0.042657 -84.46
0.438 -0.04273 -85.25
0.444 -0.042794 -86.03
0.45 -0.04285 -86.81
0.456 -0.042898 -87.57
0.462 -0.042938 -88.32
0.468 -0.042971 -89.06
0.474 -0.042997 -89.80
0.48 -0.043017 -90.52
0.486 -0.043029 -91.24
0.492 -0.043035 -91.95
0.498 -0.043035 -92.64
0.504 -0.043029 -93.33
0.51 -0.043018 -94.02
0.516 -0.043001 -94.69
0.522 -0.042979 -95.35
0.528 -0.042952 -96.01
0.534 -0.04292 -96.66
0.54 -0.042883 -97.30
0.546 -0.042842 -97.93
0.552 -0.042796 -98.56
0.558 -0.042747 -99.18
0.564 -0.042693 -99.79
0.57 -0.042636 -100.39
0.576 -0.042575 -100.98
0.582 -0.042511 -101.57
0.588 -0.042443 -102.15
0.594 -0.042372 -102.73
0.6 -0.042299 -103.29
0.606 -0.042222 -103.85
0.612 -0.042143 -104.41
0.618 -0.042061 -104.96
0.624 -0.041976 -105.50
0.63 -0.04189 -106.03
0.636 -0.041801 -106.56
0.642 -0.041709 -107.08
0.648 -0.041616 -107.60
0.654 -0.041521 -108.11
0.66 -0.041424 -108.61
0.666 -0.041326 -109.11
0.672 -0.041225 -109.60
0.678 -0.041123 -110.08
0.684 -0.04102 -110.57
0.69 -0.040915 -111.04
0.696 -0.040809 -111.51
0.702 -0.040702 -111.97
0.708 -0.040594 -112.43
0.714 -0.040485 -112.89
0.72 -0.040374 -113.34
0.726 -0.040263 -113.78
0.732 -0.040151 -114.22
0.738 -0.040038 -114.65
0.744 -0.039924 -115.08
0.75 -0.03981 -115.50
0.756 -0.039695 -115.92
0.762 -0.039579 -116.34
0.768 -0.039463 -116.75
0.774 -0.039346 -117.15
0.78 -0.039229 -117.56
0.786 -0.039112 -117.95
0.792 -0.038994 -118.34
0.798 -0.038876 -118.73
0.804 -0.038758 -119.12
0.81 -0.03864 -119.50
0.816 -0.038521 -119.87
0.822 -0.038402 -120.24
0.828 -0.038283 -120.61
0.834 -0.038164 -120.98
0.84 -0.038045 -121.34
0.846 -0.037926 -121.69
0.852 -0.037807 -122.05
0.858 -0.037688 -122.40
0.864 -0.037569 -122.74
0.87 -0.03745 -123.08
0.876 -0.037331 -123.42
0.882 -0.037213 -123.76
0.888 -0.037094 -124.09
0.894 -0.036976 -124.41
0.9 -0.036858 -124.74
0.906 -0.03674 -125.06
0.912 -0.036623 -125.38
0.918 -0.036505 -125.69
0.924 -0.036388 -126.01
0.93 -0.036272 -126.31
0.936 -0.036155 -126.62
0.942 -0.036039 -126.92
0.948 -0.035923 -127.22
0.954 -0.035808 -127.52
0.96 -0.035693 -127.81
0.966 -0.035578 -128.10
0.972 -0.035464 -128.39
0.978 -0.03535 -128.68
0.984 -0.035236 -128.96
0.99 -0.035123 -129.24
0.996 -0.03501 -129.52
1.002 -0.034898 -129.79
1.008 -0.034786 -130.07
1.014 -0.034675 -130.33
1.02 -0.034564 -130.60
1.026 -0.034454 -130.87
1.032 -0.034344 -131.13
1.038 -0.034234 -131.39
1.044 -0.034125 -131.65
1.05 -0.034017 -131.90
1.056 -0.033909 -132.15
1.062 -0.033801 -132.40
1.068 -0.033694 -132.65
1.074 -0.033588 -132.90
1.08 -0.033482 -133.14
1.086 -0.033376 -133.38
1.092 -0.033271 -133.62
1.098 -0.033166 -133.86
1.104 -0.033062 -134.09
1.11 -0.032959 -134.33
1.116 -0.032856 -134.56
1.122 -0.032754 -134.79
1.128 -0.032652 -135.01
1.134 -0.03255 -135.24
1.14 -0.03245 -135.46
1.146 -0.032349 -135.68
1.152 -0.03225 -135.90
1.158 -0.03215 -136.12
1.164 -0.032052 -136.33
1.17 -0.031953 -136.55
1.176 -0.031856 -136.76
1.182 -0.031759 -136.97
1.188 -0.031662 -137.18
1.194 -0.031566 -137.38
1.2 -0.031471 -137.59
1.206 -0.031376 -137.79
1.212 -0.031281 -137.99
1.218 -0.031187 -138.19
1.224 -0.031094 -138.39
1.23 -0.031001 -138.59
1.236 -0.030909 -138.78
1.242 -0.030817 -138.97
1.248 -0.030726 -139.17
1.254 -0.030635 -139.36
1.26 -0.030545 -139.55
1.266 -0.030455 -139.73
1.272 -0.030366 -139.92
1.278 -0.030277 -140.10
1.284 -0.030189 -140.28
1.29 -0.030101 -140.47
1.296 -0.030014 -140.65
1.302 -0.029928 -140.82
1.308 -0.029841 -141.00
1.314 -0.029756 -141.18
1.32 -0.029671 -141.35
1.326 -0.029586 -141.52
1.332 -0.029502 -141.70
1.338 -0.029418 -141.87
1.344 -0.029335 -142.04
1.35 -0.029253 -142.20
1.356 -0.029171 -142.37
1.362 -0.029089 -142.54
1.368 -0.029008 -142.70
1.374 -0.028927 -142.86
1.38 -0.028847 -143.02
1.386 -0.028767 -143.18
1.392 -0.028688 -143.34
1.398 -0.028609 -143.50
1.404 -0.028531 -143.66
1.41 -0.028453 -143.82
1.416 -0.028376 -143.97
1.422 -0.028299 -144.12
1.428 -0.028223 -144.28
1.434 -0.028147 -144.43
1.44 -0.028071 -144.58
1.446 -0.027996 -144.73
1.452 -0.027922 -144.87
1.458 -0.027848 -145.02
1.464 -0.027774 -145.17
1.47 -0.027701 -145.31
1.476 -0.027628 -145.46
1.482 -0.027556 -145.60
1.488 -0.027484 -145.74
1.494 -0.027413 -145.88
1.5 -0.027342 -146.02
1.506 -0.027271 -146.16
1.512 -0.027201 -146.30
1.518 -0.027131 -146.44
1.524 -0.027062 -146.57
1.53 -0.026993 -146.71
1.536 -0.026924 -146.84
1.542 -0.026856 -146.98
1.548 -0.026789 -147.11
1.554 -0.026721 -147.24
1.56 -0.026655 -147.37
1.566 -0.026588 -147.50
1.572 -0.026522 -147.63
1.578 -0.026457 -147.76
1.584 -0.026391 -147.89
1.59 -0.026326 -148.01
1.596 -0.026262 -148.14
1.602 -0.026198 -148.27
1.608 -0.026134 -148.39
1.614 -0.026071 -148.51
1.62 -0.026008 -148.64
1.626 -0.025946 -148.76
1.632 -0.025884 -148.88
1.638 -0.025822 -149.00
1.644 -0.02576 -149.12
1.65 -0.025699 -149.24
1.656 -0.025639 -149.36
1.662 -0.025579 -149.47
1.668 -0.025519 -149.59
1.674 -0.025459 -149.70
1.68 -0.0254 -149.82
1.686 -0.025341 -149.93
1.692 -0.025283 -150.05
1.698 -0.025224 -150.16
1.704 -0.025167 -150.27
1.71 -0.025109 -150.38
1.716 -0.025052 -150.50
1.722 -0.024995 -150.61
1.728 -0.024939 -150.72
1.734 -0.024883 -150.82
1.74 -0.024827 -150.93
1.746 -0.024772 -151.04
1.752 -0.024717 -151.15
1.758 -0.024662 -151.25
1.764 -0.024608 -151.36
1.77 -0.024553 -151.46
1.776 -0.0245 -151.57
1.782 -0.024446 -151.67
1.788 -0.024393 -151.78
1.794 -0.02434 -151.88
1.8 -0.024288 -151.98
1.806 -0.024236 -152.08
1.812 -0.024184 -152.18
1.818 -0.024132 -152.28
1.824 -0.024081 -152.38
1.83 -0.02403 -152.48
1.836 -0.023979 -152.58
1.842 -0.023929 -152.68
1.848 -0.023879 -152.78
1.854 -0.023829 -152.87
1.86 -0.02378 -152.97
1.866 -0.023731 -153.07
1.872 -0.023682 -153.16
1.878 -0.023633 -153.26
1.884 -0.023585 -153.35
1.89 -0.023537 -153.44
1.896 -0.023489 -153.54
1.902 -0.023442 -153.63
1.908 -0.023394 -153.72
1.914 -0.023347 -153.81
1.92 -0.023301 -153.91
1.926 -0.023254 -154.00
1.932 -0.023208 -154.09
1.938 -0.023163 -154.18
1.944 -0.023117 -154.27
1.95 -0.023072 -154.35
1.956 -0.023027 -154.44
1.962 -0.022982 -154.53
1.968 -0.022937 -154.62
1.974 -0.022893 -154.71
1.98 -0.022849 -154.79
1.986 -0.022806 -154.88
1.992 -0.022762 -154.96
1.998 -0.022719 -155.05
2.004 -0.022676 -155.13
2.01 -0.022633 -155.22
2.016 -0.022591 -155.30
2.022 -0.022549 -155.38
2.028 -0.022507 -155.47
2.034 -0.022465 -155.55
2.04 -0.022423 -155.63
2.046 -0.022382 -155.71
2.052 -0.022341 -155.80
2.058 -0.0223 -155.88
2.064 -0.02226 -155.96
2.07 -0.02222 -156.04
2.076 -0.02218 -156.12
2.082 -0.02214 -156.20
2.088 -0.0221 -156.27
2.094 -0.022061 -156.35
2.1 -0.022022 -156.43
2.106 -0.021983 -156.51
2.112 -0.021944 -156.59
2.118 -0.021905 -156.66
2.124 -0.021867 -156.74
2.13 -0.021829 -156.82
2.136 -0.021791 -156.89
2.142 -0.021754 -156.97
2.148 -0.021716 -157.04
2.154 -0.021679 -157.12
2.16 -0.021642 -157.19
2.166 -0.021605 -157.27
2.172 -0.021569 -157.34
2.178 -0.021533 -157.41
2.184 -0.021496 -157.49
2.19 -0.021461 -157.56
2.196 -0.021425 -157.63
2.202 -0.021389 -157.70
2.208 -0.021354 -157.78
2.214 -0.021319 -157.85
2.22 -0.021284 -157.92
2.226 -0.021249 -157.99
2.232 -0.021215 -158.06
2.238 -0.02118 -158.13
2.244 -0.021146 -158.20
2.25 -0.021112 -158.27
2.256 -0.021079 -158.34
2.262 -0.021045 -158.41
2.268 -0.021012 -158.47
2.274 -0.020979 -158.54
2.28 -0.020946 -158.61
2.286 -0.020913 -158.68
2.292 -0.02088 -158.74
2.298 -0.020848 -158.81
2.304 -0.020816 -158.88
2.31 -0.020784 -158.94
2.316 -0.020752 -159.01
2.322 -0.02072 -159.08
2.328 -0.020689 -159.14
2.334 -0.020657 -159.21
2.34 -0.020626 -159.27
2.346 -0.020595 -159.34
2.352 -0.020564 -159.40
2.358 -0.020534 -159.46
2.364 -0.020503 -159.53
2.37 -0.020473 -159.59
2.376 -0.020443 -159.66
2.382 -0.020413 -159.72
2.388 -0.020383 -159.78
2.394 -0.020353 -159.84
2.4 -0.020324 -159.91
2.406 -0.020295 -159.97
2.412 -0.020266 -160.03
2.418 -0.020237 -160.09
2.424 -0.020208 -160.15
2.43 -0.020179 -160.21
2.436 -0.020151 -160.27
2.442 -0.020122 -160.33
2.448 -0.020094 -160.39
2.454 -0.020066 -160.45
2.46 -0.020039 -160.51
2.466 -0.020011 -160.57
2.472 -0.019983 -160.63
2.478 -0.019956 -160.69
2.484 -0.019929 -160.75
2.49 -0.019902 -160.81
2.496 -0.019875 -160.87
2.502 -0.019848 -160.92
2.508 -0.019821 -160.98
2.514 -0.019795 -161.04
2.52 -0.019769 -161.10
2.526 -0.019743 -161.15
2.532 -0.019717 -161.21
2.538 -0.019691 -161.27
2.544 -0.019665 -161.32
2.55 -0.019639 -161.38
2.556 -0.019614 -161.43
2.562 -0.019589 -161.49
2.568 -0.019564 -161.55
2.574 -0.019539 -161.60
2.58 -0.019514 -161.66
2.586 -0.019489 -161.71
2.592 -0.019464 -161.77
2.598 -0.01944 -161.82
2.604 -0.019416 -161.87
2.61 -0.019391 -161.93
2.616 -0.019367 -161.98
2.622 -0.019344 -162.04
2.628 -0.01932 -162.09
2.634 -0.019296 -162.14
2.64 -0.019273 -162.19
2.646 -0.019249 -162.25
2.652 -0.019226 -162.30
2.658 -0.019203 -162.35
2.664 -0.01918 -162.40
2.67 -0.019157 -162.46
2.676 -0.019134 -162.51
2.682 -0.019112 -162.56
2.688 -0.019089 -162.61
2.694 -0.019067 -162.66
2.7 -0.019045 -162.71
2.706 -0.019023 -162.76
2.712 -0.019001 -162.81
2.718 -0.018979 -162.87
2.724 -0.018957 -162.92
2.73 -0.018936 -162.97
2.736 -0.018914 -163.02
2.742 -0.018893 -163.07
2.748 -0.018872 -163.12
2.754 -0.018851 -163.16
2.76 -0.01883 -163.21
2.766 -0.018809 -163.26
2.772 -0.018788 -163.31
2.778 -0.018767 -163.36
2.784 -0.018747 -163.41
2.79 -0.018727 -163.46
2.796 -0.018706 -163.51
2.802 -0.018686 -163.55
2.808 -0.018666 -163.60
2.814 -0.018646 -163.65
2.82 -0.018626 -163.70
2.826 -0.018607 -163.74
2.832 -0.018587 -163.79
2.838 -0.018568 -163.84
2.844 -0.018548 -163.89
2.85 -0.018529 -163.93
2.856 -0.01851 -163.98
2.862 -0.018491 -164.02
2.868 -0.018472 -164.07
2.874 -0.018453 -164.12
2.88 -0.018434 -164.16
2.886 -0.018416 -164.21
2.892 -0.018397 -164.25
2.898 -0.018379 -164.30
2.904 -0.018361 -164.35
2.91 -0.018342 -164.39
2.916 -0.018324 -164.44
2.922 -0.018306 -164.48
2.928 -0.018289 -164.52
2.934 -0.018271 -164.57
2.94 -0.018253 -164.61
2.946 -0.018236 -164.66
2.952 -0.018218 -164.70
2.958 -0.018201 -164.75
2.964 -0.018184 -164.79
2.97 -0.018166 -164.83
2.976 -0.018149 -164.88
2.982 -0.018133 -164.92
2.988 -0.018116 -164.96
2.994 -0.018099 -165.01
3 -0.018082 -165.05
3.006 -0.018066 -165.09
3.012 -0.018049 -165.14
3.018 -0.018033 -165.18
3.024 -0.018017 -165.22
3.03 -0.018001 -165.26
3.036 -0.017985 -165.31
3.042 -0.017969 -165.35
3.048 -0.017953 -165.39
3.054 -0.017937 -165.43
3.06 -0.017921 -165.47
3.066 -0.017906 -165.51
3.072 -0.01789 -165.56
3.078 -0.017875 -165.60
3.084 -0.017859 -165.64
3.09 -0.017844 -165.68
3.096 -0.017829 -165.72
3.102 -0.017814 -165.76
3.108 -0.017799 -165.80
3.114 -0.017784 -165.84
3.12 -0.01777 -165.88
3.126 -0.017755 -165.92
3.132 -0.01774 -165.96
3.138 -0.017726 -166.00
3.144 -0.017711 -166.04
3.15 -0.017697 -166.08
3.156 -0.017683 -166.12
3.162 -0.017669 -166.16
3.168 -0.017655 -166.20
3.174 -0.017641 -166.24
3.18 -0.017627 -166.28
3.186 -0.017613 -166.32
3.192 -0.017599 -166.36
3.198 -0.017586 -166.40
3.204 -0.017572 -166.44
3.21 -0.017559 -166.48
3.216 -0.017545 -166.51
3.222 -0.017532 -166.55
3.228 -0.017519 -166.59
3.234 -0.017506 -166.63
3.24 -0.017493 -166.67
3.246 -0.01748 -166.71
3.252 -0.017467 -166.74
3.258 -0.017454 -166.78
3.264 -0.017442 -166.82
3.27 -0.017429 -166.86
3.276 -0.017416 -166.89
3.282 -0.017404 -166.93
3.288 -0.017392 -166.97
3.294 -0.017379 -167.01
3.3 -0.017367 -167.04
3.306 -0.017355 -167.08
3.312 -0.017343 -167.12
3.318 -0.017331 -167.15
3.324 -0.017319 -167.19
3.33 -0.017307 -167.23
3.336 -0.017295 -167.26
3.342 -0.017284 -167.30
3.348 -0.017272 -167.34
3.354 -0.017261 -167.37
3.36 -0.017249 -167.41
3.366 -0.017238 -167.44
3.372 -0.017226 -167.48
3.378 -0.017215 -167.52
3.384 -0.017204 -167.55
3.39 -0.017193 -167.59
3.396 -0.017182 -167.62
3.402 -0.017171 -167.66
3.408 -0.01716 -167.69
3.414 -0.01715 -167.73
3.42 -0.017139 -167.76
3.426 -0.017128 -167.80
3.432 -0.017118 -167.83
3.438 -0.017107 -167.87
3.444 -0.017097 -167.90
3.45 -0.017087 -167.94
3.456 -0.017076 -167.97
3.462 -0.017066 -168.01
3.468 -0.017056 -168.04
3.474 -0.017046 -168.08
3.48 -0.017036 -168.11
3.486 -0.017026 -168.15
3.492 -0.017016 -168.18
3.498 -0.017006 -168.21
3.504 -0.016997 -168.25
3.51 -0.016987 -168.28
3.516 -0.016978 -168.31
3.522 -0.016968 -168.35
3.528 -0.016959 -168.38
3.534 -0.016949 -168.42
3.54 -0.01694 -168.45
3.546 -0.016931 -168.48
3.552 -0.016922 -168.52
3.558 -0.016913 -168.55
3.564 -0.016904 -168.58
3.57 -0.016895 -168.61
3.576 -0.016886 -168.65
3.582 -0.016877 -168.68
3.588 -0.016868 -168.71
3.594 -0.01686 -168.75
3.6 -0.016851 -168.78
3.606 -0.016843 -168.81
3.612 -0.016834 -168.84
3.618 -0.016826 -168.88
3.624 -0.016817 -168.91
3.63 -0.016809 -168.94
3.636 -0.016801 -168.97
3.642 -0.016793 -169.00
3.648 -0.016785 -169.04
3.654 -0.016777 -169.07
3.66 -0.016769 -169.10
3.666 -0.016761 -169.13
3.672 -0.016753 -169.16
3.678 -0.016745 -169.20
3.684 -0.016738 -169.23
3.69 -0.01673 -169.26
3.696 -0.016723 -169.29
3.702 -0.016715 -169.32
3.708 -0.016708 -169.35
3.714 -0.0167 -169.38
3.72 -0.016693 -169.41
3.726 -0.016686 -169.45
3.732 -0.016679 -169.48
3.738 -0.016671 -169.51
3.744 -0.016664 -169.54
3.75 -0.016657 -169.57
3.756 -0.01665 -169.60
3.762 -0.016644 -169.63
3.768 -0.016637 -169.66
3.774 -0.01663 -169.69
3.78 -0.016623 -169.72
3.786 -0.016617 -169.75
3.792 -0.01661 -169.78
3.798 -0.016604 -169.81
3.804 -0.016597 -169.84
3.81 -0.016591 -169.87
3.816 -0.016584 -169.90
3.822 -0.016578 -169.93
3.828 -0.016572 -169.96
3.834 -0.016566 -169.99
3.84 -0.01656 -170.02
3.846 -0.016554 -170.05
3.852 -0.016548 -170.08
3.858 -0.016542 -170.11
3.864 -0.016536 -170.14
3.87 -0.01653 -170.17
3.876 -0.016524 -170.20
3.882 -0.016519 -170.23
3.888 -0.016513 -170.26
3.894 -0.016507 -170.29
3.9 -0.016502 -170.32
3.906 -0.016497 -170.35
3.912 -0.016491 -170.38
3.918 -0.016486 -170.40
3.924 -0.01648 -170.43
3.93 -0.016475 -170.46
3.936 -0.01647 -170.49
3.942 -0.016465 -170.52
3.948 -0.01646 -170.55
3.954 -0.016455 -170.58
3.96 -0.01645 -170.61
3.966 -0.016445 -170.63
3.972 -0.01644 -170.66
3.978 -0.016435 -170.69
3.984 -0.016431 -170.72
3.99 -0.016426 -170.75
3.996 -0.016421 -170.78
4.002 -0.016417 -170.80
4.008 -0.016412 -170.83
4.014 -0.016408 -170.86
4.02 -0.016404 -170.89
4.026 -0.016399 -170.92
4.032 -0.016395 -170.94
4.038 -0.016391 -170.97
4.044 -0.016387 -171.00
4.05 -0.016382 -171.03
4.056 -0.016378 -171.06
4.062 -0.016374 -171.08
4.068 -0.01637 -171.11
4.074 -0.016367 -171.14
4.08 -0.016363 -171.17
4.086 -0.016359 -171.19
4.092 -0.016355 -171.22
4.098 -0.016351 -171.25
4.104 -0.016348 -171.28
4.11 -0.016344 -171.30
4.116 -0.016341 -171.33
4.122 -0.016337 -171.36
4.128 -0.016334 -171.38
4.134 -0.01633 -171.41
4.14 -0.016327 -171.44
4.146 -0.016324 -171.46
4.152 -0.016321 -171.49
4.158 -0.016317 -171.52
4.164 -0.016314 -171.55
4.17 -0.016311 -171.57
4.176 -0.016308 -171.60
4.182 -0.016305 -171.63
4.188 -0.016302 -171.65
4.194 -0.0163 -171.68
4.2 -0.016297 -171.70
4.206 -0.016294 -171.73
4.212 -0.016291 -171.76
4.218 -0.016289 -171.78
4.224 -0.016286 -171.81
4.23 -0.016284 -171.84
4.236 -0.016281 -171.86
4.242 -0.016279 -171.89
4.248 -0.016276 -171.92
4.254 -0.016274 -171.94
4.26 -0.016272 -171.97
4.266 -0.016269 -171.99
4.272 -0.016267 -172.02
4.278 -0.016265 -172.05
4.284 -0.016263 -172.07
4.29 -0.016261 -172.10
4.296 -0.016259 -172.12
4.302 -0.016257 -172.15
4.308 -0.016255 -172.17
4.314 -0.016253 -172.20
4.32 -0.016252 -172.23
4.326 -0.01625 -172.25
4.332 -0.016248 -172.28
4.338 -0.016247 -172.30
4.344 -0.016245 -172.33
4.35 -0.016243 -172.35
4.356 -0.016242 -172.38
4.362 -0.01624 -172.40
4.368 -0.016239 -172.43
4.374 -0.016238 -172.45
4.38 -0.016236 -172.48
4.386 -0.016235 -172.50
4.392 -0.016234 -172.53
4.398 -0.016233 -172.55
4.404 -0.016232 -172.58
4.41 -0.016231 -172.60
4.416 -0.01623 -172.63
4.422 -0.016229 -172.65
4.428 -0.016228 -172.68
4.434 -0.016227 -172.70
4.44 -0.016226 -172.73
4.446 -0.016225 -172.75
4.452 -0.016225 -172.78
4.458 -0.016224 -172.80
4.464 -0.016224 -172.83
4.47 -0.016223 -172.85
4.476 -0.016222 -172.88
4.482 -0.016222 -172.90
4.488 -0.016222 -172.93
4.494 -0.016221 -172.95
4.5 -0.016221 -172.97
4.506 -0.016221 -173.00
4.512 -0.01622 -173.02
4.518 -0.01622 -173.05
4.524 -0.01622 -173.07
4.53 -0.01622 -173.10
4.536 -0.01622 -173.12
4.542 -0.01622 -173.14
4.548 -0.01622 -173.17
4.554 -0.01622 -173.19
4.56 -0.01622 -173.22
4.566 -0.016221 -173.24
4.572 -0.016221 -173.26
4.578 -0.016221 -173.29
4.584 -0.016221 -173.31
4.59 -0.016222 -173.34
4.596 -0.016222 -173.36
4.602 -0.016223 -173.38
4.608 -0.016223 -173.41
4.614 -0.016224 -173.43
4.62 -0.016225 -173.46
4.626 -0.016225 -173.48
4.632 -0.016226 -173.50
4.638 -0.016227 -173.53
4.644 -0.016228 -173.55
4.65 -0.016228 -173.57
4.656 -0.016229 -173.60
4.662 -0.01623 -173.62
4.668 -0.016231 -173.64
4.674 -0.016232 -173.67
4.68 -0.016233 -173.69
4.686 -0.016235 -173.71
4.692 -0.016236 -173.74
4.698 -0.016237 -173.76
4.704 -0.016238 -173.78
4.71 -0.01624 -173.81
4.716 -0.016241 -173.83
4.722 -0.016242 -173.85
4.728 -0.016244 -173.88
4.734 -0.016245 -173.90
4.74 -0.016247 -173.92
4.746 -0.016249 -173.95
4.752 -0.01625 -173.97
4.758 -0.016252 -173.99
4.764 -0.016254 -174.01
4.77 -0.016256 -174.04
4.776 -0.016257 -174.06
4.782 -0.016259 -174.08
4.788 -0.016261 -174.11
4.794 -0.016263 -174.13
4.8 -0.016265 -174.15
4.806 -0.016267 -174.17
4.812 -0.016269 -174.20
4.818 -0.016272 -174.22
4.824 -0.016274 -174.24
4.83 -0.016276 -174.27
4.836 -0.016278 -174.29
4.842 -0.016281 -174.31
4.848 -0.016283 -174.33
4.854 -0.016286 -174.36
4.86 -0.016288 -174.38
4.866 -0.016291 -174.40
4.872 -0.016293 -174.42
4.878 -0.016296 -174.45
4.884 -0.016299 -174.47
4.89 -0.016301 -174.49
4.896 -0.016304 -174.51
4.902 -0.016307 -174.53
4.908 -0.01631 -174.56
4.914 -0.016313 -174.58
4.92 -0.016316 -174.60
4.926 -0.016319 -174.62
4.932 -0.016322 -174.65
4.938 -0.016325 -174.67
4.944 -0.016328 -174.69
4.95 -0.016331 -174.71
4.956 -0.016334 -174.73
4.962 -0.016338 -174.76
4.968 -0.016341 -174.78
4.974 -0.016344 -174.80
4.98 -0.016348 -174.82
4.986 -0.016351 -174.84
4.992 -0.016355 -174.87
4.998 -0.016358 -174.89
5.004 -0.016362 -174.91
5.01 -0.016365 -174.93
5.016 -0.016369 -174.95
5.022 -0.016373 -174.98
5.028 -0.016377 -175.00
5.034 -0.01638 -175.02
5.04 -0.016384 -175.04
5.046 -0.016388 -175.06
5.052 -0.016392 -175.08
5.058 -0.016396 -175.11
5.064 -0.0164 -175.13
5.07 -0.016404 -175.15
5.076 -0.016409 -175.17
5.082 -0.016413 -175.19
5.088 -0.016417 -175.21
5.094 -0.016421 -175.24
5.1 -0.016426 -175.26
5.106 -0.01643 -175.28
5.112 -0.016435 -175.30
5.118 -0.016439 -175.32
5.124 -0.016444 -175.34
5.13 -0.016448 -175.36
5.136 -0.016453 -175.39
5.142 -0.016457 -175.41
5.148 -0.016462 -175.43
5.154 -0.016467 -175.45
5.16 -0.016472 -175.47
5.166 -0.016477 -175.49
5.172 -0.016481 -175.51
5.178 -0.016486 -175.54
5.184 -0.016491 -175.56
5.19 -0.016496 -175.58
5.196 -0.016501 -175.60
5.202 -0.016507 -175.62
5.208 -0.016512 -175.64
5.214 -0.016517 -175.66
5.22 -0.016522 -175.68
5.226 -0.016528 -175.70
5.232 -0.016533 -175.73
5.238 -0.016538 -175.75
5.244 -0.016544 -175.77
5.25 -0.016549 -175.79
5.256 -0.016555 -175.81
5.262 -0.01656 -175.83
5.268 -0.016566 -175.85
5.274 -0.016572 -175.87
5.28 -0.016578 -175.89
5.286 -0.016583 -175.91
5.292 -0.016589 -175.94
5.298 -0.016595 -175.96
5.304 -0.016601 -175.98
5.31 -0.016607 -176.00
5.316 -0.016613 -176.02
5.322 -0.016619 -176.04
5.328 -0.016625 -176.06
5.334 -0.016631 -176.08
5.34 -0.016638 -176.10
5.346 -0.016644 -176.12
5.352 -0.01665 -176.14
5.358 -0.016657 -176.16
5.364 -0.016663 -176.19
5.37 -0.016669 -176.21
5.376 -0.016676 -176.23
5.382 -0.016682 -176.25
5.388 -0.016689 -176.27
5.394 -0.016696 -176.29
5.4 -0.016702 -176.31
5.406 -0.016709 -176.33
5.412 -0.016716 -176.35
5.418 -0.016723 -176.37
5.424 -0.01673 -176.39
5.43 -0.016737 -176.41
5.436 -0.016744 -176.43
5.442 -0.016751 -176.45
5.448 -0.016758 -176.47
5.454 -0.016765 -176.49
5.46 -0.016772 -176.51
5.466 -0.016779 -176.53
5.472 -0.016786 -176.55
5.478 -0.016794 -176.57
5.484 -0.016801 -176.60
5.49 -0.016809 -176.62
5.496 -0.016816 -176.64
5.502 -0.016823 -176.66
5.508 -0.016831 -176.68
5.514 -0.016839 -176.70
5.52 -0.016846 -176.72
5.526 -0.016854 -176.74
5.532 -0.016862 -176.76
5.538 -0.01687 -176.78
5.544 -0.016877 -176.80
5.55 -0.016885 -176.82
5.556 -0.016893 -176.84
5.562 -0.016901 -176.86
5.568 -0.016909 -176.88
5.574 -0.016917 -176.90
5.58 -0.016926 -176.92
5.586 -0.016934 -176.94
5.592 -0.016942 -176.96
5.598 -0.01695 -176.98
5.604 -0.016959 -177.00
5.61 -0.016967 -177.02
5.616 -0.016976 -177.04
5.622 -0.016984 -177.06
5.628 -0.016993 -177.08
5.634 -0.017001 -177.10
5.64 -0.01701 -177.12
5.646 -0.017019 -177.14
5.652 -0.017027 -177.16
5.658 -0.017036 -177.18
5.664 -0.017045 -177.20
5.67 -0.017054 -177.22
5.676 -0.017063 -177.24
5.682 -0.017072 -177.26
5.688 -0.017081 -177.28
5.694 -0.01709 -177.30
5.7 -0.017099 -177.32
5.706 -0.017108 -177.34
5.712 -0.017118 -177.36
5.718 -0.017127 -177.38
5.724 -0.017136 -177.40
5.73 -0.017146 -177.42
5.736 -0.017155 -177.44
5.742 -0.017165 -177.46
5.748 -0.017174 -177.48
5.754 -0.017184 -177.50
5.76 -0.017194 -177.52
5.766 -0.017203 -177.54
5.772 -0.017213 -177.56
5.778 -0.017223 -177.58
5.784 -0.017233 -177.60
5.79 -0.017243 -177.62
5.796 -0.017253 -177.64
5.802 -0.017263 -177.66
5.808 -0.017273 -177.68
5.814 -0.017283 -177.70
5.82 -0.017293 -177.71
5.826 -0.017304 -177.73
5.832 -0.017314 -177.75
5.838 -0.017324 -177.77
5.844 -0.017335 -177.79
5.85 -0.017345 -177.81
5.856 -0.017356 -177.83
5.862 -0.017366 -177.85
5.868 -0.017377 -177.87
5.874 -0.017387 -177.89
5.88 -0.017398 -177.91
5.886 -0.017409 -177.93
5.892 -0.01742 -177.95
5.898 -0.017431 -177.97
5.904 -0.017442 -177.99
5.91 -0.017453 -178.01
5.916 -0.017464 -178.03
5.922 -0.017475 -178.05
5.928 -0.017486 -178.07
5.934 -0.017497 -178.09
5.94 -0.017509 -178.11
5.946 -0.01752 -178.13
5.952 -0.017531 -178.15
5.958 -0.017543 -178.16
5.964 -0.017554 -178.18
5.97 -0.017566 -178.20
5.976 -0.017577 -178.22
5.982 -0.017589 -178.24
5.988 -0.017601 -178.26
5.994 -0.017612 -178.28
6 -0.017624 -178.30
