! yapnr Order 0 O0-M: A16 port 2, 12 mm C-pad
! stackup OSHPARK-4L-EM528, nominal parameters; geometry of the OSHPARK-4L-FR408HR design
! model: 2D quasi-static RLGC (Djordjevic-Sarkar, Huray roughness, Wheeler loss); generated by python -m yapnr.rf.coupons expected --stackup OSHPARK-4L-FR408HR --upload M
! open-ended wide line + KJK open end; the line-to-pad step not modelled; 50 ohm
# GHz S DB R 50
0.006 -0.0041201 -5.64
0.012 -0.0081831 -11.23
0.018 -0.012133 -16.76
0.024 -0.015921 -22.21
0.03 -0.019502 -27.55
0.036 -0.022844 -32.77
0.042 -0.02592 -37.85
0.048 -0.028715 -42.78
0.054 -0.031221 -47.55
0.06 -0.033437 -52.15
0.066 -0.035371 -56.58
0.072 -0.037032 -60.83
0.078 -0.038438 -64.90
0.084 -0.039605 -68.79
0.09 -0.040553 -72.51
0.096 -0.041301 -76.07
0.102 -0.04187 -79.46
0.108 -0.042279 -82.69
0.114 -0.042547 -85.77
0.12 -0.042691 -88.70
0.126 -0.042726 -91.49
0.132 -0.042668 -94.15
0.138 -0.042529 -96.69
0.144 -0.042321 -99.10
0.15 -0.042056 -101.40
0.156 -0.041741 -103.60
0.162 -0.041386 -105.69
0.168 -0.040997 -107.69
0.174 -0.040581 -109.60
0.18 -0.040143 -111.42
0.186 -0.039688 -113.16
0.192 -0.03922 -114.83
0.198 -0.038742 -116.42
0.204 -0.038259 -117.95
0.21 -0.037771 -119.41
0.216 -0.037281 -120.82
0.222 -0.036792 -122.16
0.228 -0.036305 -123.45
0.234 -0.035821 -124.69
0.24 -0.03534 -125.88
0.246 -0.034865 -127.03
0.252 -0.034396 -128.13
0.258 -0.033934 -129.19
0.264 -0.033478 -130.21
0.27 -0.03303 -131.19
0.276 -0.03259 -132.14
0.282 -0.032157 -133.06
0.288 -0.031733 -133.94
0.294 -0.031316 -134.79
0.3 -0.030908 -135.62
0.306 -0.030509 -136.42
0.312 -0.030117 -137.19
0.318 -0.029734 -137.93
0.324 -0.029359 -138.65
0.33 -0.028991 -139.35
0.336 -0.028632 -140.03
0.342 -0.028281 -140.69
0.348 -0.027937 -141.32
0.354 -0.027601 -141.94
0.36 -0.027273 -142.54
0.366 -0.026951 -143.12
0.372 -0.026637 -143.69
0.378 -0.02633 -144.24
0.384 -0.026029 -144.77
0.39 -0.025735 -145.29
0.396 -0.025448 -145.80
0.402 -0.025167 -146.29
0.408 -0.024892 -146.77
0.414 -0.024623 -147.24
0.42 -0.02436 -147.69
0.426 -0.024103 -148.13
0.432 -0.023851 -148.57
0.438 -0.023605 -148.99
0.444 -0.023364 -149.40
0.45 -0.023128 -149.80
0.456 -0.022897 -150.19
0.462 -0.022671 -150.57
0.468 -0.02245 -150.94
0.474 -0.022233 -151.31
0.48 -0.022021 -151.66
0.486 -0.021814 -152.01
0.492 -0.021611 -152.35
0.498 -0.021411 -152.68
0.504 -0.021216 -153.01
0.51 -0.021025 -153.32
0.516 -0.020838 -153.63
0.522 -0.020654 -153.94
0.528 -0.020475 -154.24
0.534 -0.020298 -154.53
0.54 -0.020126 -154.81
0.546 -0.019956 -155.09
0.552 -0.01979 -155.37
0.558 -0.019627 -155.64
0.564 -0.019467 -155.90
0.57 -0.019311 -156.16
0.576 -0.019157 -156.41
0.582 -0.019006 -156.66
0.588 -0.018858 -156.91
0.594 -0.018713 -157.14
0.6 -0.01857 -157.38
0.606 -0.018431 -157.61
0.612 -0.018293 -157.84
0.618 -0.018158 -158.06
0.624 -0.018026 -158.28
0.63 -0.017896 -158.49
0.636 -0.017769 -158.70
0.642 -0.017643 -158.91
0.648 -0.01752 -159.11
0.654 -0.017399 -159.31
0.66 -0.01728 -159.51
0.666 -0.017164 -159.70
0.672 -0.017049 -159.89
0.678 -0.016936 -160.08
0.684 -0.016825 -160.26
0.69 -0.016716 -160.44
0.696 -0.016609 -160.62
0.702 -0.016504 -160.80
0.708 -0.016401 -160.97
0.714 -0.016299 -161.14
0.72 -0.016199 -161.30
0.726 -0.016101 -161.47
0.732 -0.016004 -161.63
0.738 -0.015909 -161.79
0.744 -0.015815 -161.95
0.75 -0.015723 -162.10
0.756 -0.015632 -162.25
0.762 -0.015543 -162.40
0.768 -0.015455 -162.55
0.774 -0.015369 -162.70
0.78 -0.015284 -162.84
0.786 -0.015201 -162.98
0.792 -0.015118 -163.12
0.798 -0.015037 -163.26
0.804 -0.014958 -163.40
0.81 -0.014879 -163.53
0.816 -0.014802 -163.66
0.822 -0.014726 -163.79
0.828 -0.014651 -163.92
0.834 -0.014577 -164.05
0.84 -0.014504 -164.18
0.846 -0.014433 -164.30
0.852 -0.014362 -164.42
0.858 -0.014293 -164.54
0.864 -0.014225 -164.66
0.87 -0.014157 -164.78
0.876 -0.014091 -164.89
0.882 -0.014026 -165.01
0.888 -0.013961 -165.12
0.894 -0.013898 -165.23
0.9 -0.013835 -165.34
0.906 -0.013774 -165.45
0.912 -0.013713 -165.56
0.918 -0.013653 -165.67
0.924 -0.013594 -165.77
0.93 -0.013536 -165.88
0.936 -0.013479 -165.98
0.942 -0.013422 -166.08
0.948 -0.013366 -166.18
0.954 -0.013312 -166.28
0.96 -0.013258 -166.38
0.966 -0.013204 -166.48
0.972 -0.013152 -166.57
0.978 -0.0131 -166.67
0.984 -0.013049 -166.76
0.99 -0.012998 -166.85
0.996 -0.012949 -166.94
1.002 -0.0129 -167.03
1.008 -0.012851 -167.12
1.014 -0.012804 -167.21
1.02 -0.012757 -167.30
1.026 -0.01271 -167.39
1.032 -0.012665 -167.47
1.038 -0.01262 -167.56
1.044 -0.012575 -167.64
1.05 -0.012531 -167.73
1.056 -0.012488 -167.81
1.062 -0.012445 -167.89
1.068 -0.012403 -167.97
1.074 -0.012362 -168.05
1.08 -0.012321 -168.13
1.086 -0.012281 -168.21
1.092 -0.012241 -168.29
1.098 -0.012202 -168.36
1.104 -0.012163 -168.44
1.11 -0.012125 -168.52
1.116 -0.012087 -168.59
1.122 -0.01205 -168.66
1.128 -0.012013 -168.74
1.134 -0.011977 -168.81
1.14 -0.011941 -168.88
1.146 -0.011906 -168.95
1.152 -0.011871 -169.02
1.158 -0.011837 -169.09
1.164 -0.011803 -169.16
1.17 -0.011769 -169.23
1.176 -0.011736 -169.30
1.182 -0.011704 -169.37
1.188 -0.011672 -169.43
1.194 -0.01164 -169.50
1.2 -0.011609 -169.57
1.206 -0.011578 -169.63
1.212 -0.011548 -169.70
1.218 -0.011518 -169.76
1.224 -0.011488 -169.82
1.23 -0.011459 -169.89
1.236 -0.01143 -169.95
1.242 -0.011402 -170.01
1.248 -0.011374 -170.07
1.254 -0.011346 -170.13
1.26 -0.011319 -170.19
1.266 -0.011292 -170.25
1.272 -0.011265 -170.31
1.278 -0.011239 -170.37
1.284 -0.011213 -170.43
1.29 -0.011187 -170.49
1.296 -0.011162 -170.55
1.302 -0.011137 -170.60
1.308 -0.011113 -170.66
1.314 -0.011089 -170.72
1.32 -0.011065 -170.77
1.326 -0.011041 -170.83
1.332 -0.011018 -170.88
1.338 -0.010995 -170.94
1.344 -0.010973 -170.99
1.35 -0.01095 -171.04
1.356 -0.010929 -171.10
1.362 -0.010907 -171.15
1.368 -0.010885 -171.20
1.374 -0.010864 -171.25
1.38 -0.010844 -171.31
1.386 -0.010823 -171.36
1.392 -0.010803 -171.41
1.398 -0.010783 -171.46
1.404 -0.010763 -171.51
1.41 -0.010744 -171.56
1.416 -0.010725 -171.61
1.422 -0.010706 -171.66
1.428 -0.010687 -171.71
1.434 -0.010669 -171.76
1.44 -0.010651 -171.80
1.446 -0.010633 -171.85
1.452 -0.010616 -171.90
1.458 -0.010599 -171.95
1.464 -0.010582 -171.99
1.47 -0.010565 -172.04
1.476 -0.010548 -172.09
1.482 -0.010532 -172.13
1.488 -0.010516 -172.18
1.494 -0.0105 -172.22
1.5 -0.010485 -172.27
1.506 -0.010469 -172.31
1.512 -0.010454 -172.36
1.518 -0.010439 -172.40
1.524 -0.010425 -172.44
1.53 -0.01041 -172.49
1.536 -0.010396 -172.53
1.542 -0.010382 -172.57
1.548 -0.010368 -172.62
1.554 -0.010355 -172.66
1.56 -0.010341 -172.70
1.566 -0.010328 -172.74
1.572 -0.010315 -172.79
1.578 -0.010302 -172.83
1.584 -0.01029 -172.87
1.59 -0.010278 -172.91
1.596 -0.010266 -172.95
1.602 -0.010254 -172.99
1.608 -0.010242 -173.03
1.614 -0.01023 -173.07
1.62 -0.010219 -173.11
1.626 -0.010208 -173.15
1.632 -0.010197 -173.19
1.638 -0.010186 -173.23
1.644 -0.010176 -173.27
1.65 -0.010165 -173.31
1.656 -0.010155 -173.35
1.662 -0.010145 -173.38
1.668 -0.010136 -173.42
1.674 -0.010126 -173.46
1.68 -0.010116 -173.50
1.686 -0.010107 -173.53
1.692 -0.010098 -173.57
1.698 -0.010089 -173.61
1.704 -0.010081 -173.65
1.71 -0.010072 -173.68
1.716 -0.010064 -173.72
1.722 -0.010055 -173.75
1.728 -0.010047 -173.79
1.734 -0.010039 -173.83
1.74 -0.010032 -173.86
1.746 -0.010024 -173.90
1.752 -0.010017 -173.93
1.758 -0.01001 -173.97
1.764 -0.010003 -174.00
1.77 -0.0099957 -174.04
1.776 -0.009989 -174.07
1.782 -0.0099824 -174.11
1.788 -0.009976 -174.14
1.794 -0.0099698 -174.18
1.8 -0.0099637 -174.21
1.806 -0.0099577 -174.24
1.812 -0.0099519 -174.28
1.818 -0.0099463 -174.31
1.824 -0.0099408 -174.34
1.83 -0.0099355 -174.38
1.836 -0.0099303 -174.41
1.842 -0.0099253 -174.44
1.848 -0.0099204 -174.48
1.854 -0.0099157 -174.51
1.86 -0.0099111 -174.54
1.866 -0.0099066 -174.57
1.872 -0.0099023 -174.60
1.878 -0.0098982 -174.64
1.884 -0.0098942 -174.67
1.89 -0.0098903 -174.70
1.896 -0.0098866 -174.73
1.902 -0.009883 -174.76
1.908 -0.0098796 -174.79
1.914 -0.0098763 -174.82
1.92 -0.0098731 -174.86
1.926 -0.0098701 -174.89
1.932 -0.0098672 -174.92
1.938 -0.0098645 -174.95
1.944 -0.0098618 -174.98
1.95 -0.0098594 -175.01
1.956 -0.009857 -175.04
1.962 -0.0098548 -175.07
1.968 -0.0098527 -175.10
1.974 -0.0098508 -175.13
1.98 -0.009849 -175.16
1.986 -0.0098473 -175.19
1.992 -0.0098458 -175.22
1.998 -0.0098443 -175.25
2.004 -0.0098431 -175.28
2.01 -0.0098419 -175.30
2.016 -0.0098409 -175.33
2.022 -0.00984 -175.36
2.028 -0.0098392 -175.39
2.034 -0.0098386 -175.42
2.04 -0.009838 -175.45
2.046 -0.0098376 -175.48
2.052 -0.0098374 -175.51
2.058 -0.0098372 -175.53
2.064 -0.0098372 -175.56
2.07 -0.0098373 -175.59
2.076 -0.0098376 -175.62
2.082 -0.0098379 -175.65
2.088 -0.0098384 -175.67
2.094 -0.009839 -175.70
2.1 -0.0098397 -175.73
2.106 -0.0098406 -175.76
2.112 -0.0098416 -175.78
2.118 -0.0098427 -175.81
2.124 -0.0098439 -175.84
2.13 -0.0098452 -175.86
2.136 -0.0098467 -175.89
2.142 -0.0098482 -175.92
2.148 -0.0098499 -175.94
2.154 -0.0098517 -175.97
2.16 -0.0098537 -176.00
2.166 -0.0098557 -176.02
2.172 -0.0098579 -176.05
2.178 -0.0098602 -176.08
2.184 -0.0098626 -176.10
2.19 -0.0098651 -176.13
2.196 -0.0098678 -176.16
2.202 -0.0098705 -176.18
2.208 -0.0098734 -176.21
2.214 -0.0098764 -176.23
2.22 -0.0098795 -176.26
2.226 -0.0098827 -176.28
2.232 -0.0098861 -176.31
2.238 -0.0098895 -176.34
2.244 -0.0098931 -176.36
2.25 -0.0098968 -176.39
2.256 -0.0099006 -176.41
2.262 -0.0099045 -176.44
2.268 -0.0099085 -176.46
2.274 -0.0099127 -176.49
2.28 -0.009917 -176.51
2.286 -0.0099213 -176.54
2.292 -0.0099258 -176.56
2.298 -0.0099304 -176.59
2.304 -0.0099351 -176.61
2.31 -0.00994 -176.63
2.316 -0.0099449 -176.66
2.322 -0.00995 -176.68
2.328 -0.0099552 -176.71
2.334 -0.0099605 -176.73
2.34 -0.0099659 -176.76
2.346 -0.0099714 -176.78
2.352 -0.009977 -176.80
2.358 -0.0099827 -176.83
2.364 -0.0099886 -176.85
2.37 -0.0099946 -176.88
2.376 -0.010001 -176.90
2.382 -0.010007 -176.92
2.388 -0.010013 -176.95
2.394 -0.01002 -176.97
2.4 -0.010026 -177.00
2.406 -0.010033 -177.02
2.412 -0.01004 -177.04
2.418 -0.010046 -177.07
2.424 -0.010053 -177.09
2.43 -0.01006 -177.11
2.436 -0.010068 -177.14
2.442 -0.010075 -177.16
2.448 -0.010082 -177.18
2.454 -0.01009 -177.20
2.46 -0.010098 -177.23
2.466 -0.010105 -177.25
2.472 -0.010113 -177.27
2.478 -0.010121 -177.30
2.484 -0.010129 -177.32
2.49 -0.010138 -177.34
2.496 -0.010146 -177.36
2.502 -0.010155 -177.39
2.508 -0.010163 -177.41
2.514 -0.010172 -177.43
2.52 -0.010181 -177.46
2.526 -0.010189 -177.48
2.532 -0.010199 -177.50
2.538 -0.010208 -177.52
2.544 -0.010217 -177.54
2.55 -0.010226 -177.57
2.556 -0.010236 -177.59
2.562 -0.010245 -177.61
2.568 -0.010255 -177.63
2.574 -0.010265 -177.66
2.58 -0.010275 -177.68
2.586 -0.010285 -177.70
2.592 -0.010295 -177.72
2.598 -0.010305 -177.74
2.604 -0.010316 -177.77
2.61 -0.010326 -177.79
2.616 -0.010337 -177.81
2.622 -0.010348 -177.83
2.628 -0.010359 -177.85
2.634 -0.01037 -177.87
2.64 -0.010381 -177.90
2.646 -0.010392 -177.92
2.652 -0.010403 -177.94
2.658 -0.010415 -177.96
2.664 -0.010426 -177.98
2.67 -0.010438 -178.00
2.676 -0.01045 -178.03
2.682 -0.010462 -178.05
2.688 -0.010474 -178.07
2.694 -0.010486 -178.09
2.7 -0.010499 -178.11
2.706 -0.010511 -178.13
2.712 -0.010524 -178.15
2.718 -0.010536 -178.17
2.724 -0.010549 -178.20
2.73 -0.010562 -178.22
2.736 -0.010575 -178.24
2.742 -0.010588 -178.26
2.748 -0.010601 -178.28
2.754 -0.010615 -178.30
2.76 -0.010628 -178.32
2.766 -0.010642 -178.34
2.772 -0.010656 -178.36
2.778 -0.01067 -178.38
2.784 -0.010684 -178.41
2.79 -0.010698 -178.43
2.796 -0.010712 -178.45
2.802 -0.010727 -178.47
2.808 -0.010741 -178.49
2.814 -0.010756 -178.51
2.82 -0.010771 -178.53
2.826 -0.010786 -178.55
2.832 -0.010801 -178.57
2.838 -0.010816 -178.59
2.844 -0.010831 -178.61
2.85 -0.010847 -178.63
2.856 -0.010862 -178.65
2.862 -0.010878 -178.67
2.868 -0.010894 -178.69
2.874 -0.01091 -178.72
2.88 -0.010926 -178.74
2.886 -0.010942 -178.76
2.892 -0.010958 -178.78
2.898 -0.010975 -178.80
2.904 -0.010992 -178.82
2.91 -0.011008 -178.84
2.916 -0.011025 -178.86
2.922 -0.011042 -178.88
2.928 -0.011059 -178.90
2.934 -0.011077 -178.92
2.94 -0.011094 -178.94
2.946 -0.011112 -178.96
2.952 -0.01113 -178.98
2.958 -0.011147 -179.00
2.964 -0.011165 -179.02
2.97 -0.011184 -179.04
2.976 -0.011202 -179.06
2.982 -0.01122 -179.08
2.988 -0.011239 -179.10
2.994 -0.011258 -179.12
3 -0.011277 -179.14
3.006 -0.011296 -179.16
3.012 -0.011315 -179.18
3.018 -0.011334 -179.20
3.024 -0.011354 -179.22
3.03 -0.011373 -179.24
3.036 -0.011393 -179.26
3.042 -0.011413 -179.28
3.048 -0.011433 -179.30
3.054 -0.011453 -179.32
3.06 -0.011473 -179.34
3.066 -0.011494 -179.36
3.072 -0.011515 -179.38
3.078 -0.011535 -179.40
3.084 -0.011556 -179.42
3.09 -0.011578 -179.44
3.096 -0.011599 -179.46
3.102 -0.01162 -179.48
3.108 -0.011642 -179.50
3.114 -0.011664 -179.52
3.12 -0.011686 -179.54
3.126 -0.011708 -179.56
3.132 -0.01173 -179.58
3.138 -0.011752 -179.60
3.144 -0.011775 -179.62
3.15 -0.011798 -179.64
3.156 -0.01182 -179.66
3.162 -0.011844 -179.68
3.168 -0.011867 -179.70
3.174 -0.01189 -179.72
3.18 -0.011914 -179.74
3.186 -0.011937 -179.76
3.192 -0.011961 -179.78
3.198 -0.011985 -179.80
3.204 -0.01201 -179.82
3.21 -0.012034 -179.84
3.216 -0.012059 -179.86
3.222 -0.012083 -179.88
3.228 -0.012108 -179.90
3.234 -0.012134 -179.92
3.24 -0.012159 -179.94
3.246 -0.012184 -179.96
3.252 -0.01221 -179.98
3.258 -0.012236 -180.00
3.264 -0.012262 179.98
3.27 -0.012288 179.96
3.276 -0.012315 179.94
3.282 -0.012341 179.93
3.288 -0.012368 179.91
3.294 -0.012395 179.89
3.3 -0.012422 179.87
3.306 -0.012449 179.85
3.312 -0.012477 179.83
3.318 -0.012505 179.81
3.324 -0.012533 179.79
3.33 -0.012561 179.77
3.336 -0.012589 179.75
3.342 -0.012617 179.73
3.348 -0.012646 179.71
3.354 -0.012675 179.69
3.36 -0.012704 179.67
3.366 -0.012734 179.65
3.372 -0.012763 179.63
3.378 -0.012793 179.61
3.384 -0.012823 179.59
3.39 -0.012853 179.57
3.396 -0.012883 179.55
3.402 -0.012914 179.53
3.408 -0.012945 179.51
3.414 -0.012976 179.49
3.42 -0.013007 179.47
3.426 -0.013038 179.45
3.432 -0.01307 179.43
3.438 -0.013102 179.41
3.444 -0.013134 179.39
3.45 -0.013166 179.37
3.456 -0.013199 179.35
3.462 -0.013232 179.33
3.468 -0.013265 179.31
3.474 -0.013298 179.29
3.48 -0.013331 179.27
3.486 -0.013365 179.25
3.492 -0.013399 179.23
3.498 -0.013433 179.21
3.504 -0.013467 179.19
3.51 -0.013502 179.17
3.516 -0.013537 179.15
3.522 -0.013572 179.13
3.528 -0.013608 179.11
3.534 -0.013643 179.09
3.54 -0.013679 179.07
3.546 -0.013715 179.05
3.552 -0.013752 179.03
3.558 -0.013788 179.01
3.564 -0.013825 178.99
3.57 -0.013862 178.97
3.576 -0.0139 178.95
3.582 -0.013937 178.93
3.588 -0.013975 178.91
3.594 -0.014013 178.89
3.6 -0.014052 178.87
3.606 -0.014091 178.85
3.612 -0.01413 178.83
3.618 -0.014169 178.81
3.624 -0.014208 178.79
3.63 -0.014248 178.76
3.636 -0.014288 178.74
3.642 -0.014329 178.72
3.648 -0.01437 178.70
3.654 -0.014411 178.68
3.66 -0.014452 178.66
3.666 -0.014493 178.64
3.672 -0.014535 178.62
3.678 -0.014577 178.60
3.684 -0.01462 178.58
3.69 -0.014663 178.56
3.696 -0.014706 178.54
3.702 -0.014749 178.52
3.708 -0.014793 178.50
3.714 -0.014837 178.48
3.72 -0.014881 178.46
3.726 -0.014926 178.43
3.732 -0.01497 178.41
3.738 -0.015016 178.39
3.744 -0.015061 178.37
3.75 -0.015107 178.35
3.756 -0.015153 178.33
3.762 -0.0152 178.31
3.768 -0.015247 178.29
3.774 -0.015294 178.27
3.78 -0.015342 178.25
3.786 -0.01539 178.23
3.792 -0.015438 178.20
3.798 -0.015487 178.18
3.804 -0.015536 178.16
3.81 -0.015585 178.14
3.816 -0.015635 178.12
3.822 -0.015685 178.10
3.828 -0.015735 178.08
3.834 -0.015786 178.06
3.84 -0.015837 178.03
3.846 -0.015888 178.01
3.852 -0.01594 177.99
3.858 -0.015993 177.97
3.864 -0.016045 177.95
3.87 -0.016098 177.93
3.876 -0.016152 177.90
3.882 -0.016206 177.88
3.888 -0.01626 177.86
3.894 -0.016314 177.84
3.9 -0.016369 177.82
3.906 -0.016425 177.80
3.912 -0.016481 177.77
3.918 -0.016537 177.75
3.924 -0.016594 177.73
3.93 -0.016651 177.71
3.936 -0.016708 177.69
3.942 -0.016766 177.66
3.948 -0.016825 177.64
3.954 -0.016884 177.62
3.96 -0.016943 177.60
3.966 -0.017003 177.58
3.972 -0.017063 177.55
3.978 -0.017123 177.53
3.984 -0.017184 177.51
3.99 -0.017246 177.49
3.996 -0.017308 177.46
4.002 -0.017371 177.44
4.008 -0.017434 177.42
4.014 -0.017497 177.40
4.02 -0.017561 177.37
4.026 -0.017625 177.35
4.032 -0.01769 177.33
4.038 -0.017756 177.31
4.044 -0.017822 177.28
4.05 -0.017888 177.26
4.056 -0.017955 177.24
4.062 -0.018022 177.21
4.068 -0.01809 177.19
4.074 -0.018159 177.17
4.08 -0.018228 177.14
4.086 -0.018298 177.12
4.092 -0.018368 177.10
4.098 -0.018438 177.07
4.104 -0.01851 177.05
4.11 -0.018581 177.03
4.116 -0.018654 177.00
4.122 -0.018727 176.98
4.128 -0.0188 176.96
4.134 -0.018874 176.93
4.14 -0.018949 176.91
4.146 -0.019024 176.89
4.152 -0.0191 176.86
4.158 -0.019177 176.84
4.164 -0.019254 176.81
4.17 -0.019331 176.79
4.176 -0.01941 176.77
4.182 -0.019489 176.74
4.188 -0.019568 176.72
4.194 -0.019649 176.69
4.2 -0.019729 176.67
4.206 -0.019811 176.64
4.212 -0.019893 176.62
4.218 -0.019976 176.59
4.224 -0.02006 176.57
4.23 -0.020144 176.54
4.236 -0.020229 176.52
4.242 -0.020314 176.50
4.248 -0.020401 176.47
4.254 -0.020488 176.44
4.26 -0.020576 176.42
4.266 -0.020664 176.39
4.272 -0.020753 176.37
4.278 -0.020843 176.34
4.284 -0.020934 176.32
4.29 -0.021026 176.29
4.296 -0.021118 176.27
4.302 -0.021211 176.24
4.308 -0.021305 176.22
4.314 -0.021399 176.19
4.32 -0.021495 176.16
4.326 -0.021591 176.14
4.332 -0.021688 176.11
4.338 -0.021786 176.09
4.344 -0.021885 176.06
4.35 -0.021984 176.03
4.356 -0.022085 176.01
4.362 -0.022186 175.98
4.368 -0.022288 175.95
4.374 -0.022391 175.93
4.38 -0.022495 175.90
4.386 -0.0226 175.87
4.392 -0.022706 175.85
4.398 -0.022812 175.82
4.404 -0.02292 175.79
4.41 -0.023029 175.76
4.416 -0.023138 175.74
4.422 -0.023249 175.71
4.428 -0.02336 175.68
4.434 -0.023473 175.65
4.44 -0.023586 175.63
4.446 -0.023701 175.60
4.452 -0.023816 175.57
4.458 -0.023933 175.54
4.464 -0.02405 175.51
4.47 -0.024169 175.49
4.476 -0.024289 175.46
4.482 -0.02441 175.43
4.488 -0.024531 175.40
4.494 -0.024655 175.37
4.5 -0.024779 175.34
4.506 -0.024904 175.31
4.512 -0.02503 175.29
4.518 -0.025158 175.26
4.524 -0.025287 175.23
4.53 -0.025417 175.20
4.536 -0.025548 175.17
4.542 -0.02568 175.14
4.548 -0.025814 175.11
4.554 -0.025949 175.08
4.56 -0.026085 175.05
4.566 -0.026223 175.02
4.572 -0.026361 174.99
4.578 -0.026502 174.96
4.584 -0.026643 174.93
4.59 -0.026786 174.90
4.596 -0.02693 174.87
4.602 -0.027075 174.83
4.608 -0.027222 174.80
4.614 -0.027371 174.77
4.62 -0.02752 174.74
4.626 -0.027672 174.71
4.632 -0.027824 174.68
4.638 -0.027979 174.65
4.644 -0.028134 174.61
4.65 -0.028292 174.58
4.656 -0.02845 174.55
4.662 -0.028611 174.52
4.668 -0.028773 174.48
4.674 -0.028936 174.45
4.68 -0.029101 174.42
4.686 -0.029268 174.39
4.692 -0.029437 174.35
4.698 -0.029607 174.32
4.704 -0.029779 174.29
4.71 -0.029953 174.25
4.716 -0.030128 174.22
4.722 -0.030305 174.19
4.728 -0.030484 174.15
4.734 -0.030665 174.12
4.74 -0.030848 174.08
4.746 -0.031033 174.05
4.752 -0.031219 174.01
4.758 -0.031408 173.98
4.764 -0.031598 173.94
4.77 -0.031791 173.91
4.776 -0.031985 173.87
4.782 -0.032182 173.84
4.788 -0.03238 173.80
4.794 -0.032581 173.76
4.8 -0.032784 173.73
4.806 -0.032989 173.69
4.812 -0.033196 173.66
4.818 -0.033405 173.62
4.824 -0.033617 173.58
4.83 -0.033831 173.54
4.836 -0.034047 173.51
4.842 -0.034266 173.47
4.848 -0.034487 173.43
4.854 -0.03471 173.39
4.86 -0.034936 173.36
4.866 -0.035165 173.32
4.872 -0.035396 173.28
4.878 -0.035629 173.24
4.884 -0.035865 173.20
4.89 -0.036104 173.16
4.896 -0.036346 173.12
4.902 -0.03659 173.08
4.908 -0.036837 173.04
4.914 -0.037086 173.00
4.92 -0.037339 172.96
4.926 -0.037594 172.92
4.932 -0.037853 172.88
4.938 -0.038114 172.84
4.944 -0.038379 172.80
4.95 -0.038646 172.75
4.956 -0.038917 172.71
4.962 -0.039191 172.67
4.968 -0.039468 172.63
4.974 -0.039748 172.59
4.98 -0.040031 172.54
4.986 -0.040318 172.50
4.992 -0.040609 172.46
4.998 -0.040902 172.41
5.004 -0.0412 172.37
5.01 -0.041501 172.32
5.016 -0.041805 172.28
5.022 -0.042113 172.23
5.028 -0.042426 172.19
5.034 -0.042741 172.14
5.04 -0.043061 172.10
5.046 -0.043385 172.05
5.052 -0.043712 172.00
5.058 -0.044044 171.96
5.064 -0.04438 171.91
5.07 -0.04472 171.86
5.076 -0.045065 171.82
5.082 -0.045413 171.77
5.088 -0.045766 171.72
5.094 -0.046124 171.67
5.1 -0.046486 171.62
5.106 -0.046853 171.57
5.112 -0.047225 171.52
5.118 -0.047601 171.47
5.124 -0.047983 171.42
5.13 -0.048369 171.37
5.136 -0.04876 171.32
5.142 -0.049157 171.27
5.148 -0.049559 171.22
5.154 -0.049966 171.16
5.16 -0.050378 171.11
5.166 -0.050796 171.06
5.172 -0.05122 171.00
5.178 -0.051649 170.95
5.184 -0.052084 170.90
5.19 -0.052526 170.84
5.196 -0.052973 170.79
5.202 -0.053426 170.73
5.208 -0.053886 170.67
5.214 -0.054352 170.62
5.22 -0.054824 170.56
5.226 -0.055303 170.50
5.232 -0.055789 170.44
5.238 -0.056282 170.39
5.244 -0.056781 170.33
5.25 -0.057288 170.27
5.256 -0.057802 170.21
5.262 -0.058323 170.15
5.268 -0.058852 170.09
5.274 -0.059389 170.03
5.28 -0.059933 169.96
5.286 -0.060486 169.90
5.292 -0.061046 169.84
5.298 -0.061615 169.78
5.304 -0.062192 169.71
5.31 -0.062778 169.65
5.316 -0.063373 169.58
5.322 -0.063976 169.52
5.328 -0.064589 169.45
5.334 -0.065211 169.38
5.34 -0.065843 169.32
5.346 -0.066484 169.25
5.352 -0.067135 169.18
5.358 -0.067796 169.11
5.364 -0.068468 169.04
5.37 -0.06915 168.97
5.376 -0.069843 168.90
5.382 -0.070547 168.83
5.388 -0.071262 168.76
5.394 -0.071988 168.68
5.4 -0.072726 168.61
5.406 -0.073476 168.53
5.412 -0.074239 168.46
5.418 -0.075013 168.38
5.424 -0.075801 168.31
5.43 -0.076601 168.23
5.436 -0.077415 168.15
5.442 -0.078242 168.07
5.448 -0.079083 167.99
5.454 -0.079938 167.91
5.46 -0.080808 167.83
5.466 -0.081693 167.75
5.472 -0.082592 167.66
5.478 -0.083508 167.58
5.484 -0.084439 167.50
5.49 -0.085386 167.41
5.496 -0.08635 167.32
5.502 -0.087331 167.24
5.508 -0.088329 167.15
5.514 -0.089345 167.06
5.52 -0.090379 166.97
5.526 -0.091432 166.88
5.532 -0.092504 166.78
5.538 -0.093595 166.69
5.544 -0.094707 166.60
5.55 -0.095839 166.50
5.556 -0.096992 166.40
5.562 -0.098166 166.31
5.568 -0.099363 166.21
5.574 -0.10058 166.11
5.58 -0.10182 166.01
5.586 -0.10309 165.91
5.592 -0.10438 165.80
5.598 -0.1057 165.70
5.604 -0.10704 165.59
5.61 -0.1084 165.48
5.616 -0.1098 165.38
5.622 -0.11122 165.27
5.628 -0.11267 165.15
5.634 -0.11415 165.04
5.64 -0.11566 164.93
5.646 -0.1172 164.81
5.652 -0.11877 164.70
5.658 -0.12037 164.58
5.664 -0.12201 164.46
5.67 -0.12368 164.34
5.676 -0.12539 164.21
5.682 -0.12713 164.09
5.688 -0.12891 163.96
5.694 -0.13073 163.83
5.7 -0.13259 163.70
5.706 -0.13448 163.57
5.712 -0.13642 163.44
5.718 -0.13841 163.31
5.724 -0.14043 163.17
5.73 -0.1425 163.03
5.736 -0.14462 162.89
5.742 -0.14679 162.75
5.748 -0.149 162.60
5.754 -0.15127 162.45
5.76 -0.15359 162.31
5.766 -0.15596 162.15
5.772 -0.15839 162.00
5.778 -0.16087 161.84
5.784 -0.16342 161.69
5.79 -0.16603 161.53
5.796 -0.1687 161.36
5.802 -0.17143 161.20
5.808 -0.17424 161.03
5.814 -0.17711 160.86
5.82 -0.18005 160.69
5.826 -0.18307 160.51
5.832 -0.18617 160.33
5.838 -0.18934 160.15
5.844 -0.1926 159.96
5.85 -0.19594 159.77
5.856 -0.19936 159.58
5.862 -0.20288 159.39
5.868 -0.2065 159.19
5.874 -0.21021 158.99
5.88 -0.21402 158.79
5.886 -0.21793 158.58
5.892 -0.22195 158.37
5.898 -0.22609 158.15
5.904 -0.23034 157.93
5.91 -0.23471 157.71
5.916 -0.2392 157.48
5.922 -0.24383 157.25
5.928 -0.24859 157.01
5.934 -0.25349 156.77
5.94 -0.25853 156.53
5.946 -0.26372 156.28
5.952 -0.26907 156.02
5.958 -0.27459 155.76
5.964 -0.28027 155.50
5.97 -0.28613 155.23
5.976 -0.29217 154.95
5.982 -0.2984 154.67
5.988 -0.30483 154.38
5.994 -0.31147 154.09
6 -0.31832 153.79
