! yapnr Order 0 O0-M: O0-M A14 SHUNT 100R (switch, family M)
! stackup OSHPARK-4L-FR408HR, nominal parameters; geometry of the OSHPARK-4L-FR408HR design
! model: 2D quasi-static RLGC (Djordjevic-Sarkar, Huray roughness, Wheeler loss); generated by python -m yapnr.rf.coupons expected --stackup OSHPARK-4L-FR408HR --upload M
! reference planes 10 mm from each end; 50 ohm (from the M line's Zc)
# GHz S DB R 50
0.03 -14.018 179.12 -1.952 -1.86 -1.952 -1.86 -14.045 176.54
0.06 -14.033 178.37 -1.9582 -3.66 -1.9582 -3.66 -14.069 173.32
0.09 -14.045 177.64 -1.9634 -5.46 -1.9634 -5.46 -14.086 170.13
0.12 -14.055 176.91 -1.968 -7.25 -1.968 -7.25 -14.099 166.95
0.15 -14.064 176.20 -1.9722 -9.04 -1.9722 -9.04 -14.109 163.78
0.18 -14.073 175.49 -1.9762 -10.82 -1.9762 -10.82 -14.117 160.62
0.21 -14.081 174.78 -1.9801 -12.61 -1.9801 -12.61 -14.123 157.46
0.24 -14.09 174.08 -1.9838 -14.39 -1.9838 -14.39 -14.128 154.31
0.27 -14.098 173.38 -1.9874 -16.17 -1.9874 -16.17 -14.131 151.17
0.3 -14.105 172.68 -1.9909 -17.95 -1.9909 -17.95 -14.133 148.03
0.33 -14.113 171.98 -1.9943 -19.72 -1.9943 -19.72 -14.133 144.89
0.36 -14.121 171.29 -1.9977 -21.50 -1.9977 -21.50 -14.133 141.75
0.39 -14.129 170.59 -2.001 -23.28 -2.001 -23.28 -14.132 138.62
0.42 -14.137 169.90 -2.0043 -25.05 -2.0043 -25.05 -14.129 135.50
0.45 -14.145 169.21 -2.0075 -26.83 -2.0075 -26.83 -14.126 132.38
0.48 -14.152 168.52 -2.0107 -28.60 -2.0107 -28.60 -14.122 129.26
0.51 -14.16 167.84 -2.0139 -30.37 -2.0139 -30.37 -14.117 126.15
0.54 -14.168 167.16 -2.017 -32.15 -2.017 -32.15 -14.111 123.04
0.57 -14.176 166.48 -2.0202 -33.92 -2.0202 -33.92 -14.105 119.94
0.6 -14.184 165.80 -2.0233 -35.69 -2.0233 -35.69 -14.097 116.84
0.63 -14.192 165.12 -2.0263 -37.46 -2.0263 -37.46 -14.09 113.75
0.66 -14.2 164.44 -2.0294 -39.23 -2.0294 -39.23 -14.082 110.66
0.69 -14.208 163.77 -2.0324 -41.00 -2.0324 -41.00 -14.073 107.58
0.72 -14.216 163.10 -2.0354 -42.77 -2.0354 -42.77 -14.064 104.50
0.75 -14.224 162.43 -2.0384 -44.54 -2.0384 -44.54 -14.054 101.43
0.78 -14.232 161.77 -2.0413 -46.31 -2.0413 -46.31 -14.044 98.37
0.81 -14.24 161.10 -2.0443 -48.08 -2.0443 -48.08 -14.034 95.31
0.84 -14.248 160.44 -2.0472 -49.85 -2.0472 -49.85 -14.024 92.26
0.87 -14.255 159.78 -2.0501 -51.61 -2.0501 -51.61 -14.013 89.21
0.9 -14.263 159.13 -2.0529 -53.38 -2.0529 -53.38 -14.002 86.17
0.93 -14.27 158.47 -2.0558 -55.15 -2.0558 -55.15 -13.991 83.14
0.96 -14.278 157.82 -2.0586 -56.91 -2.0586 -56.91 -13.98 80.11
0.99 -14.285 157.17 -2.0614 -58.68 -2.0614 -58.68 -13.969 77.09
1.02 -14.292 156.52 -2.0642 -60.45 -2.0642 -60.45 -13.958 74.07
1.05 -14.299 155.88 -2.0669 -62.21 -2.0669 -62.21 -13.947 71.06
1.08 -14.306 155.24 -2.0697 -63.98 -2.0697 -63.98 -13.937 68.06
1.11 -14.312 154.60 -2.0724 -65.74 -2.0724 -65.74 -13.926 65.06
1.14 -14.319 153.96 -2.075 -67.51 -2.075 -67.51 -13.916 62.06
1.17 -14.325 153.32 -2.0777 -69.27 -2.0777 -69.27 -13.905 59.08
1.2 -14.331 152.69 -2.0803 -71.03 -2.0803 -71.03 -13.896 56.09
1.23 -14.336 152.05 -2.0829 -72.80 -2.0829 -72.80 -13.886 53.12
1.26 -14.342 151.42 -2.0854 -74.56 -2.0854 -74.56 -13.877 50.14
1.29 -14.347 150.80 -2.088 -76.33 -2.088 -76.33 -13.868 47.18
1.32 -14.351 150.17 -2.0905 -78.09 -2.0905 -78.09 -13.859 44.21
1.35 -14.356 149.54 -2.0929 -79.85 -2.0929 -79.85 -13.852 41.26
1.38 -14.36 148.92 -2.0954 -81.61 -2.0954 -81.61 -13.844 38.30
1.41 -14.364 148.30 -2.0978 -83.38 -2.0978 -83.38 -13.837 35.35
1.44 -14.367 147.68 -2.1002 -85.14 -2.1002 -85.14 -13.831 32.41
1.47 -14.37 147.06 -2.1025 -86.90 -2.1025 -86.90 -13.825 29.47
1.5 -14.373 146.44 -2.1048 -88.66 -2.1048 -88.66 -13.82 26.53
1.53 -14.375 145.82 -2.1071 -90.43 -2.1071 -90.43 -13.815 23.59
1.56 -14.377 145.21 -2.1093 -92.19 -2.1093 -92.19 -13.811 20.66
1.59 -14.379 144.60 -2.1115 -93.95 -2.1115 -93.95 -13.808 17.73
1.62 -14.38 143.98 -2.1137 -95.71 -2.1137 -95.71 -13.805 14.81
1.65 -14.381 143.37 -2.1158 -97.47 -2.1158 -97.47 -13.803 11.88
1.68 -14.381 142.76 -2.1179 -99.23 -2.1179 -99.23 -13.802 8.96
1.71 -14.381 142.14 -2.12 -100.99 -2.12 -100.99 -13.801 6.04
1.74 -14.381 141.53 -2.122 -102.75 -2.122 -102.75 -13.802 3.12
1.77 -14.38 140.92 -2.124 -104.52 -2.124 -104.52 -13.803 0.20
1.8 -14.378 140.31 -2.126 -106.28 -2.126 -106.28 -13.804 -2.71
1.83 -14.377 139.70 -2.1279 -108.04 -2.1279 -108.04 -13.807 -5.63
1.86 -14.375 139.09 -2.1298 -109.80 -2.1298 -109.80 -13.81 -8.54
1.89 -14.372 138.48 -2.1317 -111.56 -2.1317 -111.56 -13.814 -11.46
1.92 -14.369 137.87 -2.1335 -113.32 -2.1335 -113.32 -13.819 -14.37
1.95 -14.366 137.25 -2.1353 -115.08 -2.1353 -115.08 -13.825 -17.29
1.98 -14.362 136.64 -2.1371 -116.84 -2.1371 -116.84 -13.831 -20.20
2.01 -14.358 136.03 -2.1389 -118.60 -2.1389 -118.60 -13.838 -23.12
2.04 -14.353 135.41 -2.1406 -120.36 -2.1406 -120.36 -13.846 -26.03
2.07 -14.348 134.80 -2.1423 -122.13 -2.1423 -122.13 -13.854 -28.95
2.1 -14.343 134.18 -2.1439 -123.89 -2.1439 -123.89 -13.864 -31.87
2.13 -14.337 133.56 -2.1456 -125.65 -2.1456 -125.65 -13.874 -34.79
2.16 -14.331 132.94 -2.1472 -127.41 -2.1472 -127.41 -13.885 -37.72
2.19 -14.325 132.32 -2.1488 -129.17 -2.1488 -129.17 -13.896 -40.64
2.22 -14.318 131.70 -2.1503 -130.93 -2.1503 -130.93 -13.908 -43.57
2.25 -14.311 131.08 -2.1519 -132.69 -2.1519 -132.69 -13.921 -46.50
2.28 -14.304 130.45 -2.1534 -134.45 -2.1534 -134.45 -13.935 -49.44
2.31 -14.296 129.82 -2.1549 -136.22 -2.1549 -136.22 -13.949 -52.37
2.34 -14.289 129.19 -2.1564 -137.98 -2.1564 -137.98 -13.963 -55.31
2.37 -14.28 128.56 -2.1578 -139.74 -2.1578 -139.74 -13.979 -58.26
2.4 -14.272 127.93 -2.1593 -141.50 -2.1593 -141.50 -13.995 -61.21
2.43 -14.264 127.29 -2.1607 -143.26 -2.1607 -143.26 -14.011 -64.16
2.46 -14.255 126.66 -2.1622 -145.03 -2.1622 -145.03 -14.028 -67.12
2.49 -14.246 126.02 -2.1636 -146.79 -2.1636 -146.79 -14.045 -70.08
2.52 -14.237 125.37 -2.165 -148.55 -2.165 -148.55 -14.063 -73.04
2.55 -14.228 124.73 -2.1664 -150.31 -2.1664 -150.31 -14.081 -76.02
2.58 -14.218 124.08 -2.1677 -152.08 -2.1677 -152.08 -14.1 -78.99
2.61 -14.209 123.43 -2.1691 -153.84 -2.1691 -153.84 -14.119 -81.97
2.64 -14.199 122.78 -2.1705 -155.60 -2.1705 -155.60 -14.138 -84.96
2.67 -14.19 122.13 -2.1719 -157.36 -2.1719 -157.36 -14.157 -87.95
2.7 -14.18 121.47 -2.1732 -159.13 -2.1732 -159.13 -14.177 -90.94
2.73 -14.171 120.82 -2.1746 -160.89 -2.1746 -160.89 -14.197 -93.95
2.76 -14.161 120.15 -2.176 -162.65 -2.176 -162.65 -14.217 -96.95
2.79 -14.151 119.49 -2.1773 -164.42 -2.1773 -164.42 -14.237 -99.97
2.82 -14.142 118.83 -2.1787 -166.18 -2.1787 -166.18 -14.257 -102.98
2.85 -14.132 118.16 -2.1801 -167.95 -2.1801 -167.95 -14.277 -106.01
2.88 -14.123 117.49 -2.1815 -169.71 -2.1815 -169.71 -14.297 -109.04
2.91 -14.113 116.82 -2.1829 -171.47 -2.1829 -171.47 -14.317 -112.07
2.94 -14.104 116.14 -2.1843 -173.24 -2.1843 -173.24 -14.337 -115.11
2.97 -14.095 115.46 -2.1857 -175.00 -2.1857 -175.00 -14.357 -118.16
3 -14.086 114.79 -2.1871 -176.77 -2.1871 -176.77 -14.376 -121.21
3.03 -14.077 114.10 -2.1886 -178.53 -2.1886 -178.53 -14.396 -124.27
3.06 -14.069 113.42 -2.19 179.70 -2.19 179.70 -14.415 -127.33
3.09 -14.06 112.74 -2.1915 177.94 -2.1915 177.94 -14.433 -130.40
3.12 -14.052 112.05 -2.193 176.17 -2.193 176.17 -14.452 -133.47
3.15 -14.044 111.36 -2.1945 174.41 -2.1945 174.41 -14.469 -136.55
3.18 -14.036 110.67 -2.196 172.64 -2.196 172.64 -14.487 -139.63
3.21 -14.029 109.98 -2.1975 170.88 -2.1975 170.88 -14.503 -142.72
3.24 -14.022 109.28 -2.1991 169.11 -2.1991 169.11 -14.52 -145.81
3.27 -14.015 108.59 -2.2007 167.35 -2.2007 167.35 -14.535 -148.90
3.3 -14.008 107.89 -2.2023 165.58 -2.2023 165.58 -14.55 -152.00
3.33 -14.002 107.20 -2.2039 163.82 -2.2039 163.82 -14.565 -155.10
3.36 -13.996 106.50 -2.2055 162.05 -2.2055 162.05 -14.579 -158.21
3.39 -13.991 105.80 -2.2072 160.29 -2.2072 160.29 -14.592 -161.32
3.42 -13.985 105.10 -2.2089 158.52 -2.2089 158.52 -14.604 -164.43
3.45 -13.98 104.39 -2.2106 156.75 -2.2106 156.75 -14.615 -167.55
3.48 -13.976 103.69 -2.2123 154.99 -2.2123 154.99 -14.626 -170.66
3.51 -13.972 102.99 -2.2141 153.22 -2.2141 153.22 -14.636 -173.78
3.54 -13.968 102.29 -2.2158 151.46 -2.2158 151.46 -14.645 -176.90
3.57 -13.964 101.58 -2.2176 149.69 -2.2176 149.69 -14.653 179.98
3.6 -13.961 100.88 -2.2195 147.93 -2.2195 147.93 -14.661 176.86
3.63 -13.959 100.18 -2.2213 146.16 -2.2213 146.16 -14.667 173.74
3.66 -13.956 99.47 -2.2232 144.40 -2.2232 144.40 -14.673 170.61
3.69 -13.955 98.77 -2.2251 142.63 -2.2251 142.63 -14.678 167.49
3.72 -13.953 98.06 -2.227 140.87 -2.227 140.87 -14.682 164.37
3.75 -13.952 97.36 -2.2289 139.10 -2.2289 139.10 -14.685 161.25
3.78 -13.951 96.66 -2.2309 137.34 -2.2309 137.34 -14.687 158.13
3.81 -13.951 95.96 -2.2328 135.57 -2.2328 135.57 -14.688 155.01
3.84 -13.951 95.26 -2.2348 133.81 -2.2348 133.81 -14.689 151.90
3.87 -13.952 94.56 -2.2369 132.04 -2.2369 132.04 -14.689 148.78
3.9 -13.952 93.86 -2.2389 130.28 -2.2389 130.28 -14.687 145.67
3.93 -13.954 93.16 -2.2409 128.51 -2.2409 128.51 -14.686 142.57
3.96 -13.955 92.46 -2.243 126.75 -2.243 126.75 -14.683 139.46
3.99 -13.957 91.77 -2.2451 124.99 -2.2451 124.99 -14.68 136.36
4.02 -13.959 91.07 -2.2472 123.22 -2.2472 123.22 -14.676 133.26
4.05 -13.962 90.38 -2.2493 121.46 -2.2493 121.46 -14.671 130.17
4.08 -13.965 89.69 -2.2514 119.70 -2.2514 119.70 -14.666 127.08
4.11 -13.969 89.00 -2.2535 117.93 -2.2535 117.93 -14.66 124.00
4.14 -13.972 88.32 -2.2556 116.17 -2.2556 116.17 -14.654 120.92
4.17 -13.976 87.63 -2.2578 114.41 -2.2578 114.41 -14.647 117.84
4.2 -13.98 86.95 -2.2599 112.64 -2.2599 112.64 -14.639 114.77
4.23 -13.985 86.27 -2.2621 110.88 -2.2621 110.88 -14.631 111.71
4.26 -13.99 85.59 -2.2642 109.12 -2.2642 109.12 -14.623 108.65
4.29 -13.995 84.92 -2.2664 107.36 -2.2664 107.36 -14.615 105.59
4.32 -14 84.24 -2.2685 105.59 -2.2685 105.59 -14.606 102.55
4.35 -14.006 83.57 -2.2707 103.83 -2.2707 103.83 -14.597 99.50
4.38 -14.011 82.90 -2.2729 102.07 -2.2729 102.07 -14.587 96.47
4.41 -14.017 82.24 -2.275 100.31 -2.275 100.31 -14.578 93.44
4.44 -14.023 81.58 -2.2771 98.55 -2.2771 98.55 -14.568 90.41
4.47 -14.03 80.92 -2.2793 96.79 -2.2793 96.79 -14.558 87.39
4.5 -14.036 80.26 -2.2814 95.03 -2.2814 95.03 -14.548 84.38
4.53 -14.043 79.61 -2.2835 93.27 -2.2835 93.27 -14.539 81.37
4.56 -14.049 78.96 -2.2856 91.50 -2.2856 91.50 -14.529 78.37
4.59 -14.056 78.31 -2.2877 89.74 -2.2877 89.74 -14.519 75.38
4.62 -14.063 77.66 -2.2898 87.98 -2.2898 87.98 -14.51 72.39
4.65 -14.07 77.02 -2.2919 86.22 -2.2919 86.22 -14.5 69.41
4.68 -14.076 76.38 -2.2939 84.46 -2.2939 84.46 -14.491 66.43
4.71 -14.083 75.75 -2.296 82.70 -2.296 82.70 -14.482 63.46
4.74 -14.09 75.11 -2.298 80.95 -2.298 80.95 -14.474 60.49
4.77 -14.097 74.48 -2.3 79.19 -2.3 79.19 -14.466 57.53
4.8 -14.103 73.86 -2.3019 77.43 -2.3019 77.43 -14.458 54.57
4.83 -14.11 73.23 -2.3039 75.67 -2.3039 75.67 -14.45 51.62
4.86 -14.117 72.61 -2.3058 73.91 -2.3058 73.91 -14.443 48.68
4.89 -14.123 72.00 -2.3077 72.15 -2.3077 72.15 -14.437 45.74
4.92 -14.129 71.38 -2.3096 70.39 -2.3096 70.39 -14.431 42.80
4.95 -14.135 70.77 -2.3114 68.63 -2.3114 68.63 -14.425 39.87
4.98 -14.141 70.16 -2.3132 66.88 -2.3132 66.88 -14.421 36.94
5.01 -14.147 69.55 -2.315 65.12 -2.315 65.12 -14.416 34.01
5.04 -14.153 68.95 -2.3168 63.36 -2.3168 63.36 -14.413 31.09
5.07 -14.158 68.35 -2.3185 61.60 -2.3185 61.60 -14.41 28.18
5.1 -14.163 67.75 -2.3202 59.84 -2.3202 59.84 -14.407 25.26
5.13 -14.168 67.15 -2.3219 58.08 -2.3219 58.08 -14.406 22.35
5.16 -14.172 66.56 -2.3235 56.33 -2.3235 56.33 -14.405 19.44
5.19 -14.176 65.97 -2.3251 54.57 -2.3251 54.57 -14.404 16.54
5.22 -14.18 65.38 -2.3267 52.81 -2.3267 52.81 -14.405 13.63
5.25 -14.184 64.79 -2.3282 51.05 -2.3282 51.05 -14.406 10.73
5.28 -14.187 64.20 -2.3297 49.30 -2.3297 49.30 -14.408 7.83
5.31 -14.19 63.62 -2.3312 47.54 -2.3312 47.54 -14.411 4.93
5.34 -14.192 63.04 -2.3326 45.78 -2.3326 45.78 -14.415 2.03
5.37 -14.194 62.46 -2.334 44.02 -2.334 44.02 -14.419 -0.86
5.4 -14.196 61.88 -2.3354 42.27 -2.3354 42.27 -14.424 -3.76
5.43 -14.197 61.30 -2.3367 40.51 -2.3367 40.51 -14.43 -6.66
5.46 -14.198 60.72 -2.338 38.75 -2.338 38.75 -14.437 -9.55
5.49 -14.199 60.14 -2.3393 36.99 -2.3393 36.99 -14.444 -12.45
5.52 -14.199 59.57 -2.3405 35.23 -2.3405 35.23 -14.453 -15.35
5.55 -14.198 58.99 -2.3417 33.48 -2.3417 33.48 -14.462 -18.24
5.58 -14.198 58.42 -2.3429 31.72 -2.3429 31.72 -14.472 -21.14
5.61 -14.196 57.84 -2.344 29.96 -2.344 29.96 -14.483 -24.04
5.64 -14.195 57.27 -2.3451 28.20 -2.3451 28.20 -14.494 -26.94
5.67 -14.193 56.70 -2.3462 26.44 -2.3462 26.44 -14.506 -29.85
5.7 -14.191 56.12 -2.3472 24.68 -2.3472 24.68 -14.52 -32.75
5.73 -14.188 55.55 -2.3483 22.93 -2.3483 22.93 -14.533 -35.66
5.76 -14.185 54.97 -2.3493 21.17 -2.3493 21.17 -14.548 -38.57
5.79 -14.181 54.40 -2.3502 19.41 -2.3502 19.41 -14.563 -41.48
5.82 -14.177 53.82 -2.3512 17.65 -2.3512 17.65 -14.579 -44.40
5.85 -14.173 53.24 -2.3521 15.89 -2.3521 15.89 -14.595 -47.32
5.88 -14.168 52.67 -2.353 14.13 -2.353 14.13 -14.613 -50.24
5.91 -14.163 52.09 -2.3539 12.37 -2.3539 12.37 -14.63 -53.17
5.94 -14.157 51.51 -2.3547 10.61 -2.3547 10.61 -14.649 -56.10
5.97 -14.152 50.92 -2.3556 8.85 -2.3556 8.85 -14.668 -59.04
6 -14.145 50.34 -2.3564 7.09 -2.3564 7.09 -14.687 -61.98
