! yapnr rf: filterbank3-x7x10x13, footprint re-simulated (refine 2)
! spec sha256 13de688406c8ea8aa5a2983c7d9dfbef6bc7c31cd2b218bfb1531cd97a05cd76
! 4 ports renormalized to 50 ohm, e^(+jwt) convention
# GHz S RI R 50
6.800000000  1.672261667e-01 -4.801844746e-01  6.040525709e-01  4.924530756e-01 -1.389259233e-01  2.327269156e-01  1.610052978e-02  6.497744794e-04
             6.076695111e-01  4.887487798e-01  4.165298882e-01 -1.388260948e-01  3.615403971e-01 -6.675969559e-03  1.655266335e-02 -2.237440962e-02
            -1.437468751e-01  2.312701294e-01  3.558268284e-01 -8.113335490e-03 -5.176599709e-01 -6.990436385e-01  1.507011711e-04 -1.455778476e-02
             1.394914068e-02  1.220995105e-04  1.096799523e-02 -1.527617584e-02  3.752801556e-03 -3.826363457e-03 -1.018661645e-01  9.553702447e-01
6.850000000  1.468136416e-01 -4.793938846e-01  6.338046209e-01  4.589680239e-01 -1.332557536e-01  2.392095485e-01  1.630194998e-02  3.019572396e-03
             6.371270673e-01  4.549444399e-01  3.999440464e-01 -1.661734941e-01  3.599722136e-01 -2.738855217e-02  1.472134033e-02 -2.571618581e-02
            -1.382326984e-01  2.379370787e-01  3.543691697e-01 -2.861619960e-02 -5.353450732e-01 -6.844965557e-01 -4.892894082e-04 -1.640410986e-02
             1.413848506e-02  2.754798073e-03  9.594429526e-03 -1.816474146e-02  3.730175089e-03 -5.657849033e-03 -3.934806023e-02  9.593852757e-01
6.900000000  1.270534170e-01 -4.778023217e-01  6.616589144e-01  4.233783531e-01 -1.273165914e-01  2.455604125e-01  1.664618936e-02  5.087865681e-03
             6.647053803e-01  4.190762528e-01  3.815303593e-01 -1.923476805e-01  3.572573257e-01 -4.810651336e-02  1.252911871e-02 -2.865189289e-02
            -1.324636021e-01  2.444450914e-01  3.517837307e-01 -4.916555761e-02 -5.526238619e-01 -6.694136506e-01 -1.464513182e-03 -1.838163760e-02
             1.456390388e-02  5.090728416e-03  7.899973437e-03 -2.067571437e-02  3.399698683e-03 -7.646391984e-03  2.361601492e-02  9.592260090e-01
6.950000000  1.079659974e-01 -4.755285400e-01  6.874504893e-01  3.857847002e-01 -1.211127347e-01  2.517591498e-01  1.708842515e-02  6.872554865e-03
             6.902436059e-01  3.812159443e-01  3.613509873e-01 -2.172281721e-01  3.533868431e-01 -6.877517658e-02  1.004199286e-02 -3.115985837e-02
            -1.264646925e-01  2.507899222e-01  3.480483635e-01 -6.970645161e-02 -5.694856095e-01 -6.537920875e-01 -2.798367445e-03 -2.044357995e-02
             1.517348771e-02  7.105440191e-03  5.950228588e-03 -2.279078035e-02  2.742457904e-03 -9.760353138e-03  8.683756791e-02  9.548335842e-01
7.000000000  8.954182896e-02 -4.726839284e-01  7.110211079e-01  3.462995870e-01 -1.146560017e-01  2.577841179e-01  1.759245732e-02  8.391692698e-03
             7.135717857e-01  3.414503015e-01  3.394801462e-01 -2.406934685e-01  3.483516324e-01 -8.934283229e-02  7.325521330e-03 -3.322543033e-02
            -1.202578536e-01  2.569744074e-01  3.431434890e-01 -9.018166024e-02 -5.859223624e-01 -6.376270399e-01 -4.506530299e-03 -2.254138117e-02
             1.590533166e-02  8.784466398e-03  3.810316561e-03 -2.449916748e-02  1.738980008e-03 -1.196765615e-02  1.501238716e-01  9.461374913e-01
7.050000000  7.175146000e-02 -4.693643537e-01  7.322173196e-01  3.050491983e-01 -1.079682217e-01  2.636157443e-01  1.812737073e-02  9.660672329e-03
             7.345126808e-01  2.998901675e-01  3.160075230e-01 -2.626247659e-01  3.421409461e-01 -1.097573190e-01  4.444811746e-03 -3.484054726e-02
            -1.138618294e-01  2.630055293e-01  3.370527164e-01 -1.105307316e-01 -6.019242501e-01 -6.209146721e-01 -6.597961462e-03 -2.462745673e-02
             1.669203335e-02  1.012769517e-02  1.544553387e-03 -2.579731684e-02  3.689106186e-04 -1.423415298e-02  2.132681423e-01  9.330546677e-01
7.100000000  5.455055913e-02 -4.656453053e-01  7.508930442e-01  2.621688223e-01 -1.010776870e-01  2.692418035e-01  1.866355139e-02  1.069162661e-02
             7.528909737e-01  2.566703239e-01  2.910354926e-01 -2.829111669e-01  3.347406914e-01 -1.299659832e-01  1.464430926e-03 -3.600367071e-02
            -1.072895726e-01  2.688932554e-01  3.297614883e-01 -1.306929045e-01 -6.174841905e-01 -6.036469546e-01 -9.077309651e-03 -2.665669419e-02
             1.746663773e-02  1.115097602e-02 -7.838914937e-04 -2.668873143e-02 -1.388565389e-03 -1.652196981e-02  2.760437455e-01  9.154912222e-01
7.150000000  3.789476540e-02 -4.615827614e-01  7.669055531e-01  2.178085138e-01 -9.401908394e-02  2.746589655e-01  1.916912194e-02  1.149538702e-02
             7.685371765e-01  2.119558991e-01  2.646796946e-01 -3.014522690e-01  3.261350837e-01 -1.499099672e-01 -1.551408573e-03 -3.672000657e-02
            -1.005519556e-01  2.746469402e-01  3.212575428e-01 -1.506040758e-01 -6.325895735e-01 -5.858172939e-01 -1.194736368e-02 -2.858641033e-02
             1.816837985e-02  1.188510410e-02 -3.113084228e-03 -2.718404780e-02 -3.553364156e-03 -1.878820631e-02  3.381937663e-01  8.933489214e-01
7.166666667  3.245527407e-02 -4.601592469e-01  7.716281137e-01  2.027187620e-01 -9.163406203e-02  2.764195682e-01  1.932481165e-02  1.171485985e-02
             7.731189663e-01  1.967493524e-01  2.556071618e-01 -3.072295132e-01  3.229952773e-01 -1.564888967e-01 -2.553627522e-03 -3.686143464e-02
            -9.826988715e-02  2.765368309e-01  3.181508790e-01 -1.571748128e-01 -6.375231457e-01 -5.797458152e-01 -1.299143279e-02 -2.920029175e-02
             1.837712968e-02  1.207256315e-02 -3.879222479e-03 -2.726402402e-02 -4.368630910e-03 -1.953058940e-02  3.587231956e-01  8.849334639e-01
7.200000000  2.173896342e-02 -4.572159310e-01  7.801198325e-01  1.721248751e-01 -8.682453072e-02  2.798757001e-01  1.960842443e-02  1.208463831e-02
             7.812990902e-01  1.659310068e-01  2.370605014e-01 -3.181612280e-01  3.163057491e-01 -1.695265214e-01 -4.539421373e-03 -3.700203332e-02
            -9.365443541e-02  2.802757321e-01  3.115276405e-01 -1.702006037e-01 -6.472315278e-01 -5.674105285e-01 -1.521138998e-02 -3.037462965e-02
             1.874740061e-02  1.237207551e-02 -5.382929936e-03 -2.730129540e-02 -6.142974298e-03 -2.098429392e-02  3.994310338e-01  8.665309503e-01
7.250000000  6.046821107e-03 -4.525745954e-01  7.904051195e-01  1.252880502e-01 -7.952270499e-02  2.849098622e-01  1.994241580e-02  1.247779708e-02
             7.910431370e-01  1.187996816e-01  2.083023440e-01 -3.329636172e-01  3.052353264e-01 -1.887444871e-01 -7.437661604e-03 -3.687008961e-02
            -8.660216395e-02  2.857865484e-01  3.005584445e-01 -1.894148856e-01 -6.613962770e-01 -5.484092889e-01 -1.887369747e-02 -3.197754698e-02
             1.916700161e-02  1.266021323e-02 -7.535653936e-03 -2.706629135e-02 -9.170535524e-03 -2.305613180e-02  4.594329042e-01  8.349513277e-01
7.300000000 -9.208717115e-03 -4.476863924e-01  7.976360846e-01  7.748451858e-02 -7.213651187e-02  2.897861590e-01  2.013117592e-02  1.270191123e-02
             7.976567965e-01  7.078115421e-02  1.785314414e-01 -3.457955791e-01  2.929105512e-01 -2.074838090e-01 -1.018646190e-02 -3.635294940e-02
            -7.940256575e-02  2.911847092e-01  2.883373035e-01 -2.081735086e-01 -6.750632643e-01 -5.287955929e-01 -2.293873634e-02 -3.334686936e-02
             1.940346050e-02  1.279894560e-02 -9.516705602e-03 -2.651304632e-02 -1.264327338e-02 -2.494494903e-02  5.178414865e-01  7.985434726e-01
7.350000000 -2.405416738e-02 -4.425815188e-01  8.016965826e-01  2.891162950e-02 -6.467844222e-02  2.945334598e-01  2.013775972e-02  1.279358375e-02
             8.010498223e-01  2.209728968e-02  1.478710713e-01 -3.566019853e-01  2.793222756e-01 -2.256589783e-01 -1.272997299e-02 -3.548814149e-02
            -7.206337973e-02  2.964763222e-01  2.748510326e-01 -2.263983222e-01 -6.882108295e-01 -5.085450100e-01 -2.740910488e-02 -3.442768819e-02
             1.944371742e-02  1.283433221e-02 -1.127616828e-02 -2.568397027e-02 -1.656173507e-02 -2.658847883e-02  5.742688753e-01  7.572646481e-01
7.400000000 -3.851455632e-02 -4.372968855e-01  8.024800894e-01 -2.021174885e-02 -5.715630685e-02  2.991807671e-01  1.993175966e-02  1.279828780e-02
             8.011493051e-01 -2.702171235e-02  1.164470629e-01 -3.653332292e-01  2.644703876e-01 -2.431769679e-01 -1.501733415e-02 -3.432208362e-02
            -6.459834840e-02  3.016697014e-01  2.600910283e-01 -2.440018468e-01 -7.008066925e-01 -4.876376010e-01 -3.228212458e-02 -3.515803856e-02
             1.928124524e-02  1.280682917e-02 -1.277000056e-02 -2.462996563e-02 -2.091920268e-02 -2.792238319e-02  6.282957385e-01  7.111043821e-01
7.433333333 -4.795945026e-02 -4.336940300e-01  8.011358661e-01 -5.315442580e-02 -5.210570103e-02  3.022372886e-01  1.966556985e-02  1.277833986e-02
             7.993569375e-01 -5.989855949e-02  9.513452635e-02 -3.699791489e-01  2.538693862e-01 -2.544438853e-01 -1.637797466e-02 -3.340415658e-02
            -5.955817082e-02  3.050840488e-01  2.495400232e-01 -2.553467079e-01 -7.088817450e-01 -4.733214468e-01 -3.574969147e-02 -3.541659697e-02
             1.905826274e-02  1.277073545e-02 -1.360007421e-02 -2.383115268e-02 -2.406172972e-02 -2.860726857e-02  6.627620252e-01  6.776280360e-01
7.450000000 -5.262727569e-02 -4.318736239e-01  7.998946916e-01 -6.965535985e-02 -4.957032786e-02  3.037559572e-01  1.949223015e-02  1.276746867e-02
             7.978975275e-01 -7.634914423e-02  8.438433099e-02 -3.719449586e-01  2.483609004e-01 -2.599425355e-01 -1.700467631e-02 -3.290976925e-02
            -5.702163872e-02  3.067788958e-01  2.440517772e-01 -2.608904302e-01 -7.128169775e-01 -4.660491431e-01 -3.754713812e-02 -3.546945870e-02
             1.891181562e-02  1.275087827e-02 -1.396196142e-02 -2.341005525e-02 -2.570222098e-02 -2.888110096e-02  6.794777504e-01  6.600850401e-01
7.500000000 -6.644299590e-02 -4.263532924e-01  7.938649380e-01 -1.191718159e-01 -4.191933347e-02  3.082850508e-01  1.880856890e-02  1.275525702e-02
             7.912470439e-01 -1.256541898e-01  5.181230862e-02 -3.763979101e-01  2.310080663e-01 -2.758574237e-01 -1.865660732e-02 -3.131426245e-02
            -4.934957237e-02  3.118256620e-01  2.267352527e-01 -2.769624491e-01 -7.242004599e-01 -4.437585670e-01 -4.318286386e-02 -3.528921316e-02
             1.832963652e-02  1.269707336e-02 -1.482523614e-02 -2.209079898e-02 -3.089087381e-02 -2.939840370e-02  7.273442820e-01  6.042682554e-01
7.550000000 -8.002919763e-02 -4.207701833e-01  7.843349335e-01 -1.684993855e-01 -3.420262279e-02  3.127939126e-01  1.787972903e-02  1.281519825e-02
             7.811587934e-01 -1.746999012e-01  1.886583300e-02 -3.786599221e-01  2.124332300e-01 -2.908216411e-01 -1.994801248e-02 -2.960581791e-02
            -4.159736122e-02  3.168414249e-01  2.081521784e-01 -2.921098307e-01 -7.349098633e-01 -4.207473442e-01 -4.915619123e-02 -3.454298879e-02
             1.752521392e-02  1.267572836e-02 -1.534431866e-02 -2.074525798e-02 -3.645915693e-02 -2.940725922e-02  7.713995517e-01  5.437598879e-01
7.600000000 -9.347378036e-02 -4.151417839e-01  7.712688020e-01 -2.173715914e-01 -2.641739275e-02  3.173107689e-01  1.671218446e-02  1.299796930e-02
             7.676005379e-01 -2.232462984e-01 -1.431896098e-02 -3.787087869e-01  1.926605595e-01 -3.047346844e-01 -2.086609981e-02 -2.786050061e-02
            -3.377198109e-02  3.218676580e-01  1.883196249e-01 -3.062206063e-01 -7.448970847e-01 -3.969920502e-01 -5.542245257e-02 -3.315712547e-02
             1.648543596e-02  1.272095660e-02 -1.551705237e-02 -1.945141314e-02 -4.237509713e-02 -2.883892818e-02  8.111255759e-01  4.787126726e-01
7.650000000 -1.068736004e-01 -4.094620548e-01  7.546523549e-01 -2.655088983e-01 -1.856306754e-02  3.218697084e-01  1.531711324e-02  1.335119036e-02
             7.505500416e-01 -2.710356623e-01 -4.760092962e-02 -3.765344259e-01  1.717208169e-01 -3.174919732e-01 -2.141180962e-02 -2.615865917e-02
            -2.587370935e-02  3.269552740e-01  1.672657123e-01 -3.191774637e-01 -7.541047627e-01 -3.724742607e-01 -6.192582679e-02 -3.106103224e-02
             1.519551408e-02  1.287473481e-02 -1.535617255e-02 -1.829032399e-02 -4.859951016e-02 -2.762254690e-02  8.459806204e-01  4.093404294e-01
7.700000000 -1.203310547e-01 -4.036949161e-01  7.344922248e-01 -3.126276540e-01 -1.063491192e-02  3.265132358e-01  1.370839468e-02  1.392038788e-02
             7.299984255e-01 -3.177966498e-01 -8.084126225e-02 -3.721406160e-01  1.496484789e-01 -3.289845206e-01 -2.160173891e-02 -2.458260233e-02
            -1.788915188e-02  3.321624594e-01  1.450264423e-01 -3.308594796e-01 -7.624704321e-01 -3.471729971e-01 -6.860074420e-02 -2.818778632e-02
             1.364292374e-02  1.318924419e-02 -1.489109998e-02 -1.734348768e-02 -5.508456691e-02 -2.568435911e-02  8.754058861e-01  3.359246830e-01
7.750000000 -1.339413625e-01 -3.977726264e-01  7.108169034e-01 -3.584365747e-01 -2.621940512e-03  3.312939634e-01  1.190169193e-02  1.475128670e-02
             7.059572020e-01 -3.632387951e-01 -1.139051605e-01 -3.655447901e-01  1.264852115e-01 -3.390962691e-01 -2.146941392e-02 -2.321390281e-02
            -9.790948074e-03  3.375519540e-01  1.216479491e-01 -3.411410561e-01 -7.699216762e-01 -3.210694399e-01 -7.537243883e-02 -2.447449495e-02
             1.182204212e-02  1.372753262e-02 -1.416911611e-02 -1.668975917e-02 -6.177129895e-02 -2.294811740e-02  8.988323632e-01  2.588288370e-01
7.800000000 -1.477853877e-01 -3.915970773e-01  6.836755407e-01 -4.026412505e-01  5.500277227e-03  3.362736472e-01  9.915333224e-03  1.589207284e-02
             6.784630929e-01 -4.070581655e-01 -1.466684483e-01 -3.567757635e-01  1.022803926e-01 -3.477030566e-01 -2.106643155e-02 -2.212991457e-02
            -1.534110127e-03  3.431871955e-01  9.718523640e-02 -3.498914848e-01 -7.763769673e-01 -2.941433487e-01 -8.215698886e-02 -1.986161504e-02
             9.738867934e-03  1.456192348e-02 -1.325621817e-02 -1.640152584e-02 -6.858708699e-02 -1.933599552e-02  9.156940464e-01  1.785058185e-01
9.500000000 -1.675560088e-01 -1.216770773e-04 -2.410855487e-01 -1.084333200e-01  8.297248991e-01 -5.520463936e-02  2.651463978e-01  3.022202968e-02
            -2.458752080e-01 -1.116099899e-01 -8.943327026e-02  8.754502604e-01 -9.247366677e-03  1.818567313e-01 -2.252750843e-03  6.450078016e-02
             8.449189057e-01 -5.746040585e-02 -5.644804203e-03  1.879989666e-01  1.698079085e-02  9.334789211e-02  2.914472914e-01  1.507465692e-02
             2.658218258e-01  2.755023966e-02  5.831513022e-03  6.638205345e-02  2.860069850e-01  9.345199893e-03 -8.089228563e-01 -6.779658388e-02
9.550000000 -1.711387569e-01 -7.736523275e-03 -2.291792826e-01 -9.847502006e-02  8.287497725e-01 -1.146122616e-01  2.685423517e-01  1.162294926e-02
            -2.346281069e-01 -1.013430396e-01 -3.011905232e-02  8.881114948e-01  1.286081893e-02  1.706123681e-01  4.577380292e-03  6.105644207e-02
             8.435359365e-01 -1.178363331e-01  1.699956602e-02  1.757928027e-01  2.764313112e-02  6.223620107e-02  2.934334958e-01 -1.419304234e-02
             2.683601742e-01  8.591138406e-03  1.296548186e-02  6.188757082e-02  2.867756542e-01 -1.965270178e-02 -8.113226113e-01 -7.720918445e-03
9.600000000 -1.775264615e-01 -1.376741971e-02 -2.182977906e-01 -9.061953674e-02  8.223746729e-01 -1.734507247e-01  2.699233800e-01 -6.524015973e-03
            -2.243659477e-01 -9.309389122e-02  2.916269740e-02  8.956980483e-01  3.238353856e-02  1.573336028e-01  1.047239513e-02  5.689663013e-02
             8.366875422e-01 -1.775593695e-01  3.693194463e-02  1.615078820e-01  3.499468394e-02  3.199219622e-02  2.923534049e-01 -4.319838470e-02
             2.688245542e-01 -9.741583820e-03  1.898464793e-02  5.666299149e-02  2.844448430e-01 -4.820983623e-02 -8.095883719e-01  5.128909140e-02
9.650000000 -1.863065895e-01 -1.769627418e-02 -2.086157130e-01 -8.444837320e-02  8.108713836e-01 -2.311630385e-01  2.695132621e-01 -2.393329053e-02
            -2.152587461e-01 -8.644906919e-02  8.790118559e-02  8.984693940e-01  4.923898815e-02  1.425051291e-01  1.539273092e-02  5.223656062e-02
             8.246667778e-01 -2.360686465e-01  5.407069259e-02  1.456450623e-01  3.942351122e-02  2.953218741e-03  2.883775098e-01 -7.161821494e-02
             2.674709249e-01 -2.715856688e-02  2.385947493e-02  5.095497892e-02  2.792183559e-01 -7.599906930e-02 -8.038992692e-01  1.090614694e-01
9.700000000 -1.969918767e-01 -1.910455056e-02 -2.002151460e-01 -7.955963465e-02  7.945572576e-01 -2.872854874e-01  2.675719125e-01 -4.038413816e-02
            -2.073825077e-01 -8.100938253e-02  1.456734112e-01  8.967293841e-01  6.342778536e-02  1.265749368e-01  1.934303374e-02  4.727557880e-02
             8.078118915e-01 -2.929040136e-01  6.841774544e-02  1.286674272e-01  4.133377486e-02 -2.463851614e-02  2.816997547e-01 -9.918372299e-02
             2.645898585e-01 -4.343983868e-02  2.760934302e-02  4.498927840e-02  2.713217221e-01 -1.027556160e-01 -7.944176256e-01  1.654392188e-01
9.750000000 -2.090442144e-01 -1.768009775e-02 -1.931004312e-01 -7.558625127e-02  7.737746856e-01 -3.414338282e-01  2.643798566e-01 -5.571764834e-02
            -2.007328155e-01 -7.641013137e-02  2.021334991e-01  8.908067388e-01  7.501391000e-02  1.099445770e-01  2.236237162e-02  4.219082655e-02
             7.864827575e-01 -3.476914300e-01  8.003945085e-02  1.109911027e-01  4.112597136e-02 -5.062584254e-02  2.725259906e-01 -1.256736048e-01
             2.604912742e-01 -5.843108697e-02  3.029117473e-02  3.896415973e-02  2.609883385e-01 -1.282688698e-01 -7.812941812e-01  2.202652590e-01
9.800000000 -2.218962078e-01 -1.321650825e-02 -1.872148142e-01 -7.220457122e-02  7.488723152e-01 -3.932981514e-01  2.602249854e-01 -6.983479419e-02
            -1.952415857e-01 -7.233185538e-02  2.570084775e-01  8.810379433e-01  8.410796223e-02  9.296441644e-02  2.451540357e-02  3.713393598e-02
             7.610395480e-01 -4.001358803e-01  8.905015663e-02  9.298076691e-02  3.918338756e-02 -7.492488182e-02  2.610643973e-01 -1.509101388e-01
             2.554914834e-01 -7.204164432e-02  3.198917264e-02  3.304716518e-02  2.484483237e-01 -1.523762234e-01 -7.646731318e-01  2.733827936e-01
9.850000000 -2.349697574e-01 -5.608523561e-03 -1.824562375e-01 -6.913761731e-02  7.201880304e-01 -4.426371494e-01  2.553913995e-01 -8.269318848e-02
            -1.907941131e-01 -6.850529091e-02  3.100939506e-01  8.677521611e-01  9.085222522e-02  7.593298890e-02  2.588464404e-02  3.223006759e-02
             7.318242723e-01 -4.500127479e-01  9.559772474e-02  7.494885019e-02  3.586270583e-02 -9.751351447e-02  2.475169948e-01 -1.747549517e-01
             2.499019909e-01 -8.424165609e-02  3.280585423e-02  2.737448064e-02  2.339195950e-01 -1.749561699e-01 -7.446940388e-01  3.246393850e-01
9.866666667 -2.392773491e-01 -2.369718777e-03 -1.810979642e-01 -6.814464263e-02  7.098426754e-01 -4.584871742e-01  2.536771160e-01 -8.669902714e-02
            -1.895189040e-01 -6.724708546e-02  3.273632124e-01  8.625972661e-01  9.260554121e-02  7.028912852e-02  2.618282972e-02  3.064741772e-02
             7.213037640e-01 -4.660353706e-01  9.726155765e-02  6.898038467e-02  3.450690118e-02 -1.046662348e-01  2.425713427e-01 -1.823742910e-01
             2.479600462e-01 -8.799716107e-02  3.290159314e-02  2.555712984e-02  2.286703662e-01 -1.821266283e-01 -7.373125676e-01  3.412841474e-01
9.900000000 -2.476915068e-01  5.152136162e-03 -1.786903399e-01 -6.615841146e-02  6.880450217e-01 -4.892551164e-01  2.501528484e-01 -9.429707252e-02
            -1.872440845e-01 -6.471562008e-02  3.612348012e-01  8.512658802e-01  9.540727078e-02  5.910124179e-02  2.656366786e-02  2.757908515e-02
             6.991570537e-01 -4.971413323e-01  9.985045091e-02  5.715934580e-02  3.149025778e-02 -1.184177207e-01  2.320763188e-01 -1.970988671e-01
             2.440223347e-01 -9.505277243e-02  3.285437483e-02  2.205275888e-02  2.176052658e-01 -1.959159729e-01 -7.214986120e-01  3.738780842e-01
9.950000000 -2.595054859e-01  1.898546569e-02 -1.757622617e-01 -6.308620979e-02  6.527418318e-01 -5.329988922e-01  2.447668242e-01 -1.046946142e-01
            -1.844276022e-01 -6.079826632e-02  4.103234860e-01  8.318741840e-01  9.794318298e-02  4.267660627e-02  2.665248419e-02  2.325681078e-02
             6.633276939e-01 -5.413790498e-01  1.019883006e-01  3.983107849e-02  2.635938820e-02 -1.377035238e-01  2.149201252e-01 -2.178583388e-01
             2.381328323e-01 -1.045457782e-01  3.225317695e-02  1.716095831e-02  1.996899144e-01 -2.151863010e-01 -6.952288805e-01  4.209469625e-01
10.000000000 -2.698832907e-01  3.573022050e-02 -1.735054878e-01 -5.978450881e-02  6.145524383e-01 -5.737428806e-01  2.394718351e-01 -1.139714486e-01
             -1.821738089e-01 -5.663548273e-02  4.572882084e-01  8.098491086e-01  9.863258616e-02  2.682906136e-02  2.625360943e-02  1.931691199e-02
              6.245985215e-01 -5.826045699e-01  1.021955025e-01  2.314302670e-02  2.073047024e-02 -1.554686797e-01  1.962101331e-01 -2.369675199e-01
              2.324901076e-01 -1.128338603e-01  3.112163626e-02  1.275293843e-02  1.803403314e-01 -2.327127217e-01 -6.660287074e-01  4.656968489e-01
10.050000000 -2.783326712e-01  5.515031237e-02 -1.717487223e-01 -5.615902052e-02  5.737331827e-01 -6.113740669e-01  2.344867933e-01 -1.222445746e-01
             -1.803126717e-01 -5.215221321e-02  5.020799782e-01  7.854430124e-01  9.764639135e-02  1.169744925e-02  2.546895091e-02  1.579282278e-02
              5.832146396e-01 -6.207024080e-01  1.006555110e-01  7.240136644e-03  1.483313301e-02 -1.718354397e-01  1.760940003e-01 -2.543702826e-01
              2.273246897e-01 -1.200653598e-01  2.957674949e-02  8.860055239e-03  1.597092957e-01 -2.484482848e-01 -6.340479102e-01  5.079770872e-01
10.100000000 -2.844040084e-01  7.694465442e-02 -1.703222866e-01 -5.215161042e-02  5.305161794e-01 -6.457951499e-01  2.300071905e-01 -1.296639986e-01
             -1.786810670e-01 -4.730750693e-02  5.446775746e-01  7.588819896e-01  9.515138341e-02 -2.607123972e-03  2.439737107e-02  1.269886892e-02
              5.394001508e-01 -6.555674320e-01  9.754752222e-02 -7.763474790e-03  8.863616795e-03 -1.869488657e-01  1.547027970e-01 -2.700177844e-01
              2.228359318e-01 -1.264231904e-01  2.773050107e-02  5.492795728e-03  1.379343499e-01 -2.623520398e-01 -5.994344188e-01  5.476441756e-01
10.133333333 -2.869303017e-01  9.261712047e-02 -1.694735639e-01 -4.925523009e-02  5.004829461e-01 -6.669109857e-01  2.273877503e-01 -1.342222979e-01
             -1.776446637e-01 -4.387107098e-02  5.718521646e-01  7.400810113e-01  9.272961760e-02 -1.163934128e-02  2.356989320e-02  1.087451379e-02
              5.089487956e-01 -6.769612484e-01  9.468988025e-02 -1.722132469e-02  4.927121541e-03 -1.964072814e-01  1.397937482e-01 -2.794499189e-01
              2.203037578e-01 -1.302785621e-01  2.638418793e-02  3.536833906e-03  1.228462670e-01 -2.705832555e-01 -5.749720487e-01  5.725647715e-01
10.150000000 -2.876964003e-01  1.007520741e-01 -1.690623481e-01 -4.773943673e-02  4.851238123e-01 -6.769086468e-01  2.262053708e-01 -1.364067458e-01
             -1.771256902e-01 -4.209180075e-02  5.850723250e-01  7.303741517e-01  9.130863643e-02 -1.599583041e-02  2.313203520e-02  1.003234448e-02
              4.933748165e-01 -6.870912303e-01  9.304392481e-02 -2.177863500e-02  2.987984382e-03 -2.009703388e-01  1.321575706e-01 -2.838604359e-01
              2.191919981e-01 -1.321163102e-01  2.568730812e-02  2.643412703e-03  1.151446011e-01 -2.743828426e-01 -5.623423419e-01  5.845514310e-01
10.200000000 -2.878620831e-01  1.261594571e-01 -1.678153576e-01 -4.293012981e-02  4.377681025e-01 -7.046186602e-01  2.232265386e-01 -1.426776279e-01
             -1.755053267e-01 -3.652089592e-02  6.232700316e-01  7.001067847e-01  8.627257519e-02 -2.839960343e-02  2.175820139e-02  7.775139523e-03
              4.453539158e-01 -7.151670142e-01  8.730859612e-02 -3.473785913e-02 -2.659792060e-03 -2.140753817e-01  1.085708881e-01 -2.958459084e-01
              2.165268273e-01 -1.373777679e-01  2.354182397e-02  2.879360891e-04  9.146171049e-02 -2.844986220e-01 -5.229290993e-01  6.185518150e-01
10.250000000 -2.846096311e-01  1.527087656e-01 -1.664416757e-01 -3.775762671e-02  3.886517283e-01 -7.288296583e-01  2.211842949e-01 -1.487083715e-01
             -1.736920360e-01 -3.063175981e-02  6.592899677e-01  6.682442537e-01  8.018990867e-02 -3.976659340e-02  2.035116971e-02  5.895877305e-03
              3.955482364e-01 -7.396913179e-01  8.049550583e-02 -4.659179767e-02 -7.979565078e-03 -2.264503696e-01  8.404964100e-02 -3.059169112e-01
              2.149377838e-01 -1.424617910e-01  2.137696085e-02 -1.611337363e-03  6.700152011e-02 -2.926548707e-01 -4.813549121e-01  6.494971308e-01
10.300000000 -2.777081927e-01  1.799008744e-01 -1.648180969e-01 -3.228011020e-02  3.379811295e-01 -7.494392884e-01  2.201585607e-01 -1.547523425e-01
             -1.715716363e-01 -2.448166144e-02  6.931544791e-01  6.349354943e-01  7.319944012e-02 -5.005863790e-02  1.897472367e-02  4.352736559e-03
              3.441750424e-01 -7.605587334e-01  7.274880554e-02 -5.730468051e-02 -1.290154163e-02 -2.382867374e-01  5.870283783e-02 -3.140086637e-01
              2.144863035e-01 -1.476377679e-01  1.926253275e-02 -3.102704114e-03  4.188024242e-02 -2.988022681e-01 -4.377932274e-01  6.772318751e-01
10.350000000 -2.669894281e-01  2.072022530e-01 -1.628404510e-01 -2.657422184e-02  2.859606027e-01 -7.663426586e-01  2.201888484e-01 -1.610841395e-01
             -1.690448840e-01 -1.814421777e-02  7.248933350e-01  6.003069066e-01  6.543109037e-02 -5.924958612e-02  1.768022689e-02  3.095850900e-03
              2.914490563e-01 -7.776669019e-01  6.420241217e-02 -6.685194227e-02 -1.738957302e-02 -2.497788663e-01  3.264183078e-02 -3.200501293e-01
              2.151940315e-01 -1.531903326e-01  1.725440737e-02 -4.242408122e-03  1.621368109e-02 -3.028868203e-01 -3.924269471e-01  7.015976951e-01
10.400000000 -2.523518696e-01  2.340478609e-01 -1.604248971e-01 -2.073216337e-02  2.328016431e-01 -7.794280843e-01  2.212712903e-01 -1.679937118e-01
             -1.660285279e-01 -1.170884370e-02  7.545361953e-01  5.644673855e-01  5.700615637e-02 -6.732208336e-02  1.650637273e-02  2.070047364e-03
              2.375889755e-01 -7.909112473e-01  5.498118150e-02 -7.521670500e-02 -2.143802765e-02 -2.611194344e-01  5.986036388e-03 -3.239639074e-01
              2.170418962e-01 -1.594153981e-01  1.539445831e-02 -5.091658500e-03 -9.877625257e-03 -3.048484878e-01 -3.454569379e-01  7.224314695e-01
10.450000000 -2.337668825e-01  2.598443981e-01 -1.575087822e-01 -1.485842248e-02  1.787304447e-01 -7.885761302e-01  2.233555349e-01 -1.757807852e-01
             -1.624570039e-01 -5.279616190e-03  7.821079361e-01  5.275125122e-01  4.803820332e-02 -7.426484369e-02  1.547949870e-02  1.217089887e-03
              1.828229379e-01 -8.001816968e-01  4.520268305e-02 -8.238727453e-02 -2.506909340e-02 -2.724962540e-01 -2.113268286e-02 -3.256675997e-01
              2.199677414e-01 -1.666172061e-01  1.371107758e-02 -5.714186722e-03 -3.626374205e-02 -3.046211530e-01 -2.971087379e-01  7.395670868e-01
10.500000000 -2.112836063e-01  2.839759231e-01 -1.540513533e-01 -9.064756986e-03  1.239835503e-01 -7.936622705e-01  2.263386263e-01 -1.847520699e-01
             -1.582847018e-01  1.028323873e-03  8.076321263e-01  4.895181232e-01  3.863345898e-02 -8.007085040e-02  1.461405183e-02  4.771485666e-04
              1.273833578e-01 -8.053622907e-01  3.497807029e-02 -8.835596327e-02 -2.833601611e-02 -2.840912574e-01 -4.857075486e-02 -3.250753756e-01
              2.238595332e-01 -1.751080569e-01  1.221977050e-02 -6.174584058e-03 -6.280470372e-02 -3.021329777e-01 -2.476282050e-01  7.528412270e-01
12.200000000 -6.027241590e-02  7.745532018e-02 -1.240786587e-01 -1.445994352e-02 -1.680266251e-01  1.039525237e-01 -8.300354186e-01 -2.258564144e-01
             -1.244232134e-01 -1.967296646e-02  1.839067591e-01 -8.506566745e-01 -1.465503970e-02  5.057117255e-02 -3.401727751e-02  1.037206364e-01
             -1.620505990e-01  1.020799893e-01 -3.577979330e-02  6.872100130e-02 -7.438771453e-01 -4.758490196e-01  6.215388899e-03  1.428294927e-01
             -8.173049949e-01 -2.259517956e-01 -2.288053543e-02  1.065969815e-01  4.028327288e-02  1.525762544e-01  1.226509797e-01  6.754481474e-02
12.250000000 -4.978823747e-02  9.787173471e-02 -1.282057005e-01 -1.350436889e-02 -1.513754840e-01  1.014738623e-01 -8.470349506e-01 -1.608293912e-01
             -1.293633337e-01 -1.827070365e-02  1.065848477e-01 -8.519594454e-01 -9.212391482e-03  5.049997208e-02 -2.175302654e-02  1.128357792e-01
             -1.451084448e-01  9.880607372e-02 -2.930813795e-02  7.066559766e-02 -7.660017475e-01 -4.494758056e-01  1.537165000e-02  1.309118617e-01
             -8.339788542e-01 -1.619704366e-01 -1.014871262e-02  1.141376869e-01  4.923846248e-02  1.396791642e-01  1.097761116e-01  7.067995516e-02
12.300000000 -3.584770928e-02  1.160101970e-01 -1.329509568e-01 -1.245131754e-02 -1.360789141e-01  9.819734397e-02 -8.581164851e-01 -9.489739243e-02
             -1.348708147e-01 -1.665068438e-02  2.623166607e-02 -8.450628480e-01 -3.767873404e-03  5.005129653e-02 -7.625488974e-03  1.204337563e-01
             -1.295840465e-01  9.471665638e-02 -2.254482227e-02  7.221724506e-02 -7.863633532e-01 -4.219953052e-01  2.251647047e-02  1.186719403e-01
             -8.448443927e-01 -9.711727466e-02  4.207747528e-03  1.200688770e-01  5.617474471e-02  1.265410994e-01  9.805770029e-02  7.465674540e-02
12.350000000 -1.893503567e-02  1.314160381e-01 -1.384410287e-01 -1.113550902e-02 -1.220271206e-01  9.432325348e-02 -8.633353158e-01 -2.861694929e-02
             -1.410510551e-01 -1.463910529e-02 -5.637277807e-02 -8.288566385e-01  1.677260916e-03  4.920610976e-02  8.215479862e-03  1.261276763e-01
             -1.153663389e-01  9.000020495e-02 -1.546360641e-02  7.331323853e-02 -8.049822962e-01 -3.935274754e-01  2.769766697e-02  1.063608724e-01
             -8.499398118e-01 -3.194772913e-02  2.001593205e-02  1.240394957e-01  6.115485740e-02  1.134116119e-01  8.741678235e-02  7.934399984e-02
12.400000000  4.200880183e-04  1.437208985e-01 -1.447687457e-01 -9.335150212e-03 -1.090882171e-01  9.001316289e-02 -8.627858645e-01  3.748710585e-02
             -1.479668157e-01 -1.201114633e-02 -1.401346437e-01 -8.022185404e-01  7.113258623e-03  4.793673496e-02  2.553630767e-02  1.295205329e-01
             -1.023335387e-01  8.480846544e-02 -8.051717522e-03  7.386882702e-02 -8.218831534e-01 -3.641702763e-01  3.098615286e-02  9.421583672e-02
             -8.493535437e-01  3.299941116e-02  3.702347131e-02  1.256951918e-01  6.426884947e-02  1.005222542e-01  7.777910776e-02  8.465674291e-02
12.450000000  2.165140499e-02  1.526473814e-01 -1.519729660e-01 -6.776439699e-03 -9.711571449e-02  8.538599047e-02 -8.565956841e-01  1.029148640e-01
             -1.556202146e-01 -8.500166940e-03 -2.235869040e-01 -7.640985009e-01  1.251834199e-02  4.620921023e-02  4.400278121e-02  1.302238002e-01
             -9.035780588e-02  7.925853604e-02 -3.189630976e-04  7.377914930e-02 -8.370894138e-01 -3.340050263e-01  3.247450673e-02  8.245921879e-02
             -8.432263724e-01  9.720448364e-02  5.488391210e-02  1.246972747e-01  6.563060271e-02  8.808235168e-02  6.908955075e-02  9.054798250e-02
12.500000000  4.417040086e-02  1.580155112e-01 -1.600170397e-01 -3.144298240e-03 -8.595713027e-02  8.051626306e-02 -8.449227068e-01  1.671907720e-01
             -1.639355782e-01 -3.811983449e-03 -3.048575683e-01 -7.136363188e-01  1.785593501e-02  4.398688372e-02  6.316810019e-02  1.278853862e-01
             -7.930833644e-02  7.343488794e-02  7.693537536e-03  7.292481417e-02 -8.506211954e-01 -3.030947141e-01  3.227638012e-02  7.129686808e-02
             -8.317507748e-01  1.601792039e-01  7.314770301e-02  1.207500832e-01  6.537321028e-02  7.627491416e-02  6.132439622e-02  9.699528541e-02
12.550000000  6.738136781e-02  1.597461465e-01 -1.687687036e-01  1.896410138e-03 -7.546509748e-02  7.543386798e-02 -8.279569897e-01  2.298553234e-01
             -1.727452760e-01  2.352395602e-03 -3.816699654e-01 -6.503103023e-01  2.307218619e-02  4.123545569e-02  8.246803298e-02  1.222265200e-01
             -6.905562174e-02  6.738957521e-02  1.590497066e-02  7.118129895e-02 -8.624909310e-01 -2.714927298e-01  3.052425018e-02  6.091621138e-02
             -8.151672434e-01  2.214713138e-01  9.126064182e-02  1.136361247e-01  6.364148150e-02  6.525513386e-02  5.449492064e-02  1.039831534e-01
12.566666667  7.517139097e-02  1.595157417e-01 -1.718045850e-01  3.947263579e-03 -7.209226751e-02  7.369182789e-02 -8.211629731e-01  2.503101511e-01
             -1.757483436e-01  4.784518419e-03 -4.058396018e-01 -6.263209667e-01  2.477219024e-02  4.019586682e-02  8.881807230e-02  1.195699019e-01
             -6.579324498e-02  6.532979391e-02  1.866616146e-02  7.038185453e-02 -8.660793705e-01 -2.608109132e-01  2.962038141e-02  5.765911027e-02
             -8.085512696e-01  2.414581228e-01  9.715551782e-02  1.105394885e-01  6.276259615e-02  6.177964379e-02  5.243378034e-02  1.064287653e-01
12.600000000  9.070461997e-02  1.578613328e-01 -1.779854528e-01  8.672718827e-03 -6.550706206e-02  7.012867014e-02 -8.059222916e-01  2.904727145e-01
             -1.817816049e-01  1.026991493e-02 -4.514088705e-01 -5.740961315e-01  2.809586661e-02  3.792904721e-02  1.012314926e-01  1.130839904e-01
             -5.947497401e-02  6.114363890e-02  2.419074490e-02  6.843206736e-02 -8.727031088e-01 -2.392363771e-01  2.736782401e-02  5.148391027e-02
             -7.937538144e-01  2.806809359e-01  1.085773469e-01  1.032547880e-01  6.058541391e-02  5.515068211e-02  4.864749117e-02  1.114856120e-01
12.650000000  1.135955355e-01  1.524767688e-01 -1.873097666e-01  1.746515974e-02 -5.597487904e-02  6.455715731e-02 -7.790806847e-01  3.486294702e-01
             -1.906777641e-01  2.016120797e-02 -5.112431987e-01 -4.856224795e-01  3.283971800e-02  3.405717833e-02  1.187059108e-01  1.004536176e-01
             -5.045221300e-02  5.468770227e-02  3.238184347e-02  6.458427752e-02 -8.812510958e-01 -2.063558112e-01  2.297030388e-02  4.314451152e-02
             -7.678145995e-01  3.374607873e-01  1.243885271e-01  8.966088712e-02  5.635311726e-02  4.606603491e-02  4.385236541e-02  1.194505258e-01
12.700000000  1.355630766e-01  1.437880713e-01 -1.962784385e-01  2.846599609e-02 -4.679059084e-02  5.865226179e-02 -7.477348421e-01  4.039423636e-01
             -1.989808580e-01  3.215543707e-02 -5.583216158e-01 -3.862884530e-01  3.720491615e-02  2.963152155e-02  1.341020114e-01  8.452704014e-02
             -4.188915679e-02  4.798433940e-02  4.027075640e-02  5.958531906e-02 -8.881162027e-01 -1.728774954e-01  1.750488994e-02  3.601973709e-02
             -7.376664003e-01  3.915168457e-01  1.379656871e-01  7.309527573e-02  5.108687396e-02  3.808865845e-02  4.018816902e-02  1.277898335e-01
12.750000000  1.561853230e-01  1.320510223e-01 -2.043482507e-01  4.174054295e-02 -3.790768054e-02  5.233427139e-02 -7.122225315e-01  4.560738010e-01
             -2.061780282e-01  4.625955909e-02 -5.900250298e-01 -2.783067800e-01  4.108861341e-02  2.469089502e-02  1.466557893e-01  6.571234876e-02
             -3.370858089e-02  4.097213423e-02  4.762442413e-02  5.343712660e-02 -8.932672505e-01 -1.388202757e-01  1.115153965e-02  3.020866567e-02
             -7.036226570e-01  4.426086687e-01  1.486203577e-01  5.399901890e-02  4.492283048e-02  3.129568232e-02  3.772625996e-02  1.363779932e-01
12.800000000  1.751117946e-01  1.175585666e-01 -2.109381799e-01  5.719478417e-02 -2.930928954e-02  4.551985740e-02 -6.729108890e-01  5.047359916e-01
             -2.117355422e-01  6.233350336e-02 -6.042402363e-01 -1.646610901e-01  4.439318165e-02  1.930406110e-02  1.556990850e-01  4.463355518e-02
             -2.585921701e-02  3.357047674e-02  5.420181909e-02  4.620635458e-02 -8.966593069e-01 -1.042070869e-01  4.093503960e-03  2.578919530e-02
             -6.659856827e-01  4.905343192e-01  1.557693659e-01  3.300746233e-02  3.799338635e-02  2.576056070e-02  3.651142743e-02  1.450570527e-01
12.833333333  1.866470370e-01  1.065178492e-01 -2.142278565e-01  6.858440902e-02 -2.373767082e-02  4.066135650e-02 -6.447783305e-01  5.351369206e-01
             -2.142765368e-01  7.400489050e-02 -6.032991700e-01 -8.750602308e-02  4.623330593e-02  1.551176881e-02  1.595220798e-01  2.971673050e-02
             -2.079784284e-02  2.837396601e-02  5.804238616e-02  4.084770240e-02 -8.979148020e-01 -8.083161247e-02 -9.120909734e-04  2.364562312e-02
             -6.390370466e-01  5.206418463e-01  1.583751599e-01  1.834806279e-02  3.301472383e-02  2.280528011e-02  3.640104228e-02  1.508062618e-01
12.850000000  1.920629499e-01  1.006180266e-01 -2.154833859e-01  7.456267095e-02 -2.100231696e-02  3.812891627e-02 -6.301772586e-01  5.497037311e-01
             -2.151463833e-01  8.008294949e-02 -5.996226507e-01 -4.894389529e-02  4.703716480e-02  1.356801224e-02  1.607321415e-01  2.210024566e-02
             -1.831838214e-02  2.568610661e-02  5.977639800e-02  3.802665670e-02 -8.982331895e-01 -6.905805772e-02 -3.484443639e-03  2.281985151e-02
             -6.250358371e-01  5.351244416e-01  1.589996242e-01  1.091669087e-02  3.043309565e-02  2.155628845e-02  3.655307766e-02  1.536492881e-01
12.900000000  2.068163189e-01  8.153321486e-02 -2.174945844e-01  9.341189250e-02 -1.301136266e-02  3.008683799e-02 -5.843933134e-01  5.908093752e-01
             -2.159814966e-01  9.906696657e-02 -5.757930458e-01  6.489390295e-02  4.896513989e-02  7.602690066e-03  1.614828720e-01 -9.479302496e-04
             -1.109370097e-02  1.721954813e-02  6.415800734e-02  2.909325548e-02 -8.979145707e-01 -3.339998598e-02 -1.139725066e-02  2.134198767e-02
             -5.810325244e-01  5.762246592e-01  1.581187577e-01 -1.137188492e-02  2.238506553e-02  1.875589306e-02  3.781797432e-02  1.619719018e-01
12.950000000  2.191897680e-01  6.059417499e-02 -2.166125918e-01  1.131737729e-01 -5.373328514e-03  2.132317167e-02 -5.359067802e-01  6.279341047e-01
             -2.139364279e-01  1.187256909e-01 -5.334333540e-01  1.728665689e-01  5.015545724e-02  1.541559415e-03  1.579437371e-01 -2.351874613e-02
             -4.222744923e-03  8.071657867e-03  6.721220144e-02  1.964898061e-02 -8.956136540e-01  2.731169515e-03 -1.945946439e-02  2.138140335e-02
             -5.342175473e-01  6.136841785e-01  1.531837483e-01 -3.292542357e-02  1.400693576e-02  1.742885598e-02  4.023226504e-02  1.698518191e-01
13.000000000  2.290248804e-01  3.807566106e-02 -2.126478921e-01  1.331936005e-01  1.864920834e-03  1.176751370e-02 -4.850249300e-01  6.609930228e-01
             -2.088653507e-01  1.384249646e-01 -4.742530148e-01  2.713002747e-01  5.062398842e-02 -4.480803490e-03  1.503776037e-01 -4.465564313e-02
              2.228684066e-03 -1.850594030e-03  6.887322872e-02  9.963496378e-03 -8.912240187e-01  3.929275038e-02 -2.748434907e-02  2.294925364e-02
             -4.848191725e-01  6.473495891e-01  1.445005736e-01 -5.286127568e-02  5.474423794e-03  1.763474583e-02  4.369100701e-02  1.771372117e-01
13.050000000  2.361691960e-01  1.424631249e-02 -2.056004641e-01  1.527894941e-01  8.644324898e-03  1.344728270e-03 -4.320163323e-01  6.899078249e-01
             -2.007993488e-01  1.575079216e-01 -4.008355075e-01  3.571346583e-01  5.042302341e-02 -1.034113300e-02  1.392912531e-01 -6.351985242e-02
              8.169004284e-03 -1.262942067e-02  6.914826599e-02  3.104820209e-04 -8.846245559e-01  7.622120972e-02 -3.528330159e-02  2.604161025e-02
             -4.330672445e-01  6.770557222e-01  1.325947910e-01 -7.042085060e-02 -3.018997650e-03  1.941604117e-02  4.806417197e-02  1.837031054e-01
13.100000000  2.404702686e-01 -1.061728600e-02 -1.956541361e-01  1.713161999e-01  1.488776214e-02 -1.002788672e-02 -3.771143486e-01  7.145873857e-01
             -1.899432970e-01  1.753522105e-01 -3.163824598e-01  4.281524377e-01  4.963543911e-02 -1.593961943e-02  1.253812601e-01 -7.945852353e-02
              1.348405630e-02 -2.433253118e-02  6.811327549e-02 -9.055890407e-03 -8.756803902e-01  1.134340507e-01 -4.266547233e-02  3.063843369e-02
             -3.791990517e-01  7.026290554e-01  1.181577587e-01 -8.502926032e-02 -1.126569782e-02  2.279160549e-02  5.320781324e-02  1.894532168e-01
13.150000000  2.417765790e-01 -3.621302839e-02 -1.831503169e-01  1.882186993e-01  2.049137024e-02 -2.243946320e-02 -3.205367596e-01  7.349089856e-01
             -1.766552378e-01  1.914200042e-01 -2.244076516e-01  4.830907090e-01  4.836492722e-02 -2.120853969e-02  1.094619769e-01 -9.204588190e-02
              1.804036544e-02 -3.701049615e-02  6.590110600e-02 -1.791991271e-02 -8.642469882e-01  1.508210095e-01 -4.943859312e-02  3.670209018e-02
             -3.234688209e-01  7.238899070e-01  1.019779981e-01 -9.632933566e-02 -1.905018018e-02  2.775312164e-02  5.896848148e-02  1.943189618e-01
13.200000000  2.399501481e-01 -6.219951583e-02 -1.685447752e-01  2.030718597e-01  2.531562300e-02 -3.597938943e-02 -2.625061897e-01  7.507120401e-01
             -1.614096830e-01  2.052981717e-01 -1.284231138e-01  5.216378780e-01  4.672362454e-02 -2.611712506e-02  9.238703635e-02 -1.010964687e-01
              2.168814948e-02 -5.069510673e-02  6.268434476e-02 -2.611776167e-02 -8.501734483e-01  1.882443453e-01 -5.541031749e-02  4.417673671e-02
             -2.661481806e-01  7.406588982e-01  8.486793191e-02 -1.041898545e-01 -2.615557177e-02  3.426537785e-02  6.518810689e-02  1.982591940e-01
