! yapnr Order 0 O0-M: O0-M A03 M dL13 (line, family M)
! stackup OSHPARK-4L-FR408HR, nominal parameters; geometry of the OSHPARK-4L-FR408HR design
! model: 2D quasi-static RLGC (Djordjevic-Sarkar, Huray roughness, Wheeler loss); generated by python -m yapnr.rf.coupons expected --stackup OSHPARK-4L-FR408HR --upload M
! reference planes 10 mm from each end; 50 ohm (from the M line's Zc)
# GHz S DB R 50
0.03 -63.49 42.85 -0.0051021 -0.81 -0.0051021 -0.81 -63.49 42.85
0.06 -60.52 44.34 -0.0074849 -1.59 -0.0074849 -1.59 -60.52 44.34
0.09 -58.714 45.42 -0.0094601 -2.37 -0.0094601 -2.37 -58.714 45.42
0.12 -57.381 46.30 -0.011226 -3.15 -0.011226 -3.15 -57.381 46.30
0.15 -56.309 47.03 -0.012861 -3.93 -0.012861 -3.93 -56.309 47.03
0.18 -55.402 47.64 -0.014403 -4.71 -0.014403 -4.71 -55.402 47.64
0.21 -54.61 48.15 -0.015876 -5.49 -0.015876 -5.49 -54.61 48.15
0.24 -53.903 48.57 -0.017294 -6.26 -0.017294 -6.26 -53.903 48.57
0.27 -53.263 48.92 -0.018669 -7.04 -0.018669 -7.04 -53.263 48.92
0.3 -52.675 49.18 -0.020008 -7.81 -0.020008 -7.81 -52.675 49.18
0.33 -52.131 49.39 -0.021316 -8.59 -0.021316 -8.59 -52.131 49.39
0.36 -51.623 49.54 -0.022599 -9.36 -0.022599 -9.36 -51.623 49.54
0.39 -51.147 49.63 -0.023858 -10.14 -0.023858 -10.14 -51.147 49.63
0.42 -50.699 49.68 -0.025097 -10.91 -0.025097 -10.91 -50.699 49.68
0.45 -50.274 49.68 -0.026319 -11.69 -0.026319 -11.69 -50.274 49.68
0.48 -49.87 49.65 -0.027524 -12.46 -0.027524 -12.46 -49.87 49.65
0.51 -49.486 49.57 -0.028715 -13.23 -0.028715 -13.23 -49.486 49.57
0.54 -49.119 49.46 -0.029894 -14.01 -0.029894 -14.01 -49.119 49.46
0.57 -48.767 49.32 -0.03106 -14.78 -0.03106 -14.78 -48.767 49.32
0.6 -48.43 49.15 -0.032215 -15.55 -0.032215 -15.55 -48.43 49.15
0.63 -48.107 48.95 -0.033361 -16.33 -0.033361 -16.33 -48.107 48.95
0.66 -47.795 48.73 -0.034497 -17.10 -0.034497 -17.10 -47.795 48.73
0.69 -47.495 48.48 -0.035624 -17.87 -0.035624 -17.87 -47.495 48.48
0.72 -47.206 48.22 -0.036744 -18.64 -0.036744 -18.64 -47.206 48.22
0.75 -46.926 47.93 -0.037856 -19.41 -0.037856 -19.41 -46.926 47.93
0.78 -46.656 47.62 -0.038961 -20.19 -0.038961 -20.19 -46.656 47.62
0.81 -46.395 47.29 -0.040059 -20.96 -0.040059 -20.96 -46.395 47.29
0.84 -46.142 46.95 -0.041152 -21.73 -0.041152 -21.73 -46.142 46.95
0.87 -45.896 46.58 -0.042238 -22.50 -0.042238 -22.50 -45.896 46.58
0.9 -45.658 46.21 -0.043319 -23.27 -0.043319 -23.27 -45.658 46.21
0.93 -45.428 45.82 -0.044394 -24.05 -0.044394 -24.05 -45.428 45.82
0.96 -45.204 45.42 -0.045465 -24.82 -0.045465 -24.82 -45.204 45.42
0.99 -44.986 45.00 -0.04653 -25.59 -0.04653 -25.59 -44.986 45.00
1.02 -44.774 44.57 -0.047591 -26.36 -0.047591 -26.36 -44.774 44.57
1.05 -44.569 44.13 -0.048648 -27.13 -0.048648 -27.13 -44.569 44.13
1.08 -44.368 43.68 -0.049701 -27.90 -0.049701 -27.90 -44.368 43.68
1.11 -44.174 43.22 -0.050749 -28.67 -0.050749 -28.67 -44.174 43.22
1.14 -43.984 42.75 -0.051794 -29.44 -0.051794 -29.44 -43.984 42.75
1.17 -43.8 42.27 -0.052835 -30.21 -0.052835 -30.21 -43.8 42.27
1.2 -43.62 41.78 -0.053872 -30.99 -0.053872 -30.99 -43.62 41.78
1.23 -43.444 41.28 -0.054906 -31.76 -0.054906 -31.76 -43.444 41.28
1.26 -43.274 40.78 -0.055937 -32.53 -0.055937 -32.53 -43.274 40.78
1.29 -43.107 40.27 -0.056965 -33.30 -0.056965 -33.30 -43.107 40.27
1.32 -42.945 39.75 -0.057989 -34.07 -0.057989 -34.07 -42.945 39.75
1.35 -42.787 39.22 -0.059011 -34.84 -0.059011 -34.84 -42.787 39.22
1.38 -42.632 38.69 -0.060029 -35.61 -0.060029 -35.61 -42.632 38.69
1.41 -42.482 38.15 -0.061045 -36.38 -0.061045 -36.38 -42.482 38.15
1.44 -42.335 37.60 -0.062058 -37.15 -0.062058 -37.15 -42.335 37.60
1.47 -42.191 37.05 -0.063068 -37.92 -0.063068 -37.92 -42.191 37.05
1.5 -42.051 36.49 -0.064076 -38.69 -0.064076 -38.69 -42.051 36.49
1.53 -41.915 35.93 -0.065082 -39.46 -0.065082 -39.46 -41.915 35.93
1.56 -41.781 35.36 -0.066084 -40.23 -0.066084 -40.23 -41.781 35.36
1.59 -41.651 34.79 -0.067085 -41.00 -0.067085 -41.00 -41.651 34.79
1.62 -41.524 34.21 -0.068083 -41.77 -0.068083 -41.77 -41.524 34.21
1.65 -41.4 33.63 -0.069079 -42.54 -0.069079 -42.54 -41.4 33.63
1.68 -41.279 33.05 -0.070073 -43.31 -0.070073 -43.31 -41.279 33.05
1.71 -41.161 32.46 -0.071064 -44.08 -0.071064 -44.08 -41.161 32.46
1.74 -41.046 31.86 -0.072054 -44.85 -0.072054 -44.85 -41.046 31.86
1.77 -40.933 31.27 -0.073041 -45.62 -0.073041 -45.62 -40.933 31.27
1.8 -40.823 30.66 -0.074026 -46.39 -0.074026 -46.39 -40.823 30.66
1.83 -40.716 30.06 -0.075009 -47.16 -0.075009 -47.16 -40.716 30.06
1.86 -40.611 29.45 -0.075991 -47.93 -0.075991 -47.93 -40.611 29.45
1.89 -40.509 28.84 -0.07697 -48.70 -0.07697 -48.70 -40.509 28.84
1.92 -40.41 28.22 -0.077948 -49.47 -0.077948 -49.47 -40.41 28.22
1.95 -40.313 27.60 -0.078923 -50.24 -0.078923 -50.24 -40.313 27.60
1.98 -40.218 26.98 -0.079897 -51.01 -0.079897 -51.01 -40.218 26.98
2.01 -40.125 26.36 -0.080869 -51.78 -0.080869 -51.78 -40.125 26.36
2.04 -40.035 25.73 -0.081839 -52.55 -0.081839 -52.55 -40.035 25.73
2.07 -39.947 25.10 -0.082808 -53.32 -0.082808 -53.32 -39.947 25.10
2.1 -39.862 24.47 -0.083775 -54.09 -0.083775 -54.09 -39.862 24.47
2.13 -39.778 23.84 -0.08474 -54.86 -0.08474 -54.86 -39.778 23.84
2.16 -39.697 23.20 -0.085703 -55.63 -0.085703 -55.63 -39.697 23.20
2.19 -39.618 22.56 -0.086665 -56.40 -0.086665 -56.40 -39.618 22.56
2.22 -39.541 21.92 -0.087625 -57.17 -0.087625 -57.17 -39.541 21.92
2.25 -39.466 21.27 -0.088584 -57.93 -0.088584 -57.93 -39.466 21.27
2.28 -39.393 20.63 -0.089541 -58.70 -0.089541 -58.70 -39.393 20.63
2.31 -39.322 19.98 -0.090496 -59.47 -0.090496 -59.47 -39.322 19.98
2.34 -39.253 19.33 -0.09145 -60.24 -0.09145 -60.24 -39.253 19.33
2.37 -39.186 18.68 -0.092403 -61.01 -0.092403 -61.01 -39.186 18.68
2.4 -39.121 18.02 -0.093354 -61.78 -0.093354 -61.78 -39.121 18.02
2.43 -39.058 17.37 -0.094303 -62.55 -0.094303 -62.55 -39.058 17.37
2.46 -38.996 16.71 -0.095251 -63.32 -0.095251 -63.32 -38.996 16.71
2.49 -38.937 16.05 -0.096198 -64.09 -0.096198 -64.09 -38.937 16.05
2.52 -38.879 15.39 -0.097143 -64.86 -0.097143 -64.86 -38.879 15.39
2.55 -38.824 14.73 -0.098087 -65.63 -0.098087 -65.63 -38.824 14.73
2.58 -38.77 14.06 -0.099029 -66.40 -0.099029 -66.40 -38.77 14.06
2.61 -38.717 13.40 -0.09997 -67.17 -0.09997 -67.17 -38.717 13.40
2.64 -38.667 12.73 -0.10091 -67.93 -0.10091 -67.93 -38.667 12.73
2.67 -38.618 12.06 -0.10185 -68.70 -0.10185 -68.70 -38.618 12.06
2.7 -38.571 11.39 -0.10278 -69.47 -0.10278 -69.47 -38.571 11.39
2.73 -38.526 10.72 -0.10372 -70.24 -0.10372 -70.24 -38.526 10.72
2.76 -38.483 10.05 -0.10465 -71.01 -0.10465 -71.01 -38.483 10.05
2.79 -38.441 9.38 -0.10559 -71.78 -0.10559 -71.78 -38.441 9.38
2.82 -38.401 8.70 -0.10652 -72.55 -0.10652 -72.55 -38.401 8.70
2.85 -38.362 8.02 -0.10745 -73.32 -0.10745 -73.32 -38.362 8.02
2.88 -38.325 7.35 -0.10838 -74.09 -0.10838 -74.09 -38.325 7.35
2.91 -38.29 6.67 -0.1093 -74.86 -0.1093 -74.86 -38.29 6.67
2.94 -38.257 5.99 -0.11023 -75.63 -0.11023 -75.63 -38.257 5.99
2.97 -38.225 5.31 -0.11116 -76.39 -0.11116 -76.39 -38.225 5.31
3 -38.194 4.63 -0.11208 -77.16 -0.11208 -77.16 -38.194 4.63
3.03 -38.166 3.94 -0.113 -77.93 -0.113 -77.93 -38.166 3.94
3.06 -38.139 3.26 -0.11392 -78.70 -0.11392 -78.70 -38.139 3.26
3.09 -38.113 2.58 -0.11484 -79.47 -0.11484 -79.47 -38.113 2.58
3.12 -38.089 1.89 -0.11576 -80.24 -0.11576 -80.24 -38.089 1.89
3.15 -38.067 1.20 -0.11668 -81.01 -0.11668 -81.01 -38.067 1.20
3.18 -38.046 0.52 -0.1176 -81.78 -0.1176 -81.78 -38.046 0.52
3.21 -38.027 -0.17 -0.11851 -82.54 -0.11851 -82.54 -38.027 -0.17
3.24 -38.01 -0.86 -0.11943 -83.31 -0.11943 -83.31 -38.01 -0.86
3.27 -37.993 -1.55 -0.12034 -84.08 -0.12034 -84.08 -37.993 -1.55
3.3 -37.979 -2.24 -0.12125 -84.85 -0.12125 -84.85 -37.979 -2.24
3.33 -37.966 -2.93 -0.12216 -85.62 -0.12216 -85.62 -37.966 -2.93
3.36 -37.955 -3.62 -0.12307 -86.39 -0.12307 -86.39 -37.955 -3.62
3.39 -37.945 -4.32 -0.12398 -87.16 -0.12398 -87.16 -37.945 -4.32
3.42 -37.937 -5.01 -0.12489 -87.93 -0.12489 -87.93 -37.937 -5.01
3.45 -37.93 -5.70 -0.12579 -88.69 -0.12579 -88.69 -37.93 -5.70
3.48 -37.925 -6.40 -0.1267 -89.46 -0.1267 -89.46 -37.925 -6.40
3.51 -37.921 -7.09 -0.1276 -90.23 -0.1276 -90.23 -37.921 -7.09
3.54 -37.919 -7.79 -0.12851 -91.00 -0.12851 -91.00 -37.919 -7.79
3.57 -37.919 -8.49 -0.12941 -91.77 -0.12941 -91.77 -37.919 -8.49
3.6 -37.92 -9.18 -0.13031 -92.54 -0.13031 -92.54 -37.92 -9.18
3.63 -37.922 -9.88 -0.13121 -93.31 -0.13121 -93.31 -37.922 -9.88
3.66 -37.927 -10.58 -0.13211 -94.08 -0.13211 -94.08 -37.927 -10.58
3.69 -37.932 -11.28 -0.133 -94.84 -0.133 -94.84 -37.932 -11.28
3.72 -37.94 -11.98 -0.1339 -95.61 -0.1339 -95.61 -37.94 -11.98
3.75 -37.948 -12.68 -0.1348 -96.38 -0.1348 -96.38 -37.948 -12.68
3.78 -37.959 -13.38 -0.13569 -97.15 -0.13569 -97.15 -37.959 -13.38
3.81 -37.971 -14.08 -0.13658 -97.92 -0.13658 -97.92 -37.971 -14.08
3.84 -37.985 -14.78 -0.13748 -98.69 -0.13748 -98.69 -37.985 -14.78
3.87 -38 -15.48 -0.13837 -99.46 -0.13837 -99.46 -38 -15.48
3.9 -38.017 -16.18 -0.13926 -100.22 -0.13926 -100.22 -38.017 -16.18
3.93 -38.035 -16.88 -0.14015 -100.99 -0.14015 -100.99 -38.035 -16.88
3.96 -38.055 -17.58 -0.14104 -101.76 -0.14104 -101.76 -38.055 -17.58
3.99 -38.077 -18.29 -0.14192 -102.53 -0.14192 -102.53 -38.077 -18.29
4.02 -38.1 -18.99 -0.14281 -103.30 -0.14281 -103.30 -38.1 -18.99
4.05 -38.125 -19.69 -0.1437 -104.07 -0.1437 -104.07 -38.125 -19.69
4.08 -38.152 -20.40 -0.14458 -104.84 -0.14458 -104.84 -38.152 -20.40
4.11 -38.18 -21.10 -0.14547 -105.60 -0.14547 -105.60 -38.18 -21.10
4.14 -38.21 -21.81 -0.14635 -106.37 -0.14635 -106.37 -38.21 -21.81
4.17 -38.242 -22.51 -0.14723 -107.14 -0.14723 -107.14 -38.242 -22.51
4.2 -38.276 -23.21 -0.14811 -107.91 -0.14811 -107.91 -38.276 -23.21
4.23 -38.311 -23.92 -0.14899 -108.68 -0.14899 -108.68 -38.311 -23.92
4.26 -38.348 -24.62 -0.14987 -109.45 -0.14987 -109.45 -38.348 -24.62
4.29 -38.386 -25.33 -0.15075 -110.22 -0.15075 -110.22 -38.386 -25.33
4.32 -38.427 -26.03 -0.15163 -110.98 -0.15163 -110.98 -38.427 -26.03
4.35 -38.469 -26.74 -0.1525 -111.75 -0.1525 -111.75 -38.469 -26.74
4.38 -38.513 -27.45 -0.15338 -112.52 -0.15338 -112.52 -38.513 -27.45
4.41 -38.559 -28.15 -0.15426 -113.29 -0.15426 -113.29 -38.559 -28.15
4.44 -38.607 -28.86 -0.15513 -114.06 -0.15513 -114.06 -38.607 -28.86
4.47 -38.656 -29.56 -0.156 -114.83 -0.156 -114.83 -38.656 -29.56
4.5 -38.708 -30.27 -0.15688 -115.60 -0.15688 -115.60 -38.708 -30.27
4.53 -38.761 -30.97 -0.15775 -116.36 -0.15775 -116.36 -38.761 -30.97
4.56 -38.817 -31.68 -0.15862 -117.13 -0.15862 -117.13 -38.817 -31.68
4.59 -38.874 -32.39 -0.15949 -117.90 -0.15949 -117.90 -38.874 -32.39
4.62 -38.934 -33.09 -0.16036 -118.67 -0.16036 -118.67 -38.934 -33.09
4.65 -38.995 -33.80 -0.16123 -119.44 -0.16123 -119.44 -38.995 -33.80
4.68 -39.058 -34.50 -0.16209 -120.21 -0.16209 -120.21 -39.058 -34.50
4.71 -39.124 -35.21 -0.16296 -120.98 -0.16296 -120.98 -39.124 -35.21
4.74 -39.192 -35.91 -0.16383 -121.74 -0.16383 -121.74 -39.192 -35.91
4.77 -39.262 -36.62 -0.16469 -122.51 -0.16469 -122.51 -39.262 -36.62
4.8 -39.334 -37.32 -0.16556 -123.28 -0.16556 -123.28 -39.334 -37.32
4.83 -39.408 -38.03 -0.16642 -124.05 -0.16642 -124.05 -39.408 -38.03
4.86 -39.485 -38.73 -0.16729 -124.82 -0.16729 -124.82 -39.485 -38.73
4.89 -39.564 -39.44 -0.16815 -125.59 -0.16815 -125.59 -39.564 -39.44
4.92 -39.645 -40.14 -0.16901 -126.36 -0.16901 -126.36 -39.645 -40.14
4.95 -39.729 -40.84 -0.16987 -127.12 -0.16987 -127.12 -39.729 -40.84
4.98 -39.815 -41.55 -0.17073 -127.89 -0.17073 -127.89 -39.815 -41.55
5.01 -39.904 -42.25 -0.17159 -128.66 -0.17159 -128.66 -39.904 -42.25
5.04 -39.995 -42.95 -0.17245 -129.43 -0.17245 -129.43 -39.995 -42.95
5.07 -40.089 -43.65 -0.17331 -130.20 -0.17331 -130.20 -40.089 -43.65
5.1 -40.185 -44.35 -0.17417 -130.97 -0.17417 -130.97 -40.185 -44.35
5.13 -40.285 -45.05 -0.17503 -131.73 -0.17503 -131.73 -40.285 -45.05
5.16 -40.387 -45.75 -0.17589 -132.50 -0.17589 -132.50 -40.387 -45.75
5.19 -40.492 -46.45 -0.17674 -133.27 -0.17674 -133.27 -40.492 -46.45
5.22 -40.6 -47.15 -0.1776 -134.04 -0.1776 -134.04 -40.6 -47.15
5.25 -40.711 -47.85 -0.17846 -134.81 -0.17846 -134.81 -40.711 -47.85
5.28 -40.825 -48.55 -0.17931 -135.58 -0.17931 -135.58 -40.825 -48.55
5.31 -40.942 -49.24 -0.18016 -136.35 -0.18016 -136.35 -40.942 -49.24
5.34 -41.063 -49.94 -0.18102 -137.11 -0.18102 -137.11 -41.063 -49.94
5.37 -41.187 -50.63 -0.18187 -137.88 -0.18187 -137.88 -41.187 -50.63
5.4 -41.314 -51.32 -0.18272 -138.65 -0.18272 -138.65 -41.314 -51.32
5.43 -41.445 -52.01 -0.18358 -139.42 -0.18358 -139.42 -41.445 -52.01
5.46 -41.58 -52.70 -0.18443 -140.19 -0.18443 -140.19 -41.58 -52.70
5.49 -41.719 -53.39 -0.18528 -140.96 -0.18528 -140.96 -41.719 -53.39
5.52 -41.861 -54.08 -0.18613 -141.73 -0.18613 -141.73 -41.861 -54.08
5.55 -42.008 -54.77 -0.18698 -142.49 -0.18698 -142.49 -42.008 -54.77
5.58 -42.158 -55.45 -0.18783 -143.26 -0.18783 -143.26 -42.158 -55.45
5.61 -42.313 -56.13 -0.18868 -144.03 -0.18868 -144.03 -42.313 -56.13
5.64 -42.473 -56.81 -0.18953 -144.80 -0.18953 -144.80 -42.473 -56.81
5.67 -42.637 -57.49 -0.19038 -145.57 -0.19038 -145.57 -42.637 -57.49
5.7 -42.807 -58.17 -0.19123 -146.34 -0.19123 -146.34 -42.807 -58.17
5.73 -42.981 -58.84 -0.19207 -147.11 -0.19207 -147.11 -42.981 -58.84
5.76 -43.16 -59.51 -0.19292 -147.87 -0.19292 -147.87 -43.16 -59.51
5.79 -43.346 -60.18 -0.19377 -148.64 -0.19377 -148.64 -43.346 -60.18
5.82 -43.536 -60.85 -0.19461 -149.41 -0.19461 -149.41 -43.536 -60.85
5.85 -43.733 -61.51 -0.19546 -150.18 -0.19546 -150.18 -43.733 -61.51
5.88 -43.936 -62.16 -0.19631 -150.95 -0.19631 -150.95 -43.936 -62.16
5.91 -44.146 -62.82 -0.19715 -151.72 -0.19715 -151.72 -44.146 -62.82
5.94 -44.363 -63.47 -0.198 -152.49 -0.198 -152.49 -44.363 -63.47
5.97 -44.587 -64.11 -0.19884 -153.25 -0.19884 -153.25 -44.587 -64.11
6 -44.818 -64.75 -0.19968 -154.02 -0.19968 -154.02 -44.818 -64.75
