! yapnr rf: line-osh-m-w0p40-l10-m-nom, footprint re-simulated (optimization grid)
! spec sha256 5298439427e426e1331edb8f8734f1a456c494e8c212ef0456b3fbcedb503f06
! 2 ports renormalized to 50 ohm, e^(+jwt) convention
# GHz S RI R 50
3.000000000  4.931807169e-02  2.732478179e-02  4.896331341e-01 -8.501360225e-01  4.896331341e-01 -8.501360225e-01  4.931807169e-02  2.732478179e-02
3.025000000  4.980476208e-02  2.704219190e-02  4.821966222e-01 -8.543560950e-01  4.821966222e-01 -8.543560950e-01  4.980476208e-02  2.704219190e-02
3.050000000  5.028681636e-02  2.675074644e-02  4.747240308e-01 -8.585112302e-01  4.747240308e-01 -8.585112302e-01  5.028681636e-02  2.675074644e-02
3.075000000  5.076368938e-02  2.645120852e-02  4.672158296e-01 -8.626012043e-01  4.672158296e-01 -8.626012043e-01  5.076368938e-02  2.645120852e-02
3.100000000  5.123558002e-02  2.614295506e-02  4.596725593e-01 -8.666257019e-01  4.596725593e-01 -8.666257019e-01  5.123558002e-02  2.614295506e-02
3.125000000  5.170201665e-02  2.582675440e-02  4.520948021e-01 -8.705844392e-01  4.520948021e-01 -8.705844392e-01  5.170201665e-02  2.582675440e-02
3.150000000  5.216284276e-02  2.550269105e-02  4.444830799e-01 -8.744771465e-01  4.444830799e-01 -8.744771465e-01  5.216284276e-02  2.550269105e-02
3.175000000  5.261793190e-02  2.517090183e-02  4.368380001e-01 -8.783035131e-01  4.368380001e-01 -8.783035131e-01  5.261793190e-02  2.517090183e-02
3.200000000  5.306712161e-02  2.483161788e-02  4.291602237e-01 -8.820632129e-01  4.291602237e-01 -8.820632129e-01  5.306712161e-02  2.483161788e-02
3.225000000  5.351031135e-02  2.448485225e-02  4.214502659e-01 -8.857559955e-01  4.214502659e-01 -8.857559955e-01  5.351031135e-02  2.448485225e-02
3.250000000  5.394755025e-02  2.413040808e-02  4.137088381e-01 -8.893815124e-01  4.137088381e-01 -8.893815124e-01  5.394755025e-02  2.413040808e-02
3.275000000  5.437860936e-02  2.376855415e-02  4.059364326e-01 -8.929395482e-01  4.059364326e-01 -8.929395482e-01  5.437860936e-02  2.376855415e-02
3.300000000  5.480353983e-02  2.339898563e-02  3.981336551e-01 -8.964298199e-01  3.981336551e-01 -8.964298199e-01  5.480353983e-02  2.339898563e-02
3.325000000  5.522211083e-02  2.302203219e-02  3.903010618e-01 -8.998520945e-01  3.903010618e-01 -8.998520945e-01  5.522211083e-02  2.302203219e-02
3.350000000  5.563417838e-02  2.263780490e-02  3.824391871e-01 -9.032061478e-01  3.824391871e-01 -9.032061478e-01  5.563417838e-02  2.263780490e-02
3.375000000  5.603960089e-02  2.224647502e-02  3.745486267e-01 -9.064917343e-01  3.745486267e-01 -9.064917343e-01  5.603960089e-02  2.224647502e-02
3.400000000  5.643816868e-02  2.184839894e-02  3.666299804e-01 -9.097086187e-01  3.666299804e-01 -9.097086187e-01  5.643816868e-02  2.184839894e-02
3.425000000  5.682977073e-02  2.144369303e-02  3.586838431e-01 -9.128565670e-01  3.586838431e-01 -9.128565670e-01  5.682977073e-02  2.144369303e-02
3.450000000  5.721431434e-02  2.103247248e-02  3.507108709e-01 -9.159353267e-01  3.507108709e-01 -9.159353267e-01  5.721431434e-02  2.103247248e-02
3.475000000  5.759169163e-02  2.061486252e-02  3.427116894e-01 -9.189446658e-01  3.427116894e-01 -9.189446658e-01  5.759169163e-02  2.061486252e-02
3.500000000  5.796181691e-02  2.019090016e-02  3.346868542e-01 -9.218843828e-01  3.346868542e-01 -9.218843828e-01  5.796181691e-02  2.019090016e-02
3.525000000  5.832473407e-02  1.976031390e-02  3.266371014e-01 -9.247542072e-01  3.266371014e-01 -9.247542072e-01  5.832473407e-02  1.976031390e-02
3.550000000  5.868020261e-02  1.932351916e-02  3.185628765e-01 -9.275539980e-01  3.185628765e-01 -9.275539980e-01  5.868020261e-02  1.932351916e-02
3.575000000  5.902822488e-02  1.888030555e-02  3.104648234e-01 -9.302835305e-01  3.104648234e-01 -9.302835305e-01  5.902822488e-02  1.888030555e-02
3.600000000  5.936854573e-02  1.843123505e-02  3.023434821e-01 -9.329426376e-01  3.023434821e-01 -9.329426376e-01  5.936854573e-02  1.843123505e-02
3.625000000  5.970112605e-02  1.797620831e-02  2.941994456e-01 -9.355311235e-01  2.941994456e-01 -9.355311235e-01  5.970112605e-02  1.797620831e-02
3.650000000  6.002578787e-02  1.751564823e-02  2.860333373e-01 -9.380487972e-01  2.860333373e-01 -9.380487972e-01  6.002578787e-02  1.751564823e-02
3.675000000  6.034241771e-02  1.704974621e-02  2.778457906e-01 -9.404954661e-01  2.778457906e-01 -9.404954661e-01  6.034241771e-02  1.704974621e-02
3.700000000  6.065094671e-02  1.657857979e-02  2.696373881e-01 -9.428709558e-01  2.696373881e-01 -9.428709558e-01  6.065094671e-02  1.657857979e-02
3.725000000  6.095131244e-02  1.610223083e-02  2.614089037e-01 -9.451750432e-01  2.614089037e-01 -9.451750432e-01  6.095131244e-02  1.610223083e-02
3.750000000  6.124340027e-02  1.562089701e-02  2.531607911e-01 -9.474076062e-01  2.531607911e-01 -9.474076062e-01  6.124340027e-02  1.562089701e-02
3.775000000  6.152724831e-02  1.513427473e-02  2.448938350e-01 -9.495684272e-01  2.448938350e-01 -9.495684272e-01  6.152724831e-02  1.513427473e-02
3.800000000  6.180265652e-02  1.464291247e-02  2.366085010e-01 -9.516573963e-01  2.366085010e-01 -9.516573963e-01  6.180265652e-02  1.464291247e-02
3.825000000  6.206964778e-02  1.414651595e-02  2.283054521e-01 -9.536743421e-01  2.283054521e-01 -9.536743421e-01  6.206964778e-02  1.414651595e-02
3.850000000  6.232804894e-02  1.364561571e-02  2.199852632e-01 -9.556191342e-01  2.199852632e-01 -9.556191342e-01  6.232804894e-02  1.364561571e-02
3.875000000  6.257779577e-02  1.314029557e-02  2.116485399e-01 -9.574916330e-01  2.116485399e-01 -9.574916330e-01  6.257779577e-02  1.314029557e-02
3.900000000  6.281879616e-02  1.263080688e-02  2.032959096e-01 -9.592917014e-01  2.032959096e-01 -9.592917014e-01  6.281879616e-02  1.263080688e-02
3.925000000  6.305096286e-02  1.211739030e-02  1.949280422e-01 -9.610191996e-01  1.949280422e-01 -9.610191996e-01  6.305096286e-02  1.211739030e-02
3.950000000  6.327423611e-02  1.160017006e-02  1.865455393e-01 -9.626740071e-01  1.865455393e-01 -9.626740071e-01  6.327423611e-02  1.160017006e-02
3.975000000  6.348856673e-02  1.107921834e-02  1.781490969e-01 -9.642559897e-01  1.781490969e-01 -9.642559897e-01  6.348856673e-02  1.107921834e-02
4.000000000  6.369388672e-02  1.055470337e-02  1.697393107e-01 -9.657650405e-01  1.697393107e-01 -9.657650405e-01  6.369388672e-02  1.055470337e-02
4.025000000  6.389018734e-02  1.002645316e-02  1.613168879e-01 -9.672010344e-01  1.613168879e-01 -9.672010344e-01  6.389018734e-02  1.002645316e-02
4.050000000  6.407736915e-02  9.494821384e-03  1.528823542e-01 -9.685638889e-01  1.528823542e-01 -9.685638889e-01  6.407736915e-02  9.494821384e-03
4.075000000  6.425537849e-02  8.959925561e-03  1.444363165e-01 -9.698535079e-01  1.444363165e-01 -9.698535079e-01  6.425537849e-02  8.959925561e-03
4.100000000  6.442416522e-02  8.421868410e-03  1.359794077e-01 -9.710697957e-01  1.359794077e-01 -9.710697957e-01  6.442416522e-02  8.421868410e-03
4.125000000  6.458364440e-02  7.881019544e-03  1.275122307e-01 -9.722126681e-01  1.275122307e-01 -9.722126681e-01  6.458364440e-02  7.881019544e-03
4.150000000  6.473377238e-02  7.337509060e-03  1.190354155e-01 -9.732820390e-01  1.190354155e-01 -9.732820390e-01  6.473377238e-02  7.337509060e-03
4.175000000  6.487449014e-02  6.791574756e-03  1.105496137e-01 -9.742778259e-01  1.105496137e-01 -9.742778259e-01  6.487449014e-02  6.791574756e-03
4.200000000  6.500575187e-02  6.243398015e-03  1.020554967e-01 -9.751999494e-01  1.020554967e-01 -9.751999494e-01  6.500575187e-02  6.243398015e-03
4.225000000  6.512752424e-02  5.693083620e-03  9.355365618e-02 -9.760483436e-01  9.355365618e-02 -9.760483436e-01  6.512752424e-02  5.693083620e-03
4.250000000  6.523977075e-02  5.140726364e-03  8.504480815e-02 -9.768229360e-01  8.504480815e-02 -9.768229360e-01  6.523977075e-02  5.140726364e-03
4.275000000  6.534246723e-02  4.586353304e-03  7.652957405e-02 -9.775236693e-01  7.652957405e-02 -9.775236693e-01  6.534246723e-02  4.586353304e-03
4.300000000  6.543558592e-02  4.030062385e-03  6.800856014e-02 -9.781504926e-01  6.800856014e-02 -9.781504926e-01  6.543558592e-02  4.030062385e-03
4.325000000  6.551907455e-02  3.472299793e-03  5.948232926e-02 -9.787033638e-01  5.948232926e-02 -9.787033638e-01  6.551907455e-02  3.472299793e-03
4.350000000  6.559293601e-02  2.912925703e-03  5.095154524e-02 -9.791822358e-01  5.095154524e-02 -9.791822358e-01  6.559293601e-02  2.912925703e-03
4.375000000  6.565711635e-02  2.352423884e-03  4.241681356e-02 -9.795870741e-01  4.241681356e-02 -9.795870741e-01  6.565711635e-02  2.352423884e-03
4.400000000  6.571160895e-02  1.790927131e-03  3.387879052e-02 -9.799178442e-01  3.387879052e-02 -9.799178442e-01  6.571160895e-02  1.790927131e-03
4.425000000  6.575638721e-02  1.228630330e-03  2.533809256e-02 -9.801745209e-01  2.533809256e-02 -9.801745209e-01  6.575638721e-02  1.228630330e-03
4.450000000  6.579143102e-02  6.657159628e-04  1.679545759e-02 -9.803570814e-01  1.679545759e-02 -9.803570814e-01  6.579143102e-02  6.657159628e-04
4.475000000  6.581673427e-02  1.023339643e-04  8.251432763e-03 -9.804655127e-01  8.251432763e-03 -9.804655127e-01  6.581673427e-02  1.023339643e-04
4.500000000  6.583227999e-02 -4.614470569e-04 -2.932618564e-04 -9.804998054e-01 -2.932618564e-04 -9.804998054e-01  6.583227999e-02 -4.614470569e-04
4.525000000  6.583805951e-02 -1.025569760e-03 -8.837983226e-03 -9.804599572e-01 -8.837983226e-03 -9.804599572e-01  6.583805951e-02 -1.025569760e-03
4.550000000  6.583407402e-02 -1.589897642e-03 -1.738214779e-02 -9.803459695e-01 -1.738214779e-02 -9.803459695e-01  6.583407402e-02 -1.589897642e-03
4.575000000  6.582031748e-02 -2.154120651e-03 -2.592515497e-02 -9.801578483e-01 -2.592515497e-02 -9.801578483e-01  6.582031748e-02 -2.154120651e-03
4.600000000  6.579680048e-02 -2.718130655e-03 -3.446637961e-02 -9.798956031e-01 -3.446637961e-02 -9.798956031e-01  6.579680048e-02 -2.718130655e-03
4.625000000  6.576352072e-02 -3.281694880e-03 -4.300519343e-02 -9.795592495e-01 -4.300519343e-02 -9.795592495e-01  6.576352072e-02 -3.281694880e-03
4.650000000  6.572048703e-02 -3.844557166e-03 -5.154094819e-02 -9.791488079e-01 -5.154094819e-02 -9.791488079e-01  6.572048703e-02 -3.844557166e-03
4.675000000  6.566770799e-02 -4.406552137e-03 -6.007301498e-02 -9.786643034e-01 -6.007301498e-02 -9.786643034e-01  6.566770799e-02 -4.406552137e-03
4.700000000  6.560518317e-02 -4.967522748e-03 -6.860071309e-02 -9.781057701e-01 -6.860071309e-02 -9.781057701e-01  6.560518317e-02 -4.967522748e-03
4.725000000  6.553292653e-02 -5.527301806e-03 -7.712340382e-02 -9.774732446e-01 -7.712340382e-02 -9.774732446e-01  6.553292653e-02 -5.527301806e-03
4.750000000  6.545095424e-02 -6.085759592e-03 -8.564048197e-02 -9.767667661e-01 -8.564048197e-02 -9.767667661e-01  6.545095424e-02 -6.085759592e-03
4.775000000  6.535926278e-02 -6.642915314e-03 -9.415122158e-02 -9.759863910e-01 -9.415122158e-02 -9.759863910e-01  6.535926278e-02 -6.642915314e-03
4.800000000  6.525790041e-02 -7.198464232e-03 -1.026551019e-01 -9.751321589e-01 -1.026551019e-01 -9.751321589e-01  6.525790041e-02 -7.198464232e-03
4.825000000  6.514688736e-02 -7.752345761e-03 -1.111514653e-01 -9.742041291e-01 -1.111514653e-01 -9.742041291e-01  6.514688736e-02 -7.752345761e-03
4.850000000  6.502626796e-02 -8.304223700e-03 -1.196397213e-01 -9.732023571e-01 -1.196397213e-01 -9.732023571e-01  6.502626796e-02 -8.304223700e-03
4.875000000  6.489608599e-02 -8.854009994e-03 -1.281192299e-01 -9.721269093e-01 -1.281192299e-01 -9.721269093e-01  6.489608599e-02 -8.854009994e-03
4.900000000  6.475636768e-02 -9.401420425e-03 -1.365893590e-01 -9.709778582e-01 -1.365893590e-01 -9.709778582e-01  6.475636768e-02 -9.401420425e-03
4.925000000  6.460716712e-02 -9.946269044e-03 -1.450494374e-01 -9.697552863e-01 -1.450494374e-01 -9.697552863e-01  6.460716712e-02 -9.946269044e-03
4.950000000  6.444850907e-02 -1.048842539e-02 -1.534988698e-01 -9.684592731e-01 -1.534988698e-01 -9.684592731e-01  6.444850907e-02 -1.048842539e-02
4.975000000  6.428041709e-02 -1.102776088e-02 -1.619369035e-01 -9.670899292e-01 -1.619369035e-01 -9.670899292e-01  6.428041709e-02 -1.102776088e-02
5.000000000  6.410296073e-02 -1.156407737e-02 -1.703630424e-01 -9.656473269e-01 -1.703630424e-01 -9.656473269e-01  6.410296073e-02 -1.156407737e-02
5.025000000  6.391613488e-02 -1.209745796e-02 -1.787765136e-01 -9.641315962e-01 -1.787765136e-01 -9.641315962e-01  6.391613488e-02 -1.209745796e-02
5.050000000  6.372004303e-02 -1.262749582e-02 -1.871768340e-01 -9.625428134e-01 -1.871768340e-01 -9.625428134e-01  6.372004303e-02 -1.262749582e-02
5.075000000  6.351472097e-02 -1.315428144e-02 -1.955633255e-01 -9.608811001e-01 -1.955633255e-01 -9.608811001e-01  6.351472097e-02 -1.315428144e-02
5.100000000  6.330024139e-02 -1.367742586e-02 -2.039354099e-01 -9.591465609e-01 -2.039354099e-01 -9.591465609e-01  6.330024139e-02 -1.367742586e-02
5.125000000  6.307669213e-02 -1.419682132e-02 -2.122924574e-01 -9.573393149e-01 -2.122924574e-01 -9.573393149e-01  6.307669213e-02 -1.419682132e-02
5.150000000  6.284411535e-02 -1.471225369e-02 -2.206338524e-01 -9.554594861e-01 -2.206338524e-01 -9.554594861e-01  6.284411535e-02 -1.471225369e-02
5.175000000  6.260258777e-02 -1.522352113e-02 -2.289589167e-01 -9.535072165e-01 -2.289589167e-01 -9.535072165e-01  6.260258777e-02 -1.522352113e-02
5.200000000  6.235216675e-02 -1.573049196e-02 -2.372670681e-01 -9.514826325e-01 -2.372670681e-01 -9.514826325e-01  6.235216675e-02 -1.573049196e-02
5.225000000  6.209289443e-02 -1.623305261e-02 -2.455576122e-01 -9.493858947e-01 -2.455576122e-01 -9.493858947e-01  6.209289443e-02 -1.623305261e-02
5.250000000  6.182485526e-02 -1.673103208e-02 -2.538299782e-01 -9.472171353e-01 -2.538299782e-01 -9.472171353e-01  6.182485526e-02 -1.673103208e-02
5.275000000  6.154807948e-02 -1.722444979e-02 -2.620834773e-01 -9.449765270e-01 -2.620834773e-01 -9.449765270e-01  6.154807948e-02 -1.722444979e-02
5.300000000  6.126268660e-02 -1.771302598e-02 -2.703175810e-01 -9.426641981e-01 -2.703175810e-01 -9.426641981e-01  6.126268660e-02 -1.771302598e-02
5.325000000  6.096876891e-02 -1.819665760e-02 -2.785316784e-01 -9.402803053e-01 -2.785316784e-01 -9.402803053e-01  6.096876891e-02 -1.819665760e-02
5.350000000  6.066641179e-02 -1.867518488e-02 -2.867251542e-01 -9.378250130e-01 -2.867251542e-01 -9.378250130e-01  6.066641179e-02 -1.867518488e-02
5.375000000  6.035572829e-02 -1.914837367e-02 -2.948974020e-01 -9.352984864e-01 -2.948974020e-01 -9.352984864e-01  6.035572829e-02 -1.914837367e-02
5.400000000  6.003681655e-02 -1.961608397e-02 -3.030478047e-01 -9.327009009e-01 -3.030478047e-01 -9.327009009e-01  6.003681655e-02 -1.961608397e-02
5.425000000  5.970974986e-02 -2.007813677e-02 -3.111757235e-01 -9.300324469e-01 -3.111757235e-01 -9.300324469e-01  5.970974986e-02 -2.007813677e-02
5.450000000  5.937462975e-02 -2.053437944e-02 -3.192805198e-01 -9.272933203e-01 -3.192805198e-01 -9.272933203e-01  5.937462975e-02 -2.053437944e-02
5.475000000  5.903153166e-02 -2.098471274e-02 -3.273616084e-01 -9.244837068e-01 -3.273616084e-01 -9.244837068e-01  5.903153166e-02 -2.098471274e-02
5.500000000  5.868053706e-02 -2.142901720e-02 -3.354183266e-01 -9.216038252e-01 -3.354183266e-01 -9.216038252e-01  5.868053706e-02 -2.142901720e-02
5.525000000  5.832173029e-02 -2.186724301e-02 -3.434500745e-01 -9.186538791e-01 -3.434500745e-01 -9.186538791e-01  5.832173029e-02 -2.186724301e-02
5.550000000  5.795523361e-02 -2.229926039e-02 -3.514562841e-01 -9.156340627e-01 -3.514562841e-01 -9.156340627e-01  5.795523361e-02 -2.229926039e-02
5.575000000  5.758118500e-02 -2.272482649e-02 -3.594363940e-01 -9.125445709e-01 -3.594363940e-01 -9.125445709e-01  5.758118500e-02 -2.272482649e-02
5.600000000  5.719970736e-02 -2.314393430e-02 -3.673897910e-01 -9.093856252e-01 -3.673897910e-01 -9.093856252e-01  5.719970736e-02 -2.314393430e-02
5.625000000  5.681089904e-02 -2.355630975e-02 -3.753158873e-01 -9.061574445e-01 -3.753158873e-01 -9.061574445e-01  5.681089904e-02 -2.355630975e-02
5.650000000  5.641493372e-02 -2.396183041e-02 -3.832140630e-01 -9.028602609e-01 -3.832140630e-01 -9.028602609e-01  5.641493372e-02 -2.396183041e-02
5.675000000  5.601186460e-02 -2.436036785e-02 -3.910837444e-01 -8.994943021e-01 -3.910837444e-01 -8.994943021e-01  5.601186460e-02 -2.436036785e-02
5.700000000  5.560181539e-02 -2.475176208e-02 -3.989242320e-01 -8.960598514e-01 -3.989242320e-01 -8.960598514e-01  5.560181539e-02 -2.475176208e-02
5.725000000  5.518489897e-02 -2.513592541e-02 -4.067350346e-01 -8.925571076e-01 -4.067350346e-01 -8.925571076e-01  5.518489897e-02 -2.513592541e-02
5.750000000  5.476119490e-02 -2.551277297e-02 -4.145154717e-01 -8.889863620e-01 -4.145154717e-01 -8.889863620e-01  5.476119490e-02 -2.551277297e-02
5.775000000  5.433082044e-02 -2.588223351e-02 -4.222649742e-01 -8.853478594e-01 -4.222649742e-01 -8.853478594e-01  5.433082044e-02 -2.588223351e-02
5.800000000  5.389392629e-02 -2.624422664e-02 -4.299829932e-01 -8.816418369e-01 -4.299829932e-01 -8.816418369e-01  5.389392629e-02 -2.624422664e-02
5.825000000  5.345065937e-02 -2.659853858e-02 -4.376689696e-01 -8.778685412e-01 -4.376689696e-01 -8.778685412e-01  5.345065937e-02 -2.659853858e-02
5.850000000  5.300119366e-02 -2.694511418e-02 -4.453223269e-01 -8.740282308e-01 -4.453223269e-01 -8.740282308e-01  5.300119366e-02 -2.694511418e-02
5.875000000  5.254564241e-02 -2.728378738e-02 -4.529424817e-01 -8.701211780e-01 -4.529424817e-01 -8.701211780e-01  5.254564241e-02 -2.728378738e-02
5.900000000  5.208417665e-02 -2.761440556e-02 -4.605288295e-01 -8.661476685e-01 -4.605288295e-01 -8.661476685e-01  5.208417665e-02 -2.761440556e-02
5.925000000  5.161691445e-02 -2.793687006e-02 -4.680808004e-01 -8.621079806e-01 -4.680808004e-01 -8.621079806e-01  5.161691445e-02 -2.793687006e-02
5.950000000  5.114396255e-02 -2.825106619e-02 -4.755977606e-01 -8.580024354e-01 -4.755977606e-01 -8.580024354e-01  5.114396255e-02 -2.825106619e-02
5.975000000  5.066546422e-02 -2.855689763e-02 -4.830791498e-01 -8.538313188e-01 -4.830791498e-01 -8.538313188e-01  5.066546422e-02 -2.855689763e-02
6.000000000  5.018154470e-02 -2.885429651e-02 -4.905244064e-01 -8.495949254e-01 -4.905244064e-01 -8.495949254e-01  5.018154470e-02 -2.885429651e-02
6.025000000  4.969230801e-02 -2.914324129e-02 -4.979329044e-01 -8.452935956e-01 -4.979329044e-01 -8.452935956e-01  4.969230801e-02 -2.914324129e-02
6.050000000  4.919796197e-02 -2.942360800e-02 -5.053041626e-01 -8.409275844e-01 -5.053041626e-01 -8.409275844e-01  4.919796197e-02 -2.942360800e-02
6.075000000  4.869865379e-02 -2.969533619e-02 -5.126376095e-01 -8.364972094e-01 -5.126376095e-01 -8.364972094e-01  4.869865379e-02 -2.969533619e-02
6.100000000  4.819456610e-02 -2.995827622e-02 -5.199327042e-01 -8.320027736e-01 -5.199327042e-01 -8.320027736e-01  4.819456610e-02 -2.995827622e-02
6.125000000  4.768588093e-02 -3.021238111e-02 -5.271888896e-01 -8.274445963e-01 -5.271888896e-01 -8.274445963e-01  4.768588093e-02 -3.021238111e-02
6.150000000  4.717271041e-02 -3.045749588e-02 -5.344055913e-01 -8.228230196e-01 -5.344055913e-01 -8.228230196e-01  4.717271041e-02 -3.045749588e-02
6.175000000  4.665524605e-02 -3.069353015e-02 -5.415822282e-01 -8.181383914e-01 -5.415822282e-01 -8.181383914e-01  4.665524605e-02 -3.069353015e-02
6.200000000  4.613357864e-02 -3.092042299e-02 -5.487182681e-01 -8.133910424e-01 -5.487182681e-01 -8.133910424e-01  4.613357864e-02 -3.092042299e-02
6.225000000  4.560783859e-02 -3.113807831e-02 -5.558130727e-01 -8.085813787e-01 -5.558130727e-01 -8.085813787e-01  4.560783859e-02 -3.113807831e-02
6.250000000  4.507820591e-02 -3.134645411e-02 -5.628662002e-01 -8.037096749e-01 -5.628662002e-01 -8.037096749e-01  4.507820591e-02 -3.134645411e-02
6.275000000  4.454477487e-02 -3.154555125e-02 -5.698770137e-01 -7.987763536e-01 -5.698770137e-01 -7.987763536e-01  4.454477487e-02 -3.154555125e-02
6.300000000  4.400777666e-02 -3.173521549e-02 -5.768450763e-01 -7.937816909e-01 -5.768450763e-01 -7.937816909e-01  4.400777666e-02 -3.173521549e-02
6.325000000  4.346739579e-02 -3.191554182e-02 -5.837698311e-01 -7.887260571e-01 -5.837698311e-01 -7.887260571e-01  4.346739579e-02 -3.191554182e-02
6.350000000  4.292377557e-02 -3.208630240e-02 -5.906507596e-01 -7.836098039e-01 -5.906507596e-01 -7.836098039e-01  4.292377557e-02 -3.208630240e-02
6.375000000  4.237718723e-02 -3.224751834e-02 -5.974873355e-01 -7.784332840e-01 -5.974873355e-01 -7.784332840e-01  4.237718723e-02 -3.224751834e-02
6.400000000  4.182770175e-02 -3.239906131e-02 -6.042790186e-01 -7.731968847e-01 -6.042790186e-01 -7.731968847e-01  4.182770175e-02 -3.239906131e-02
6.425000000  4.127552775e-02 -3.254084292e-02 -6.110252186e-01 -7.679010292e-01 -6.110252186e-01 -7.679010292e-01  4.127552775e-02 -3.254084292e-02
6.450000000  4.072079372e-02 -3.267283815e-02 -6.177254574e-01 -7.625460673e-01 -6.177254574e-01 -7.625460673e-01  4.072079372e-02 -3.267283815e-02
6.475000000  4.016361938e-02 -3.279497609e-02 -6.243791247e-01 -7.571324644e-01 -6.243791247e-01 -7.571324644e-01  4.016361938e-02 -3.279497609e-02
6.500000000  3.960420461e-02 -3.290723077e-02 -6.309857680e-01 -7.516605590e-01 -6.309857680e-01 -7.516605590e-01  3.960420461e-02 -3.290723077e-02
6.525000000  3.904267619e-02 -3.300963512e-02 -6.375448128e-01 -7.461308049e-01 -6.375448128e-01 -7.461308049e-01  3.904267619e-02 -3.300963512e-02
6.550000000  3.847926214e-02 -3.310210546e-02 -6.440558231e-01 -7.405435382e-01 -6.440558231e-01 -7.405435382e-01  3.847926214e-02 -3.310210546e-02
6.575000000  3.791418520e-02 -3.318468342e-02 -6.505183031e-01 -7.348991519e-01 -6.505183031e-01 -7.348991519e-01  3.791418520e-02 -3.318468342e-02
6.600000000  3.734760614e-02 -3.325730546e-02 -6.569317452e-01 -7.291980629e-01 -6.569317452e-01 -7.291980629e-01  3.734760614e-02 -3.325730546e-02
6.625000000  3.677973764e-02 -3.331992423e-02 -6.632956471e-01 -7.234406869e-01 -6.632956471e-01 -7.234406869e-01  3.677973764e-02 -3.331992423e-02
6.650000000  3.621074621e-02 -3.337251658e-02 -6.696095100e-01 -7.176274485e-01 -6.696095100e-01 -7.176274485e-01  3.621074621e-02 -3.337251658e-02
6.675000000  3.564075198e-02 -3.341499978e-02 -6.758727972e-01 -7.117588211e-01 -6.758727972e-01 -7.117588211e-01  3.564075198e-02 -3.341499978e-02
6.700000000  3.506992844e-02 -3.344735138e-02 -6.820850086e-01 -7.058352481e-01 -6.820850086e-01 -7.058352481e-01  3.506992844e-02 -3.344735138e-02
6.725000000  3.449840275e-02 -3.346956289e-02 -6.882456598e-01 -6.998571703e-01 -6.882456598e-01 -6.998571703e-01  3.449840275e-02 -3.346956289e-02
6.750000000  3.392632534e-02 -3.348160184e-02 -6.943542310e-01 -6.938250686e-01 -6.943542310e-01 -6.938250686e-01  3.392632534e-02 -3.348160184e-02
6.775000000  3.335391688e-02 -3.348351182e-02 -7.004103150e-01 -6.877393126e-01 -7.004103150e-01 -6.877393126e-01  3.335391688e-02 -3.348351182e-02
6.800000000  3.278134593e-02 -3.347531848e-02 -7.064134086e-01 -6.816003777e-01 -7.064134086e-01 -6.816003777e-01  3.278134593e-02 -3.347531848e-02
6.825000000  3.220882806e-02 -3.345698322e-02 -7.123630892e-01 -6.754086589e-01 -7.123630892e-01 -6.754086589e-01  3.220882806e-02 -3.345698322e-02
6.850000000  3.163661538e-02 -3.342861386e-02 -7.182589012e-01 -6.691645860e-01 -7.182589012e-01 -6.691645860e-01  3.163661538e-02 -3.342861386e-02
6.875000000  3.106480125e-02 -3.339007003e-02 -7.241003549e-01 -6.628686480e-01 -7.241003549e-01 -6.628686480e-01  3.106480125e-02 -3.339007003e-02
6.900000000  3.049365772e-02 -3.334142636e-02 -7.298869808e-01 -6.565213028e-01 -7.298869808e-01 -6.565213028e-01  3.049365772e-02 -3.334142636e-02
6.925000000  2.992325050e-02 -3.328260620e-02 -7.356183170e-01 -6.501230295e-01 -7.356183170e-01 -6.501230295e-01  2.992325050e-02 -3.328260620e-02
6.950000000  2.935373748e-02 -3.321354930e-02 -7.412938029e-01 -6.436744198e-01 -7.412938029e-01 -6.436744198e-01  2.935373748e-02 -3.321354930e-02
6.975000000  2.878531883e-02 -3.313434071e-02 -7.469130906e-01 -6.371758296e-01 -7.469130906e-01 -6.371758296e-01  2.878531883e-02 -3.313434071e-02
7.000000000  2.821810635e-02 -3.304492196e-02 -7.524756276e-01 -6.306278693e-01 -7.524756276e-01 -6.306278693e-01  2.821810635e-02 -3.304492196e-02
