! yapnr Order 0 O0-W: O0-W B02 W dL5 (line, family W)
! stackup OSHPARK-4L-EM528, nominal parameters; geometry of the OSHPARK-4L-FR408HR design
! model: 2D quasi-static RLGC (Djordjevic-Sarkar, Huray roughness, Wheeler loss); generated by python -m yapnr.rf.coupons expected --stackup OSHPARK-4L-FR408HR --upload W
! reference planes 10 mm from each end; 50 ohm (from the W line's Zc)
# GHz S DB R 50
0.03 -69.753 -86.53 -0.00040874 -0.32 -0.00040874 -0.32 -69.753 -86.53
0.06 -63.643 -88.62 -0.00064584 -0.63 -0.00064584 -0.63 -63.643 -88.62
0.09 -60.1 -89.69 -0.00085742 -0.94 -0.00085742 -0.94 -60.1 -89.69
0.12 -57.598 -90.45 -0.0010564 -1.26 -0.0010564 -1.26 -57.598 -90.45
0.15 -55.664 -91.06 -0.0012478 -1.57 -0.0012478 -1.57 -55.664 -91.06
0.18 -54.087 -91.59 -0.0014342 -1.88 -0.0014342 -1.88 -54.087 -91.59
0.21 -52.756 -92.08 -0.001617 -2.20 -0.001617 -2.20 -52.756 -92.08
0.24 -51.604 -92.53 -0.0017973 -2.51 -0.0017973 -2.51 -51.604 -92.53
0.27 -50.59 -92.95 -0.0019756 -2.82 -0.0019756 -2.82 -50.59 -92.95
0.3 -49.684 -93.36 -0.0021525 -3.14 -0.0021525 -3.14 -49.684 -93.36
0.33 -48.865 -93.76 -0.0023283 -3.45 -0.0023283 -3.45 -48.865 -93.76
0.36 -48.118 -94.14 -0.0025034 -3.76 -0.0025034 -3.76 -48.118 -94.14
0.39 -47.431 -94.52 -0.0026778 -4.08 -0.0026778 -4.08 -47.431 -94.52
0.42 -46.796 -94.88 -0.0028518 -4.39 -0.0028518 -4.39 -46.796 -94.88
0.45 -46.205 -95.25 -0.0030256 -4.70 -0.0030256 -4.70 -46.205 -95.25
0.48 -45.653 -95.60 -0.0031992 -5.02 -0.0031992 -5.02 -45.653 -95.60
0.51 -45.134 -95.96 -0.0033728 -5.33 -0.0033728 -5.33 -45.134 -95.96
0.54 -44.646 -96.31 -0.0035464 -5.64 -0.0035464 -5.64 -44.646 -96.31
0.57 -44.184 -96.66 -0.0037201 -5.95 -0.0037201 -5.95 -44.184 -96.66
0.6 -43.746 -97.00 -0.0038939 -6.27 -0.0038939 -6.27 -43.746 -97.00
0.63 -43.33 -97.34 -0.004068 -6.58 -0.004068 -6.58 -43.33 -97.34
0.66 -42.933 -97.68 -0.0042423 -6.89 -0.0042423 -6.89 -42.933 -97.68
0.69 -42.554 -98.02 -0.0044169 -7.21 -0.0044169 -7.21 -42.554 -98.02
0.72 -42.192 -98.36 -0.0045918 -7.52 -0.0045918 -7.52 -42.192 -98.36
0.75 -41.845 -98.70 -0.0047671 -7.83 -0.0047671 -7.83 -41.845 -98.70
0.78 -41.511 -99.03 -0.0049427 -8.15 -0.0049427 -8.15 -41.511 -99.03
0.81 -41.19 -99.36 -0.0051188 -8.46 -0.0051188 -8.46 -41.19 -99.36
0.84 -40.882 -99.70 -0.0052953 -8.77 -0.0052953 -8.77 -40.882 -99.70
0.87 -40.584 -100.03 -0.0054723 -9.09 -0.0054723 -9.09 -40.584 -100.03
0.9 -40.296 -100.36 -0.0056497 -9.40 -0.0056497 -9.40 -40.296 -100.36
0.93 -40.018 -100.69 -0.0058276 -9.71 -0.0058276 -9.71 -40.018 -100.69
0.96 -39.75 -101.01 -0.0060059 -10.03 -0.0060059 -10.03 -39.75 -101.01
0.99 -39.489 -101.34 -0.0061848 -10.34 -0.0061848 -10.34 -39.489 -101.34
1.02 -39.237 -101.67 -0.0063642 -10.65 -0.0063642 -10.65 -39.237 -101.67
1.05 -38.992 -102.00 -0.0065441 -10.97 -0.0065441 -10.97 -38.992 -102.00
1.08 -38.754 -102.32 -0.0067245 -11.28 -0.0067245 -11.28 -38.754 -102.32
1.11 -38.523 -102.65 -0.0069054 -11.59 -0.0069054 -11.59 -38.523 -102.65
1.14 -38.298 -102.97 -0.0070869 -11.91 -0.0070869 -11.91 -38.298 -102.97
1.17 -38.079 -103.30 -0.0072689 -12.22 -0.0072689 -12.22 -38.079 -103.30
1.2 -37.866 -103.62 -0.0074515 -12.54 -0.0074515 -12.54 -37.866 -103.62
1.23 -37.658 -103.95 -0.0076346 -12.85 -0.0076346 -12.85 -37.658 -103.95
1.26 -37.456 -104.27 -0.0078183 -13.16 -0.0078183 -13.16 -37.456 -104.27
1.29 -37.259 -104.60 -0.0080026 -13.48 -0.0080026 -13.48 -37.259 -104.60
1.32 -37.066 -104.92 -0.0081873 -13.79 -0.0081873 -13.79 -37.066 -104.92
1.35 -36.877 -105.24 -0.0083727 -14.10 -0.0083727 -14.10 -36.877 -105.24
1.38 -36.694 -105.57 -0.0085586 -14.42 -0.0085586 -14.42 -36.694 -105.57
1.41 -36.514 -105.89 -0.0087451 -14.73 -0.0087451 -14.73 -36.514 -105.89
1.44 -36.338 -106.21 -0.0089321 -15.05 -0.0089321 -15.05 -36.338 -106.21
1.47 -36.166 -106.53 -0.0091197 -15.36 -0.0091197 -15.36 -36.166 -106.53
1.5 -35.997 -106.85 -0.0093079 -15.67 -0.0093079 -15.67 -35.997 -106.85
1.53 -35.832 -107.18 -0.0094966 -15.99 -0.0094966 -15.99 -35.832 -107.18
1.56 -35.671 -107.50 -0.0096858 -16.30 -0.0096858 -16.30 -35.671 -107.50
1.59 -35.513 -107.82 -0.0098757 -16.62 -0.0098757 -16.62 -35.513 -107.82
1.62 -35.357 -108.14 -0.010066 -16.93 -0.010066 -16.93 -35.357 -108.14
1.65 -35.205 -108.46 -0.010257 -17.25 -0.010257 -17.25 -35.205 -108.46
1.68 -35.056 -108.78 -0.010448 -17.56 -0.010448 -17.56 -35.056 -108.78
1.71 -34.91 -109.10 -0.01064 -17.87 -0.01064 -17.87 -34.91 -109.10
1.74 -34.766 -109.42 -0.010833 -18.19 -0.010833 -18.19 -34.766 -109.42
1.77 -34.625 -109.74 -0.011026 -18.50 -0.011026 -18.50 -34.625 -109.74
1.8 -34.486 -110.06 -0.01122 -18.82 -0.01122 -18.82 -34.486 -110.06
1.83 -34.35 -110.38 -0.011414 -19.13 -0.011414 -19.13 -34.35 -110.38
1.86 -34.217 -110.70 -0.011609 -19.45 -0.011609 -19.45 -34.217 -110.70
1.89 -34.085 -111.02 -0.011804 -19.76 -0.011804 -19.76 -34.085 -111.02
1.92 -33.956 -111.34 -0.012 -20.08 -0.012 -20.08 -33.956 -111.34
1.95 -33.829 -111.66 -0.012196 -20.39 -0.012196 -20.39 -33.829 -111.66
1.98 -33.704 -111.98 -0.012393 -20.71 -0.012393 -20.71 -33.704 -111.98
2.01 -33.582 -112.30 -0.01259 -21.02 -0.01259 -21.02 -33.582 -112.30
2.04 -33.461 -112.62 -0.012788 -21.34 -0.012788 -21.34 -33.461 -112.62
2.07 -33.342 -112.94 -0.012986 -21.65 -0.012986 -21.65 -33.342 -112.94
2.1 -33.225 -113.26 -0.013185 -21.97 -0.013185 -21.97 -33.225 -113.26
2.13 -33.11 -113.58 -0.013384 -22.28 -0.013384 -22.28 -33.11 -113.58
2.16 -32.996 -113.90 -0.013584 -22.60 -0.013584 -22.60 -32.996 -113.90
2.19 -32.885 -114.22 -0.013784 -22.91 -0.013784 -22.91 -32.885 -114.22
2.22 -32.775 -114.54 -0.013985 -23.23 -0.013985 -23.23 -32.775 -114.54
2.25 -32.666 -114.86 -0.014186 -23.54 -0.014186 -23.54 -32.666 -114.86
2.28 -32.56 -115.18 -0.014388 -23.86 -0.014388 -23.86 -32.56 -115.18
2.31 -32.455 -115.50 -0.01459 -24.17 -0.01459 -24.17 -32.455 -115.50
2.34 -32.351 -115.82 -0.014793 -24.49 -0.014793 -24.49 -32.351 -115.82
2.37 -32.249 -116.14 -0.014996 -24.81 -0.014996 -24.81 -32.249 -116.14
2.4 -32.148 -116.46 -0.015199 -25.12 -0.015199 -25.12 -32.148 -116.46
2.43 -32.049 -116.78 -0.015403 -25.44 -0.015403 -25.44 -32.049 -116.78
2.46 -31.951 -117.10 -0.015607 -25.75 -0.015607 -25.75 -31.951 -117.10
2.49 -31.855 -117.42 -0.015812 -26.07 -0.015812 -26.07 -31.855 -117.42
2.52 -31.76 -117.74 -0.016017 -26.39 -0.016017 -26.39 -31.76 -117.74
2.55 -31.666 -118.06 -0.016223 -26.70 -0.016223 -26.70 -31.666 -118.06
2.58 -31.573 -118.38 -0.016428 -27.02 -0.016428 -27.02 -31.573 -118.38
2.61 -31.482 -118.70 -0.016635 -27.33 -0.016635 -27.33 -31.482 -118.70
2.64 -31.392 -119.01 -0.016841 -27.65 -0.016841 -27.65 -31.392 -119.01
2.67 -31.303 -119.33 -0.017049 -27.97 -0.017049 -27.97 -31.303 -119.33
2.7 -31.215 -119.65 -0.017256 -28.28 -0.017256 -28.28 -31.215 -119.65
2.73 -31.129 -119.97 -0.017464 -28.60 -0.017464 -28.60 -31.129 -119.97
2.76 -31.043 -120.29 -0.017672 -28.91 -0.017672 -28.91 -31.043 -120.29
2.79 -30.959 -120.61 -0.017881 -29.23 -0.017881 -29.23 -30.959 -120.61
2.82 -30.876 -120.93 -0.018089 -29.55 -0.018089 -29.55 -30.876 -120.93
2.85 -30.793 -121.25 -0.018299 -29.86 -0.018299 -29.86 -30.793 -121.25
2.88 -30.712 -121.57 -0.018508 -30.18 -0.018508 -30.18 -30.712 -121.57
2.91 -30.632 -121.89 -0.018718 -30.50 -0.018718 -30.50 -30.632 -121.89
2.94 -30.553 -122.21 -0.018928 -30.81 -0.018928 -30.81 -30.553 -122.21
2.97 -30.475 -122.53 -0.019139 -31.13 -0.019139 -31.13 -30.475 -122.53
3 -30.397 -122.85 -0.019349 -31.45 -0.019349 -31.45 -30.397 -122.85
3.03 -30.321 -123.17 -0.01956 -31.76 -0.01956 -31.76 -30.321 -123.17
3.06 -30.246 -123.49 -0.019772 -32.08 -0.019772 -32.08 -30.246 -123.49
3.09 -30.171 -123.80 -0.019983 -32.40 -0.019983 -32.40 -30.171 -123.80
3.12 -30.098 -124.12 -0.020195 -32.72 -0.020195 -32.72 -30.098 -124.12
3.15 -30.025 -124.44 -0.020407 -33.03 -0.020407 -33.03 -30.025 -124.44
3.18 -29.953 -124.76 -0.02062 -33.35 -0.02062 -33.35 -29.953 -124.76
3.21 -29.883 -125.08 -0.020832 -33.67 -0.020832 -33.67 -29.883 -125.08
3.24 -29.812 -125.40 -0.021045 -33.98 -0.021045 -33.98 -29.812 -125.40
3.27 -29.743 -125.72 -0.021258 -34.30 -0.021258 -34.30 -29.743 -125.72
3.3 -29.675 -126.04 -0.021471 -34.62 -0.021471 -34.62 -29.675 -126.04
3.33 -29.607 -126.36 -0.021685 -34.94 -0.021685 -34.94 -29.607 -126.36
3.36 -29.54 -126.68 -0.021899 -35.25 -0.021899 -35.25 -29.54 -126.68
3.39 -29.474 -127.00 -0.022112 -35.57 -0.022112 -35.57 -29.474 -127.00
3.42 -29.409 -127.32 -0.022326 -35.89 -0.022326 -35.89 -29.409 -127.32
3.45 -29.344 -127.64 -0.022541 -36.21 -0.022541 -36.21 -29.344 -127.64
3.48 -29.28 -127.96 -0.022755 -36.52 -0.022755 -36.52 -29.28 -127.96
3.51 -29.217 -128.28 -0.022969 -36.84 -0.022969 -36.84 -29.217 -128.28
3.54 -29.155 -128.60 -0.023184 -37.16 -0.023184 -37.16 -29.155 -128.60
3.57 -29.093 -128.92 -0.023399 -37.48 -0.023399 -37.48 -29.093 -128.92
3.6 -29.032 -129.24 -0.023614 -37.80 -0.023614 -37.80 -29.032 -129.24
3.63 -28.972 -129.56 -0.023829 -38.11 -0.023829 -38.11 -28.972 -129.56
3.66 -28.912 -129.88 -0.024044 -38.43 -0.024044 -38.43 -28.912 -129.88
3.69 -28.854 -130.20 -0.024259 -38.75 -0.024259 -38.75 -28.854 -130.20
3.72 -28.795 -130.52 -0.024475 -39.07 -0.024475 -39.07 -28.795 -130.52
3.75 -28.738 -130.84 -0.02469 -39.39 -0.02469 -39.39 -28.738 -130.84
3.78 -28.681 -131.16 -0.024905 -39.71 -0.024905 -39.71 -28.681 -131.16
3.81 -28.624 -131.48 -0.025121 -40.02 -0.025121 -40.02 -28.624 -131.48
3.84 -28.569 -131.80 -0.025337 -40.34 -0.025337 -40.34 -28.569 -131.80
3.87 -28.514 -132.12 -0.025552 -40.66 -0.025552 -40.66 -28.514 -132.12
3.9 -28.459 -132.44 -0.025768 -40.98 -0.025768 -40.98 -28.459 -132.44
3.93 -28.405 -132.76 -0.025984 -41.30 -0.025984 -41.30 -28.405 -132.76
3.96 -28.352 -133.08 -0.026199 -41.62 -0.026199 -41.62 -28.352 -133.08
3.99 -28.299 -133.40 -0.026415 -41.94 -0.026415 -41.94 -28.299 -133.40
4.02 -28.247 -133.72 -0.026631 -42.26 -0.026631 -42.26 -28.247 -133.72
4.05 -28.196 -134.04 -0.026847 -42.57 -0.026847 -42.57 -28.196 -134.04
4.08 -28.145 -134.36 -0.027062 -42.89 -0.027062 -42.89 -28.145 -134.36
4.11 -28.094 -134.68 -0.027278 -43.21 -0.027278 -43.21 -28.094 -134.68
4.14 -28.045 -135.00 -0.027493 -43.53 -0.027493 -43.53 -28.045 -135.00
4.17 -27.995 -135.33 -0.027709 -43.85 -0.027709 -43.85 -27.995 -135.33
4.2 -27.947 -135.65 -0.027925 -44.17 -0.027925 -44.17 -27.947 -135.65
4.23 -27.898 -135.97 -0.02814 -44.49 -0.02814 -44.49 -27.898 -135.97
4.26 -27.851 -136.29 -0.028355 -44.81 -0.028355 -44.81 -27.851 -136.29
4.29 -27.804 -136.61 -0.028571 -45.13 -0.028571 -45.13 -27.804 -136.61
4.32 -27.757 -136.93 -0.028786 -45.45 -0.028786 -45.45 -27.757 -136.93
4.35 -27.711 -137.25 -0.029001 -45.77 -0.029001 -45.77 -27.711 -137.25
4.38 -27.665 -137.57 -0.029216 -46.09 -0.029216 -46.09 -27.665 -137.57
4.41 -27.62 -137.89 -0.029431 -46.41 -0.029431 -46.41 -27.62 -137.89
4.44 -27.576 -138.21 -0.029646 -46.73 -0.029646 -46.73 -27.576 -138.21
4.47 -27.531 -138.53 -0.02986 -47.05 -0.02986 -47.05 -27.531 -138.53
4.5 -27.488 -138.86 -0.030075 -47.37 -0.030075 -47.37 -27.488 -138.86
4.53 -27.445 -139.18 -0.030289 -47.69 -0.030289 -47.69 -27.445 -139.18
4.56 -27.402 -139.50 -0.030503 -48.01 -0.030503 -48.01 -27.402 -139.50
4.59 -27.36 -139.82 -0.030717 -48.33 -0.030717 -48.33 -27.36 -139.82
4.62 -27.318 -140.14 -0.030931 -48.65 -0.030931 -48.65 -27.318 -140.14
4.65 -27.277 -140.46 -0.031144 -48.97 -0.031144 -48.97 -27.277 -140.46
4.68 -27.236 -140.78 -0.031358 -49.29 -0.031358 -49.29 -27.236 -140.78
4.71 -27.196 -141.10 -0.031571 -49.61 -0.031571 -49.61 -27.196 -141.10
4.74 -27.156 -141.43 -0.031784 -49.93 -0.031784 -49.93 -27.156 -141.43
4.77 -27.117 -141.75 -0.031996 -50.25 -0.031996 -50.25 -27.117 -141.75
4.8 -27.078 -142.07 -0.032209 -50.57 -0.032209 -50.57 -27.078 -142.07
4.83 -27.039 -142.39 -0.032421 -50.89 -0.032421 -50.89 -27.039 -142.39
4.86 -27.001 -142.71 -0.032633 -51.21 -0.032633 -51.21 -27.001 -142.71
4.89 -26.963 -143.03 -0.032844 -51.53 -0.032844 -51.53 -26.963 -143.03
4.92 -26.926 -143.36 -0.033056 -51.85 -0.033056 -51.85 -26.926 -143.36
4.95 -26.889 -143.68 -0.033267 -52.18 -0.033267 -52.18 -26.889 -143.68
4.98 -26.853 -144.00 -0.033477 -52.50 -0.033477 -52.50 -26.853 -144.00
5.01 -26.817 -144.32 -0.033688 -52.82 -0.033688 -52.82 -26.817 -144.32
5.04 -26.782 -144.64 -0.033898 -53.14 -0.033898 -53.14 -26.782 -144.64
5.07 -26.746 -144.97 -0.034108 -53.46 -0.034108 -53.46 -26.746 -144.97
5.1 -26.712 -145.29 -0.034317 -53.78 -0.034317 -53.78 -26.712 -145.29
5.13 -26.677 -145.61 -0.034526 -54.10 -0.034526 -54.10 -26.677 -145.61
5.16 -26.643 -145.93 -0.034735 -54.42 -0.034735 -54.42 -26.643 -145.93
5.19 -26.61 -146.26 -0.034944 -54.75 -0.034944 -54.75 -26.61 -146.26
5.22 -26.577 -146.58 -0.035152 -55.07 -0.035152 -55.07 -26.577 -146.58
5.25 -26.544 -146.90 -0.035359 -55.39 -0.035359 -55.39 -26.544 -146.90
5.28 -26.512 -147.22 -0.035566 -55.71 -0.035566 -55.71 -26.512 -147.22
5.31 -26.48 -147.55 -0.035773 -56.03 -0.035773 -56.03 -26.48 -147.55
5.34 -26.448 -147.87 -0.03598 -56.36 -0.03598 -56.36 -26.448 -147.87
5.37 -26.417 -148.19 -0.036186 -56.68 -0.036186 -56.68 -26.417 -148.19
5.4 -26.386 -148.51 -0.036391 -57.00 -0.036391 -57.00 -26.386 -148.51
5.43 -26.356 -148.84 -0.036597 -57.32 -0.036597 -57.32 -26.356 -148.84
5.46 -26.326 -149.16 -0.036801 -57.64 -0.036801 -57.64 -26.326 -149.16
5.49 -26.296 -149.48 -0.037006 -57.97 -0.037006 -57.97 -26.296 -149.48
5.52 -26.267 -149.81 -0.037209 -58.29 -0.037209 -58.29 -26.267 -149.81
5.55 -26.238 -150.13 -0.037413 -58.61 -0.037413 -58.61 -26.238 -150.13
5.58 -26.21 -150.45 -0.037616 -58.93 -0.037616 -58.93 -26.21 -150.45
5.61 -26.181 -150.77 -0.037818 -59.26 -0.037818 -59.26 -26.181 -150.77
5.64 -26.154 -151.10 -0.03802 -59.58 -0.03802 -59.58 -26.154 -151.10
5.67 -26.126 -151.42 -0.038221 -59.90 -0.038221 -59.90 -26.126 -151.42
5.7 -26.099 -151.74 -0.038422 -60.22 -0.038422 -60.22 -26.099 -151.74
5.73 -26.072 -152.07 -0.038622 -60.55 -0.038622 -60.55 -26.072 -152.07
5.76 -26.046 -152.39 -0.038822 -60.87 -0.038822 -60.87 -26.046 -152.39
5.79 -26.02 -152.71 -0.039022 -61.19 -0.039022 -61.19 -26.02 -152.71
5.82 -25.994 -153.04 -0.03922 -61.52 -0.03922 -61.52 -25.994 -153.04
5.85 -25.969 -153.36 -0.039419 -61.84 -0.039419 -61.84 -25.969 -153.36
5.88 -25.944 -153.68 -0.039616 -62.16 -0.039616 -62.16 -25.944 -153.68
5.91 -25.919 -154.01 -0.039813 -62.49 -0.039813 -62.49 -25.919 -154.01
5.94 -25.895 -154.33 -0.04001 -62.81 -0.04001 -62.81 -25.895 -154.33
5.97 -25.871 -154.66 -0.040206 -63.13 -0.040206 -63.13 -25.871 -154.66
6 -25.847 -154.98 -0.040401 -63.46 -0.040401 -63.46 -25.847 -154.98
