! yapnr rf coupon B B02: S L2.5 (line, family S)
! stackup JLC06161H-7628, nominal parameters; reference planes 10 mm from each end; 50 ohm (renormalized from the line's Zc)
! model: 2D quasi-static RLGC (Djordjevic-Sarkar, Huray roughness, Wheeler loss); generated by python -m yapnr.rf.coupons expected
# GHz S DB R 50
0.1 -72.78 31.59 -0.003421 -0.66 -0.003421 -0.66 -72.78 31.59
0.2 -70.79 41.67 -0.005302 -1.30 -0.005302 -1.30 -70.79 41.67
0.3 -69.23 51.38 -0.006996 -1.95 -0.006996 -1.95 -69.23 51.38
0.4 -67.69 59.93 -0.00859 -2.59 -0.00859 -2.59 -67.69 59.93
0.5 -66.16 66.93 -0.01012 -3.23 -0.01012 -3.23 -66.16 66.93
0.6 -64.68 72.39 -0.01161 -3.86 -0.01161 -3.86 -64.68 72.39
0.7 -63.28 76.57 -0.01306 -4.50 -0.01306 -4.50 -63.28 76.57
0.8 -61.98 79.75 -0.01448 -5.14 -0.01448 -5.14 -61.98 79.75
0.9 -60.78 82.16 -0.01589 -5.77 -0.01589 -5.77 -60.78 82.16
1 -59.66 83.97 -0.01727 -6.41 -0.01727 -6.41 -59.66 83.97
1.1 -58.63 85.33 -0.01864 -7.04 -0.01864 -7.04 -58.63 85.33
1.2 -57.68 86.35 -0.02 -7.68 -0.02 -7.68 -57.68 86.35
1.3 -56.79 87.09 -0.02134 -8.31 -0.02134 -8.31 -56.79 87.09
1.4 -55.96 87.61 -0.02268 -8.95 -0.02268 -8.95 -55.96 87.61
1.5 -55.19 87.96 -0.024 -9.58 -0.024 -9.58 -55.19 87.96
1.6 -54.46 88.17 -0.02532 -10.21 -0.02532 -10.21 -54.46 88.17
1.7 -53.78 88.27 -0.02662 -10.85 -0.02662 -10.85 -53.78 88.27
1.8 -53.13 88.27 -0.02792 -11.48 -0.02792 -11.48 -53.13 88.27
1.9 -52.52 88.19 -0.02922 -12.11 -0.02922 -12.11 -52.52 88.19
2 -51.94 88.04 -0.03051 -12.74 -0.03051 -12.74 -51.94 88.04
2.1 -51.39 87.84 -0.03179 -13.37 -0.03179 -13.37 -51.39 87.84
2.2 -50.87 87.59 -0.03307 -14.01 -0.03307 -14.01 -50.87 87.59
2.3 -50.37 87.30 -0.03434 -14.64 -0.03434 -14.64 -50.37 87.30
2.4 -49.89 86.98 -0.03561 -15.27 -0.03561 -15.27 -49.89 86.98
2.5 -49.43 86.62 -0.03687 -15.90 -0.03687 -15.90 -49.43 86.62
2.6 -48.99 86.24 -0.03813 -16.53 -0.03813 -16.53 -48.99 86.24
2.7 -48.57 85.83 -0.03939 -17.16 -0.03939 -17.16 -48.57 85.83
2.8 -48.17 85.40 -0.04064 -17.79 -0.04064 -17.79 -48.17 85.40
2.9 -47.78 84.96 -0.04189 -18.42 -0.04189 -18.42 -47.78 84.96
3 -47.41 84.50 -0.04313 -19.05 -0.04313 -19.05 -47.41 84.50
3.1 -47.04 84.02 -0.04437 -19.68 -0.04437 -19.68 -47.04 84.02
3.2 -46.7 83.54 -0.04561 -20.31 -0.04561 -20.31 -46.7 83.54
3.3 -46.36 83.04 -0.04685 -20.94 -0.04685 -20.94 -46.36 83.04
3.4 -46.03 82.53 -0.04808 -21.57 -0.04808 -21.57 -46.03 82.53
3.5 -45.72 82.01 -0.04931 -22.20 -0.04931 -22.20 -45.72 82.01
3.6 -45.41 81.48 -0.05054 -22.83 -0.05054 -22.83 -45.41 81.48
3.7 -45.12 80.95 -0.05177 -23.46 -0.05177 -23.46 -45.12 80.95
3.8 -44.83 80.41 -0.05299 -24.09 -0.05299 -24.09 -44.83 80.41
3.9 -44.55 79.86 -0.05421 -24.72 -0.05421 -24.72 -44.55 79.86
4 -44.28 79.31 -0.05543 -25.35 -0.05543 -25.35 -44.28 79.31
4.1 -44.02 78.75 -0.05665 -25.98 -0.05665 -25.98 -44.02 78.75
4.2 -43.76 78.19 -0.05787 -26.61 -0.05787 -26.61 -43.76 78.19
4.3 -43.51 77.62 -0.05908 -27.23 -0.05908 -27.23 -43.51 77.62
4.4 -43.27 77.05 -0.06029 -27.86 -0.06029 -27.86 -43.27 77.05
4.5 -43.04 76.47 -0.0615 -28.49 -0.0615 -28.49 -43.04 76.47
4.6 -42.81 75.90 -0.06271 -29.12 -0.06271 -29.12 -42.81 75.90
4.7 -42.58 75.31 -0.06391 -29.75 -0.06391 -29.75 -42.58 75.31
4.8 -42.37 74.73 -0.06512 -30.38 -0.06512 -30.38 -42.37 74.73
4.9 -42.15 74.14 -0.06632 -31.00 -0.06632 -31.00 -42.15 74.14
5 -41.95 73.56 -0.06752 -31.63 -0.06752 -31.63 -41.95 73.56
5.1 -41.75 72.96 -0.06872 -32.26 -0.06872 -32.26 -41.75 72.96
5.2 -41.55 72.37 -0.06992 -32.89 -0.06992 -32.89 -41.55 72.37
5.3 -41.36 71.78 -0.07112 -33.52 -0.07112 -33.52 -41.36 71.78
5.4 -41.17 71.18 -0.07232 -34.14 -0.07232 -34.14 -41.17 71.18
5.5 -40.98 70.58 -0.07351 -34.77 -0.07351 -34.77 -40.98 70.58
5.6 -40.8 69.98 -0.0747 -35.40 -0.0747 -35.40 -40.8 69.98
5.7 -40.63 69.38 -0.07589 -36.03 -0.07589 -36.03 -40.63 69.38
5.8 -40.46 68.78 -0.07709 -36.65 -0.07709 -36.65 -40.46 68.78
5.9 -40.29 68.17 -0.07827 -37.28 -0.07827 -37.28 -40.29 68.17
6 -40.13 67.57 -0.07946 -37.91 -0.07946 -37.91 -40.13 67.57
6.1 -39.97 66.96 -0.08065 -38.54 -0.08065 -38.54 -39.97 66.96
6.2 -39.81 66.36 -0.08184 -39.16 -0.08184 -39.16 -39.81 66.36
6.3 -39.66 65.75 -0.08302 -39.79 -0.08302 -39.79 -39.66 65.75
6.4 -39.51 65.14 -0.0842 -40.42 -0.0842 -40.42 -39.51 65.14
6.5 -39.36 64.53 -0.08539 -41.04 -0.08539 -41.04 -39.36 64.53
6.6 -39.21 63.92 -0.08657 -41.67 -0.08657 -41.67 -39.21 63.92
6.7 -39.07 63.31 -0.08775 -42.30 -0.08775 -42.30 -39.07 63.31
6.8 -38.94 62.70 -0.08893 -42.92 -0.08893 -42.92 -38.94 62.70
6.9 -38.8 62.08 -0.09011 -43.55 -0.09011 -43.55 -38.8 62.08
7 -38.67 61.47 -0.09128 -44.18 -0.09128 -44.18 -38.67 61.47
7.1 -38.54 60.86 -0.09246 -44.80 -0.09246 -44.80 -38.54 60.86
7.2 -38.41 60.24 -0.09364 -45.43 -0.09364 -45.43 -38.41 60.24
7.3 -38.29 59.63 -0.09481 -46.06 -0.09481 -46.06 -38.29 59.63
7.4 -38.17 59.01 -0.09598 -46.68 -0.09598 -46.68 -38.17 59.01
7.5 -38.05 58.40 -0.09716 -47.31 -0.09716 -47.31 -38.05 58.40
7.6 -37.93 57.78 -0.09833 -47.94 -0.09833 -47.94 -37.93 57.78
7.7 -37.81 57.17 -0.0995 -48.56 -0.0995 -48.56 -37.81 57.17
7.8 -37.7 56.55 -0.1007 -49.19 -0.1007 -49.19 -37.7 56.55
7.9 -37.59 55.93 -0.1018 -49.81 -0.1018 -49.81 -37.59 55.93
8 -37.49 55.32 -0.103 -50.44 -0.103 -50.44 -37.49 55.32
8.1 -37.38 54.70 -0.1042 -51.07 -0.1042 -51.07 -37.38 54.70
8.2 -37.28 54.08 -0.1053 -51.69 -0.1053 -51.69 -37.28 54.08
8.3 -37.18 53.47 -0.1065 -52.32 -0.1065 -52.32 -37.18 53.47
8.4 -37.08 52.85 -0.1077 -52.94 -0.1077 -52.94 -37.08 52.85
8.5 -36.98 52.23 -0.1088 -53.57 -0.1088 -53.57 -36.98 52.23
8.6 -36.88 51.61 -0.11 -54.19 -0.11 -54.19 -36.88 51.61
8.7 -36.79 50.99 -0.1112 -54.82 -0.1112 -54.82 -36.79 50.99
8.8 -36.7 50.37 -0.1123 -55.45 -0.1123 -55.45 -36.7 50.37
8.9 -36.61 49.76 -0.1135 -56.07 -0.1135 -56.07 -36.61 49.76
9 -36.52 49.14 -0.1146 -56.70 -0.1146 -56.70 -36.52 49.14
9.1 -36.44 48.52 -0.1158 -57.32 -0.1158 -57.32 -36.44 48.52
9.2 -36.35 47.90 -0.117 -57.95 -0.117 -57.95 -36.35 47.90
9.3 -36.27 47.28 -0.1181 -58.57 -0.1181 -58.57 -36.27 47.28
9.4 -36.19 46.66 -0.1193 -59.20 -0.1193 -59.20 -36.19 46.66
9.5 -36.11 46.04 -0.1204 -59.82 -0.1204 -59.82 -36.11 46.04
9.6 -36.03 45.42 -0.1216 -60.45 -0.1216 -60.45 -36.03 45.42
9.7 -35.96 44.80 -0.1227 -61.07 -0.1227 -61.07 -35.96 44.80
9.8 -35.89 44.19 -0.1239 -61.70 -0.1239 -61.70 -35.89 44.19
9.9 -35.81 43.57 -0.1251 -62.32 -0.1251 -62.32 -35.81 43.57
10 -35.74 42.95 -0.1262 -62.95 -0.1262 -62.95 -35.74 42.95
10.1 -35.67 42.33 -0.1274 -63.57 -0.1274 -63.57 -35.67 42.33
10.2 -35.61 41.71 -0.1285 -64.20 -0.1285 -64.20 -35.61 41.71
10.3 -35.54 41.09 -0.1297 -64.82 -0.1297 -64.82 -35.54 41.09
10.4 -35.48 40.47 -0.1308 -65.45 -0.1308 -65.45 -35.48 40.47
10.5 -35.41 39.85 -0.132 -66.07 -0.132 -66.07 -35.41 39.85
10.6 -35.35 39.23 -0.1331 -66.70 -0.1331 -66.70 -35.35 39.23
10.7 -35.29 38.61 -0.1343 -67.32 -0.1343 -67.32 -35.29 38.61
10.8 -35.23 37.99 -0.1354 -67.95 -0.1354 -67.95 -35.23 37.99
10.9 -35.18 37.37 -0.1365 -68.57 -0.1365 -68.57 -35.18 37.37
11 -35.12 36.75 -0.1377 -69.20 -0.1377 -69.20 -35.12 36.75
11.1 -35.07 36.14 -0.1388 -69.82 -0.1388 -69.82 -35.07 36.14
11.2 -35.01 35.52 -0.14 -70.44 -0.14 -70.44 -35.01 35.52
11.3 -34.96 34.90 -0.1411 -71.07 -0.1411 -71.07 -34.96 34.90
11.4 -34.91 34.28 -0.1423 -71.69 -0.1423 -71.69 -34.91 34.28
11.5 -34.86 33.66 -0.1434 -72.32 -0.1434 -72.32 -34.86 33.66
11.6 -34.82 33.04 -0.1445 -72.94 -0.1445 -72.94 -34.82 33.04
11.7 -34.77 32.42 -0.1457 -73.57 -0.1457 -73.57 -34.77 32.42
11.8 -34.73 31.80 -0.1468 -74.19 -0.1468 -74.19 -34.73 31.80
11.9 -34.68 31.18 -0.148 -74.81 -0.148 -74.81 -34.68 31.18
12 -34.64 30.57 -0.1491 -75.44 -0.1491 -75.44 -34.64 30.57
12.1 -34.6 29.95 -0.1502 -76.06 -0.1502 -76.06 -34.6 29.95
12.2 -34.56 29.33 -0.1514 -76.69 -0.1514 -76.69 -34.56 29.33
12.3 -34.52 28.71 -0.1525 -77.31 -0.1525 -77.31 -34.52 28.71
12.4 -34.48 28.09 -0.1536 -77.94 -0.1536 -77.94 -34.48 28.09
12.5 -34.45 27.48 -0.1548 -78.56 -0.1548 -78.56 -34.45 27.48
12.6 -34.41 26.86 -0.1559 -79.18 -0.1559 -79.18 -34.41 26.86
12.7 -34.38 26.24 -0.157 -79.81 -0.157 -79.81 -34.38 26.24
12.8 -34.35 25.62 -0.1582 -80.43 -0.1582 -80.43 -34.35 25.62
12.9 -34.32 25.00 -0.1593 -81.05 -0.1593 -81.05 -34.32 25.00
13 -34.29 24.39 -0.1604 -81.68 -0.1604 -81.68 -34.29 24.39
13.1 -34.26 23.77 -0.1615 -82.30 -0.1615 -82.30 -34.26 23.77
13.2 -34.23 23.15 -0.1627 -82.93 -0.1627 -82.93 -34.23 23.15
13.3 -34.21 22.54 -0.1638 -83.55 -0.1638 -83.55 -34.21 22.54
13.4 -34.18 21.92 -0.1649 -84.17 -0.1649 -84.17 -34.18 21.92
13.5 -34.16 21.30 -0.166 -84.80 -0.166 -84.80 -34.16 21.30
13.6 -34.13 20.69 -0.1672 -85.42 -0.1672 -85.42 -34.13 20.69
13.7 -34.11 20.07 -0.1683 -86.04 -0.1683 -86.04 -34.11 20.07
13.8 -34.09 19.45 -0.1694 -86.67 -0.1694 -86.67 -34.09 19.45
13.9 -34.07 18.84 -0.1705 -87.29 -0.1705 -87.29 -34.07 18.84
14 -34.06 18.22 -0.1716 -87.91 -0.1716 -87.91 -34.06 18.22
14.1 -34.04 17.60 -0.1728 -88.54 -0.1728 -88.54 -34.04 17.60
14.2 -34.02 16.99 -0.1739 -89.16 -0.1739 -89.16 -34.02 16.99
14.3 -34.01 16.37 -0.175 -89.78 -0.175 -89.78 -34.01 16.37
14.4 -34 15.76 -0.1761 -90.41 -0.1761 -90.41 -34 15.76
14.5 -33.98 15.14 -0.1772 -91.03 -0.1772 -91.03 -33.98 15.14
14.6 -33.97 14.53 -0.1783 -91.65 -0.1783 -91.65 -33.97 14.53
14.7 -33.96 13.91 -0.1794 -92.28 -0.1794 -92.28 -33.96 13.91
14.8 -33.95 13.30 -0.1806 -92.90 -0.1806 -92.90 -33.95 13.30
14.9 -33.95 12.68 -0.1817 -93.52 -0.1817 -93.52 -33.95 12.68
15 -33.94 12.07 -0.1828 -94.15 -0.1828 -94.15 -33.94 12.07
15.1 -33.93 11.46 -0.1839 -94.77 -0.1839 -94.77 -33.93 11.46
15.2 -33.93 10.84 -0.185 -95.39 -0.185 -95.39 -33.93 10.84
15.3 -33.93 10.23 -0.1861 -96.02 -0.1861 -96.02 -33.93 10.23
15.4 -33.92 9.62 -0.1872 -96.64 -0.1872 -96.64 -33.92 9.62
15.5 -33.92 9.00 -0.1883 -97.26 -0.1883 -97.26 -33.92 9.00
15.6 -33.92 8.39 -0.1894 -97.88 -0.1894 -97.88 -33.92 8.39
15.7 -33.93 7.78 -0.1905 -98.51 -0.1905 -98.51 -33.93 7.78
15.8 -33.93 7.16 -0.1916 -99.13 -0.1916 -99.13 -33.93 7.16
15.9 -33.93 6.55 -0.1927 -99.75 -0.1927 -99.75 -33.93 6.55
16 -33.94 5.94 -0.1938 -100.38 -0.1938 -100.38 -33.94 5.94
16.1 -33.94 5.33 -0.1949 -101.00 -0.1949 -101.00 -33.94 5.33
16.2 -33.95 4.72 -0.196 -101.62 -0.196 -101.62 -33.95 4.72
16.3 -33.96 4.10 -0.1971 -102.24 -0.1971 -102.24 -33.96 4.10
16.4 -33.97 3.49 -0.1982 -102.87 -0.1982 -102.87 -33.97 3.49
16.5 -33.98 2.88 -0.1993 -103.49 -0.1993 -103.49 -33.98 2.88
16.6 -33.99 2.27 -0.2004 -104.11 -0.2004 -104.11 -33.99 2.27
16.7 -34 1.66 -0.2015 -104.74 -0.2015 -104.74 -34 1.66
16.8 -34.02 1.05 -0.2026 -105.36 -0.2026 -105.36 -34.02 1.05
16.9 -34.03 0.44 -0.2037 -105.98 -0.2037 -105.98 -34.03 0.44
17 -34.05 -0.17 -0.2048 -106.60 -0.2048 -106.60 -34.05 -0.17
17.1 -34.07 -0.78 -0.2058 -107.23 -0.2058 -107.23 -34.07 -0.78
17.2 -34.09 -1.39 -0.2069 -107.85 -0.2069 -107.85 -34.09 -1.39
17.3 -34.11 -1.99 -0.208 -108.47 -0.208 -108.47 -34.11 -1.99
17.4 -34.13 -2.60 -0.2091 -109.09 -0.2091 -109.09 -34.13 -2.60
17.5 -34.15 -3.21 -0.2102 -109.72 -0.2102 -109.72 -34.15 -3.21
17.6 -34.18 -3.82 -0.2113 -110.34 -0.2113 -110.34 -34.18 -3.82
17.7 -34.2 -4.42 -0.2124 -110.96 -0.2124 -110.96 -34.2 -4.42
17.8 -34.23 -5.03 -0.2134 -111.58 -0.2134 -111.58 -34.23 -5.03
17.9 -34.26 -5.64 -0.2145 -112.21 -0.2145 -112.21 -34.26 -5.64
18 -34.28 -6.24 -0.2156 -112.83 -0.2156 -112.83 -34.28 -6.24
