! yapnr rf coupon B B03: S L6.5 (line, family S)
! stackup JLC06161H-7628, nominal parameters; reference planes 10 mm from each end; 50 ohm (renormalized from the line's Zc)
! model: 2D quasi-static RLGC (Djordjevic-Sarkar, Huray roughness, Wheeler loss); generated by python -m yapnr.rf.coupons expected
# GHz S DB R 50
0.1 -64.49 30.54 -0.008895 -1.71 -0.008895 -1.71 -64.49 30.54
0.2 -62.51 39.59 -0.01379 -3.39 -0.01379 -3.39 -62.51 39.59
0.3 -60.95 48.26 -0.01819 -5.06 -0.01819 -5.06 -60.95 48.26
0.4 -59.42 55.80 -0.02234 -6.73 -0.02234 -6.73 -59.42 55.80
0.5 -57.9 61.77 -0.02632 -8.39 -0.02632 -8.39 -57.9 61.77
0.6 -56.44 66.22 -0.03018 -10.05 -0.03018 -10.05 -56.44 66.22
0.7 -55.06 69.38 -0.03396 -11.71 -0.03396 -11.71 -55.06 69.38
0.8 -53.77 71.55 -0.03767 -13.36 -0.03767 -13.36 -53.77 71.55
0.9 -52.59 72.94 -0.04132 -15.01 -0.04132 -15.01 -52.59 72.94
1 -51.5 73.74 -0.04493 -16.67 -0.04493 -16.67 -51.5 73.74
1.1 -50.49 74.09 -0.04849 -18.32 -0.04849 -18.32 -50.49 74.09
1.2 -49.56 74.10 -0.05202 -19.97 -0.05202 -19.97 -49.56 74.10
1.3 -48.7 73.83 -0.05553 -21.61 -0.05553 -21.61 -48.7 73.83
1.4 -47.9 73.34 -0.059 -23.26 -0.059 -23.26 -47.9 73.34
1.5 -47.16 72.68 -0.06245 -24.91 -0.06245 -24.91 -47.16 72.68
1.6 -46.47 71.89 -0.06588 -26.55 -0.06588 -26.55 -46.47 71.89
1.7 -45.82 70.98 -0.06929 -28.20 -0.06929 -28.20 -45.82 70.98
1.8 -45.21 69.97 -0.07269 -29.84 -0.07269 -29.84 -45.21 69.97
1.9 -44.64 68.89 -0.07607 -31.49 -0.07607 -31.49 -44.64 68.89
2 -44.11 67.74 -0.07943 -33.13 -0.07943 -33.13 -44.11 67.74
2.1 -43.6 66.54 -0.08278 -34.77 -0.08278 -34.77 -43.6 66.54
2.2 -43.13 65.29 -0.08612 -36.42 -0.08612 -36.42 -43.13 65.29
2.3 -42.68 64.00 -0.08944 -38.06 -0.08944 -38.06 -42.68 64.00
2.4 -42.25 62.67 -0.09276 -39.70 -0.09276 -39.70 -42.25 62.67
2.5 -41.85 61.32 -0.09606 -41.34 -0.09606 -41.34 -41.85 61.32
2.6 -41.46 59.93 -0.09935 -42.98 -0.09935 -42.98 -41.46 59.93
2.7 -41.1 58.53 -0.1026 -44.62 -0.1026 -44.62 -41.1 58.53
2.8 -40.76 57.11 -0.1059 -46.26 -0.1059 -46.26 -40.76 57.11
2.9 -40.43 55.66 -0.1092 -47.90 -0.1092 -47.90 -40.43 55.66
3 -40.12 54.21 -0.1124 -49.54 -0.1124 -49.54 -40.12 54.21
3.1 -39.83 52.74 -0.1157 -51.18 -0.1157 -51.18 -39.83 52.74
3.2 -39.55 51.26 -0.1189 -52.81 -0.1189 -52.81 -39.55 51.26
3.3 -39.29 49.76 -0.1222 -54.45 -0.1222 -54.45 -39.29 49.76
3.4 -39.04 48.26 -0.1254 -56.09 -0.1254 -56.09 -39.04 48.26
3.5 -38.8 46.75 -0.1286 -57.72 -0.1286 -57.72 -38.8 46.75
3.6 -38.58 45.23 -0.1319 -59.36 -0.1319 -59.36 -38.58 45.23
3.7 -38.36 43.71 -0.1351 -61.00 -0.1351 -61.00 -38.36 43.71
3.8 -38.16 42.18 -0.1383 -62.63 -0.1383 -62.63 -38.16 42.18
3.9 -37.97 40.64 -0.1415 -64.27 -0.1415 -64.27 -37.97 40.64
4 -37.79 39.10 -0.1447 -65.90 -0.1447 -65.90 -37.79 39.10
4.1 -37.62 37.55 -0.1479 -67.54 -0.1479 -67.54 -37.62 37.55
4.2 -37.46 36.00 -0.151 -69.17 -0.151 -69.17 -37.46 36.00
4.3 -37.32 34.45 -0.1542 -70.81 -0.1542 -70.81 -37.32 34.45
4.4 -37.18 32.90 -0.1574 -72.44 -0.1574 -72.44 -37.18 32.90
4.5 -37.05 31.34 -0.1606 -74.08 -0.1606 -74.08 -37.05 31.34
4.6 -36.93 29.78 -0.1637 -75.71 -0.1637 -75.71 -36.93 29.78
4.7 -36.81 28.21 -0.1669 -77.34 -0.1669 -77.34 -36.81 28.21
4.8 -36.71 26.65 -0.17 -78.98 -0.17 -78.98 -36.71 26.65
4.9 -36.62 25.08 -0.1732 -80.61 -0.1732 -80.61 -36.62 25.08
5 -36.53 23.51 -0.1763 -82.24 -0.1763 -82.24 -36.53 23.51
5.1 -36.45 21.94 -0.1795 -83.87 -0.1795 -83.87 -36.45 21.94
5.2 -36.38 20.37 -0.1826 -85.50 -0.1826 -85.50 -36.38 20.37
5.3 -36.32 18.80 -0.1857 -87.14 -0.1857 -87.14 -36.32 18.80
5.4 -36.27 17.23 -0.1888 -88.77 -0.1888 -88.77 -36.27 17.23
5.5 -36.22 15.66 -0.1919 -90.40 -0.1919 -90.40 -36.22 15.66
5.6 -36.19 14.09 -0.195 -92.03 -0.195 -92.03 -36.19 14.09
5.7 -36.16 12.52 -0.1981 -93.66 -0.1981 -93.66 -36.16 12.52
5.8 -36.14 10.94 -0.2012 -95.29 -0.2012 -95.29 -36.14 10.94
5.9 -36.12 9.37 -0.2043 -96.92 -0.2043 -96.92 -36.12 9.37
6 -36.12 7.80 -0.2074 -98.55 -0.2074 -98.55 -36.12 7.80
6.1 -36.12 6.23 -0.2105 -100.18 -0.2105 -100.18 -36.12 6.23
6.2 -36.13 4.66 -0.2136 -101.81 -0.2136 -101.81 -36.13 4.66
6.3 -36.15 3.09 -0.2166 -103.44 -0.2166 -103.44 -36.15 3.09
6.4 -36.18 1.52 -0.2197 -105.07 -0.2197 -105.07 -36.18 1.52
6.5 -36.21 -0.05 -0.2227 -106.70 -0.2227 -106.70 -36.21 -0.05
6.6 -36.26 -1.61 -0.2258 -108.33 -0.2258 -108.33 -36.26 -1.61
6.7 -36.31 -3.18 -0.2288 -109.96 -0.2288 -109.96 -36.31 -3.18
6.8 -36.37 -4.74 -0.2319 -111.59 -0.2319 -111.59 -36.37 -4.74
6.9 -36.44 -6.30 -0.2349 -113.22 -0.2349 -113.22 -36.44 -6.30
7 -36.52 -7.86 -0.238 -114.85 -0.238 -114.85 -36.52 -7.86
7.1 -36.61 -9.41 -0.241 -116.48 -0.241 -116.48 -36.61 -9.41
7.2 -36.7 -10.97 -0.244 -118.10 -0.244 -118.10 -36.7 -10.97
7.3 -36.81 -12.52 -0.247 -119.73 -0.247 -119.73 -36.81 -12.52
7.4 -36.92 -14.07 -0.25 -121.36 -0.25 -121.36 -36.92 -14.07
7.5 -37.05 -15.61 -0.253 -122.99 -0.253 -122.99 -37.05 -15.61
7.6 -37.19 -17.15 -0.256 -124.62 -0.256 -124.62 -37.19 -17.15
7.7 -37.33 -18.69 -0.259 -126.24 -0.259 -126.24 -37.33 -18.69
7.8 -37.49 -20.22 -0.262 -127.87 -0.262 -127.87 -37.49 -20.22
7.9 -37.66 -21.75 -0.265 -129.50 -0.265 -129.50 -37.66 -21.75
8 -37.84 -23.27 -0.268 -131.13 -0.268 -131.13 -37.84 -23.27
8.1 -38.04 -24.79 -0.2709 -132.75 -0.2709 -132.75 -38.04 -24.79
8.2 -38.25 -26.30 -0.2739 -134.38 -0.2739 -134.38 -38.25 -26.30
8.3 -38.47 -27.80 -0.2769 -136.01 -0.2769 -136.01 -38.47 -27.80
8.4 -38.71 -29.29 -0.2798 -137.63 -0.2798 -137.63 -38.71 -29.29
8.5 -38.96 -30.78 -0.2828 -139.26 -0.2828 -139.26 -38.96 -30.78
8.6 -39.23 -32.25 -0.2857 -140.89 -0.2857 -140.89 -39.23 -32.25
8.7 -39.52 -33.71 -0.2887 -142.51 -0.2887 -142.51 -39.52 -33.71
8.8 -39.82 -35.16 -0.2916 -144.14 -0.2916 -144.14 -39.82 -35.16
8.9 -40.15 -36.59 -0.2946 -145.77 -0.2946 -145.77 -40.15 -36.59
9 -40.5 -38.01 -0.2975 -147.39 -0.2975 -147.39 -40.5 -38.01
9.1 -40.87 -39.40 -0.3004 -149.02 -0.3004 -149.02 -40.87 -39.40
9.2 -41.27 -40.77 -0.3034 -150.64 -0.3034 -150.64 -41.27 -40.77
9.3 -41.7 -42.11 -0.3063 -152.27 -0.3063 -152.27 -41.7 -42.11
9.4 -42.16 -43.42 -0.3092 -153.89 -0.3092 -153.89 -42.16 -43.42
9.5 -42.66 -44.69 -0.3122 -155.52 -0.3122 -155.52 -42.66 -44.69
9.6 -43.2 -45.91 -0.3151 -157.14 -0.3151 -157.14 -43.2 -45.91
9.7 -43.78 -47.07 -0.318 -158.77 -0.318 -158.77 -43.78 -47.07
9.8 -44.41 -48.16 -0.3209 -160.40 -0.3209 -160.40 -44.41 -48.16
9.9 -45.11 -49.16 -0.3238 -162.02 -0.3238 -162.02 -45.11 -49.16
10 -45.87 -50.03 -0.3267 -163.65 -0.3267 -163.65 -45.87 -50.03
10.1 -46.72 -50.75 -0.3296 -165.27 -0.3296 -165.27 -46.72 -50.75
10.2 -47.67 -51.25 -0.3326 -166.89 -0.3326 -166.89 -47.67 -51.25
10.3 -48.74 -51.45 -0.3355 -168.52 -0.3355 -168.52 -48.74 -51.45
10.4 -49.97 -51.21 -0.3384 -170.14 -0.3384 -170.14 -49.97 -51.21
10.5 -51.41 -50.28 -0.3413 -171.77 -0.3413 -171.77 -51.41 -50.28
10.6 -53.12 -48.22 -0.3442 -173.39 -0.3442 -173.39 -53.12 -48.22
10.7 -55.2 -44.11 -0.3471 -175.02 -0.3471 -175.02 -55.2 -44.11
10.8 -57.75 -35.89 -0.35 -176.64 -0.35 -176.64 -57.75 -35.89
10.9 -60.68 -18.69 -0.3529 -178.27 -0.3529 -178.27 -60.68 -18.69
11 -62.5 13.70 -0.3558 -179.89 -0.3558 -179.89 -62.5 13.70
11.1 -60.93 47.40 -0.3587 178.49 -0.3587 178.49 -60.93 47.40
11.2 -57.97 65.94 -0.3616 176.86 -0.3616 176.86 -57.97 65.94
11.3 -55.34 74.79 -0.3645 175.24 -0.3645 175.24 -55.34 74.79
11.4 -53.18 79.20 -0.3674 173.62 -0.3674 173.62 -53.18 79.20
11.5 -51.4 81.42 -0.3703 171.99 -0.3703 171.99 -51.4 81.42
11.6 -49.91 82.44 -0.3732 170.37 -0.3732 170.37 -49.91 82.44
11.7 -48.62 82.74 -0.3761 168.74 -0.3761 168.74 -48.62 82.74
11.8 -47.5 82.59 -0.379 167.12 -0.379 167.12 -47.5 82.59
11.9 -46.51 82.12 -0.3819 165.50 -0.3819 165.50 -46.51 82.12
12 -45.61 81.42 -0.3848 163.88 -0.3848 163.88 -45.61 81.42
12.1 -44.81 80.57 -0.3877 162.25 -0.3877 162.25 -44.81 80.57
12.2 -44.07 79.59 -0.3906 160.63 -0.3906 160.63 -44.07 79.59
12.3 -43.4 78.52 -0.3935 159.01 -0.3935 159.01 -43.4 78.52
12.4 -42.78 77.38 -0.3964 157.38 -0.3964 157.38 -42.78 77.38
12.5 -42.2 76.17 -0.3993 155.76 -0.3993 155.76 -42.2 76.17
12.6 -41.66 74.92 -0.4022 154.14 -0.4022 154.14 -41.66 74.92
12.7 -41.17 73.63 -0.4051 152.52 -0.4051 152.52 -41.17 73.63
12.8 -40.7 72.30 -0.408 150.89 -0.408 150.89 -40.7 72.30
12.9 -40.26 70.95 -0.4109 149.27 -0.4109 149.27 -40.26 70.95
13 -39.85 69.57 -0.4138 147.65 -0.4138 147.65 -39.85 69.57
13.1 -39.46 68.17 -0.4167 146.03 -0.4167 146.03 -39.46 68.17
13.2 -39.1 66.76 -0.4197 144.40 -0.4197 144.40 -39.1 66.76
13.3 -38.75 65.33 -0.4226 142.78 -0.4226 142.78 -38.75 65.33
13.4 -38.43 63.89 -0.4255 141.16 -0.4255 141.16 -38.43 63.89
13.5 -38.12 62.43 -0.4284 139.54 -0.4284 139.54 -38.12 62.43
13.6 -37.83 60.97 -0.4313 137.92 -0.4313 137.92 -37.83 60.97
13.7 -37.55 59.49 -0.4342 136.30 -0.4342 136.30 -37.55 59.49
13.8 -37.29 58.01 -0.4371 134.67 -0.4371 134.67 -37.29 58.01
13.9 -37.04 56.53 -0.44 133.05 -0.44 133.05 -37.04 56.53
14 -36.81 55.03 -0.4429 131.43 -0.4429 131.43 -36.81 55.03
14.1 -36.58 53.54 -0.4458 129.81 -0.4458 129.81 -36.58 53.54
14.2 -36.37 52.03 -0.4487 128.19 -0.4487 128.19 -36.37 52.03
14.3 -36.17 50.53 -0.4517 126.57 -0.4517 126.57 -36.17 50.53
14.4 -35.99 49.02 -0.4546 124.95 -0.4546 124.95 -35.99 49.02
14.5 -35.81 47.50 -0.4575 123.33 -0.4575 123.33 -35.81 47.50
14.6 -35.64 45.98 -0.4604 121.71 -0.4604 121.71 -35.64 45.98
14.7 -35.48 44.46 -0.4633 120.09 -0.4633 120.09 -35.48 44.46
14.8 -35.33 42.94 -0.4662 118.46 -0.4662 118.46 -35.33 42.94
14.9 -35.19 41.42 -0.4691 116.84 -0.4691 116.84 -35.19 41.42
15 -35.06 39.89 -0.472 115.22 -0.472 115.22 -35.06 39.89
15.1 -34.94 38.36 -0.4749 113.60 -0.4749 113.60 -34.94 38.36
15.2 -34.83 36.84 -0.4778 111.98 -0.4778 111.98 -34.83 36.84
15.3 -34.72 35.31 -0.4807 110.36 -0.4807 110.36 -34.72 35.31
15.4 -34.62 33.78 -0.4836 108.74 -0.4836 108.74 -34.62 33.78
15.5 -34.53 32.25 -0.4865 107.12 -0.4865 107.12 -34.53 32.25
15.6 -34.45 30.71 -0.4893 105.50 -0.4893 105.50 -34.45 30.71
15.7 -34.38 29.18 -0.4922 103.88 -0.4922 103.88 -34.38 29.18
15.8 -34.31 27.65 -0.4951 102.26 -0.4951 102.26 -34.31 27.65
15.9 -34.25 26.12 -0.498 100.65 -0.498 100.65 -34.25 26.12
16 -34.2 24.59 -0.5009 99.03 -0.5009 99.03 -34.2 24.59
16.1 -34.15 23.05 -0.5037 97.41 -0.5037 97.41 -34.15 23.05
16.2 -34.11 21.52 -0.5066 95.79 -0.5066 95.79 -34.11 21.52
16.3 -34.08 19.99 -0.5095 94.17 -0.5095 94.17 -34.08 19.99
16.4 -34.06 18.46 -0.5123 92.55 -0.5123 92.55 -34.06 18.46
16.5 -34.04 16.93 -0.5152 90.93 -0.5152 90.93 -34.04 16.93
16.6 -34.03 15.41 -0.5181 89.31 -0.5181 89.31 -34.03 15.41
16.7 -34.03 13.88 -0.5209 87.69 -0.5209 87.69 -34.03 13.88
16.8 -34.03 12.35 -0.5238 86.07 -0.5238 86.07 -34.03 12.35
16.9 -34.04 10.83 -0.5266 84.45 -0.5266 84.45 -34.04 10.83
17 -34.06 9.31 -0.5294 82.84 -0.5294 82.84 -34.06 9.31
17.1 -34.08 7.79 -0.5323 81.22 -0.5323 81.22 -34.08 7.79
17.2 -34.12 6.27 -0.5351 79.60 -0.5351 79.60 -34.12 6.27
17.3 -34.16 4.75 -0.5379 77.98 -0.5379 77.98 -34.16 4.75
17.4 -34.2 3.24 -0.5408 76.36 -0.5408 76.36 -34.2 3.24
17.5 -34.26 1.73 -0.5436 74.74 -0.5436 74.74 -34.26 1.73
17.6 -34.32 0.22 -0.5464 73.12 -0.5464 73.12 -34.32 0.22
17.7 -34.39 -1.28 -0.5492 71.51 -0.5492 71.51 -34.39 -1.28
17.8 -34.46 -2.79 -0.552 69.89 -0.552 69.89 -34.46 -2.79
17.9 -34.55 -4.28 -0.5548 68.27 -0.5548 68.27 -34.55 -4.28
18 -34.64 -5.78 -0.5576 66.65 -0.5576 66.65 -34.64 -5.78
