! yapnr rf coupon B B04: S L16 (line, family S)
! stackup JLC06161H-7628, nominal parameters; reference planes 10 mm from each end; 50 ohm (renormalized from the line's Zc)
! model: 2D quasi-static RLGC (Djordjevic-Sarkar, Huray roughness, Wheeler loss); generated by python -m yapnr.rf.coupons expected
# GHz S DB R 50
0.1 -56.68 28.04 -0.02189 -4.22 -0.02189 -4.22 -56.68 28.04
0.2 -54.73 34.64 -0.03393 -8.35 -0.03393 -8.35 -54.73 34.64
0.3 -53.21 40.88 -0.04478 -12.46 -0.04478 -12.46 -53.21 40.88
0.4 -51.73 46.00 -0.05499 -16.56 -0.05499 -16.56 -51.73 46.00
0.5 -50.27 49.55 -0.0648 -20.65 -0.0648 -20.65 -50.27 49.55
0.6 -48.88 51.59 -0.07432 -24.73 -0.07432 -24.73 -48.88 51.59
0.7 -47.59 52.36 -0.08363 -28.81 -0.08363 -28.81 -47.59 52.36
0.8 -46.41 52.12 -0.09277 -32.89 -0.09277 -32.89 -46.41 52.12
0.9 -45.34 51.12 -0.1018 -36.96 -0.1018 -36.96 -45.34 51.12
1 -44.37 49.54 -0.1107 -41.02 -0.1107 -41.02 -44.37 49.54
1.1 -43.51 47.50 -0.1195 -45.08 -0.1195 -45.08 -43.51 47.50
1.2 -42.73 45.13 -0.1282 -49.14 -0.1282 -49.14 -42.73 45.13
1.3 -42.04 42.49 -0.1368 -53.20 -0.1368 -53.20 -42.04 42.49
1.4 -41.42 39.63 -0.1454 -57.26 -0.1454 -57.26 -41.42 39.63
1.5 -40.88 36.61 -0.1539 -61.31 -0.1539 -61.31 -40.88 36.61
1.6 -40.4 33.46 -0.1624 -65.36 -0.1624 -65.36 -40.4 33.46
1.7 -39.98 30.19 -0.1708 -69.41 -0.1708 -69.41 -39.98 30.19
1.8 -39.62 26.84 -0.1792 -73.46 -0.1792 -73.46 -39.62 26.84
1.9 -39.32 23.42 -0.1876 -77.51 -0.1876 -77.51 -39.32 23.42
2 -39.07 19.93 -0.1959 -81.55 -0.1959 -81.55 -39.07 19.93
2.1 -38.87 16.40 -0.2041 -85.59 -0.2041 -85.59 -38.87 16.40
2.2 -38.72 12.83 -0.2123 -89.64 -0.2123 -89.64 -38.72 12.83
2.3 -38.62 9.22 -0.2205 -93.68 -0.2205 -93.68 -38.62 9.22
2.4 -38.57 5.59 -0.2287 -97.72 -0.2287 -97.72 -38.57 5.59
2.5 -38.57 1.94 -0.2368 -101.75 -0.2368 -101.75 -38.57 1.94
2.6 -38.61 -1.72 -0.2449 -105.79 -0.2449 -105.79 -38.61 -1.72
2.7 -38.71 -5.39 -0.2529 -109.83 -0.2529 -109.83 -38.71 -5.39
2.8 -38.86 -9.07 -0.2609 -113.86 -0.2609 -113.86 -38.86 -9.07
2.9 -39.07 -12.75 -0.2689 -117.90 -0.2689 -117.90 -39.07 -12.75
3 -39.33 -16.42 -0.2769 -121.93 -0.2769 -121.93 -39.33 -16.42
3.1 -39.66 -20.07 -0.2848 -125.96 -0.2848 -125.96 -39.66 -20.07
3.2 -40.06 -23.71 -0.2927 -129.99 -0.2927 -129.99 -40.06 -23.71
3.3 -40.53 -27.32 -0.3006 -134.02 -0.3006 -134.02 -40.53 -27.32
3.4 -41.09 -30.89 -0.3085 -138.05 -0.3085 -138.05 -41.09 -30.89
3.5 -41.75 -34.40 -0.3163 -142.08 -0.3163 -142.08 -41.75 -34.40
3.6 -42.52 -37.83 -0.3241 -146.11 -0.3241 -146.11 -42.52 -37.83
3.7 -43.43 -41.14 -0.3319 -150.14 -0.3319 -150.14 -43.43 -41.14
3.8 -44.51 -44.27 -0.3397 -154.16 -0.3397 -154.16 -44.51 -44.27
3.9 -45.82 -47.13 -0.3475 -158.19 -0.3475 -158.19 -45.82 -47.13
4 -47.44 -49.53 -0.3552 -162.21 -0.3552 -162.21 -47.44 -49.53
4.1 -49.5 -51.07 -0.3629 -166.24 -0.3629 -166.24 -49.5 -51.07
4.2 -52.27 -50.76 -0.3706 -170.26 -0.3706 -170.26 -52.27 -50.76
4.3 -56.32 -45.17 -0.3783 -174.28 -0.3783 -174.28 -56.32 -45.17
4.4 -62.44 -16.29 -0.386 -178.31 -0.386 -178.31 -62.44 -16.29
4.5 -61.25 55.30 -0.3937 177.67 -0.3937 177.67 -61.25 55.30
4.6 -55.32 76.87 -0.4014 173.65 -0.4014 173.65 -55.32 76.87
4.7 -51.45 81.01 -0.4091 169.63 -0.4091 169.63 -51.45 81.01
4.8 -48.73 80.86 -0.4168 165.61 -0.4168 165.61 -48.73 80.86
4.9 -46.66 79.12 -0.4244 161.59 -0.4244 161.59 -46.66 79.12
5 -45 76.61 -0.4321 157.57 -0.4321 157.57 -45 76.61
5.1 -43.63 73.69 -0.4398 153.55 -0.4398 153.55 -43.63 73.69
5.2 -42.48 70.51 -0.4474 149.53 -0.4474 149.53 -42.48 70.51
5.3 -41.49 67.16 -0.4551 145.52 -0.4551 145.52 -41.49 67.16
5.4 -40.63 63.70 -0.4627 141.50 -0.4627 141.50 -40.63 63.70
5.5 -39.88 60.16 -0.4704 137.48 -0.4704 137.48 -39.88 60.16
5.6 -39.23 56.56 -0.478 133.47 -0.478 133.47 -39.23 56.56
5.7 -38.65 52.91 -0.4857 129.45 -0.4857 129.45 -38.65 52.91
5.8 -38.15 49.24 -0.4933 125.44 -0.4933 125.44 -38.15 49.24
5.9 -37.72 45.54 -0.501 121.42 -0.501 121.42 -37.72 45.54
6 -37.34 41.82 -0.5086 117.41 -0.5086 117.41 -37.34 41.82
6.1 -37.02 38.09 -0.5162 113.39 -0.5162 113.39 -37.02 38.09
6.2 -36.75 34.35 -0.5238 109.38 -0.5238 109.38 -36.75 34.35
6.3 -36.53 30.60 -0.5314 105.37 -0.5314 105.37 -36.53 30.60
6.4 -36.35 26.85 -0.539 101.36 -0.539 101.36 -36.35 26.85
6.5 -36.22 23.10 -0.5465 97.35 -0.5465 97.35 -36.22 23.10
6.6 -36.13 19.35 -0.5541 93.34 -0.5541 93.34 -36.13 19.35
6.7 -36.09 15.61 -0.5616 89.33 -0.5616 89.33 -36.09 15.61
6.8 -36.09 11.87 -0.5691 85.32 -0.5691 85.32 -36.09 11.87
6.9 -36.13 8.14 -0.5766 81.31 -0.5766 81.31 -36.13 8.14
7 -36.22 4.43 -0.5841 77.30 -0.5841 77.30 -36.22 4.43
7.1 -36.35 0.73 -0.5916 73.29 -0.5916 73.29 -36.35 0.73
7.2 -36.53 -2.95 -0.599 69.28 -0.599 69.28 -36.53 -2.95
7.3 -36.76 -6.61 -0.6064 65.27 -0.6064 65.27 -36.76 -6.61
7.4 -37.03 -10.23 -0.6139 61.27 -0.6139 61.27 -37.03 -10.23
7.5 -37.37 -13.82 -0.6212 57.26 -0.6212 57.26 -37.37 -13.82
7.6 -37.76 -17.36 -0.6286 53.25 -0.6286 53.25 -37.76 -17.36
7.7 -38.22 -20.85 -0.636 49.24 -0.636 49.24 -38.22 -20.85
7.8 -38.75 -24.26 -0.6433 45.24 -0.6433 45.24 -38.75 -24.26
7.9 -39.37 -27.58 -0.6506 41.23 -0.6506 41.23 -39.37 -27.58
8 -40.08 -30.78 -0.6579 37.23 -0.6579 37.23 -40.08 -30.78
8.1 -40.9 -33.81 -0.6652 33.22 -0.6652 33.22 -40.9 -33.81
8.2 -41.86 -36.60 -0.6725 29.22 -0.6725 29.22 -41.86 -36.60
8.3 -42.99 -39.05 -0.6798 25.21 -0.6798 25.21 -42.99 -39.05
8.4 -44.33 -40.97 -0.6871 21.21 -0.6871 21.21 -44.33 -40.97
8.5 -45.95 -42.03 -0.6944 17.20 -0.6944 17.20 -45.95 -42.03
8.6 -47.97 -41.51 -0.7016 13.20 -0.7016 13.20 -47.97 -41.51
8.7 -50.56 -37.78 -0.7089 9.20 -0.7089 9.20 -50.56 -37.78
8.8 -53.86 -26.33 -0.7162 5.19 -0.7162 5.19 -53.86 -26.33
8.9 -56.92 3.49 -0.7234 1.19 -0.7234 1.19 -56.92 3.49
9 -55.8 43.87 -0.7307 -2.81 -0.7307 -2.81 -55.8 43.87
9.1 -52.27 64.17 -0.738 -6.82 -0.738 -6.82 -52.27 64.17
9.2 -49.25 71.38 -0.7453 -10.82 -0.7453 -10.82 -49.25 71.38
9.3 -46.9 73.42 -0.7525 -14.82 -0.7525 -14.82 -46.9 73.42
9.4 -45.03 73.14 -0.7598 -18.82 -0.7598 -18.82 -45.03 73.14
9.5 -43.5 71.68 -0.7671 -22.83 -0.7671 -22.83 -43.5 71.68
9.6 -42.22 69.52 -0.7744 -26.83 -0.7744 -26.83 -42.22 69.52
9.7 -41.14 66.94 -0.7817 -30.83 -0.7817 -30.83 -41.14 66.94
9.8 -40.2 64.07 -0.789 -34.83 -0.789 -34.83 -40.2 64.07
9.9 -39.39 61.01 -0.7964 -38.83 -0.7964 -38.83 -39.39 61.01
10 -38.69 57.81 -0.8037 -42.83 -0.8037 -42.83 -38.69 57.81
10.1 -38.07 54.50 -0.811 -46.83 -0.811 -46.83 -38.07 54.50
10.2 -37.53 51.11 -0.8183 -50.83 -0.8183 -50.83 -37.53 51.11
10.3 -37.06 47.67 -0.8256 -54.83 -0.8256 -54.83 -37.06 47.67
10.4 -36.66 44.17 -0.833 -58.83 -0.833 -58.83 -36.66 44.17
10.5 -36.31 40.65 -0.8403 -62.82 -0.8403 -62.82 -36.31 40.65
10.6 -36.01 37.10 -0.8476 -66.82 -0.8476 -66.82 -36.01 37.10
10.7 -35.76 33.53 -0.8549 -70.82 -0.8549 -70.82 -35.76 33.53
10.8 -35.57 29.95 -0.8622 -74.82 -0.8622 -74.82 -35.57 29.95
10.9 -35.41 26.35 -0.8695 -78.81 -0.8695 -78.81 -35.41 26.35
11 -35.3 22.76 -0.8767 -82.81 -0.8767 -82.81 -35.3 22.76
11.1 -35.23 19.16 -0.884 -86.81 -0.884 -86.81 -35.23 19.16
11.2 -35.21 15.57 -0.8912 -90.80 -0.8912 -90.80 -35.21 15.57
11.3 -35.22 11.98 -0.8985 -94.80 -0.8985 -94.80 -35.22 11.98
11.4 -35.28 8.41 -0.9057 -98.79 -0.9057 -98.79 -35.28 8.41
11.5 -35.38 4.85 -0.9129 -102.79 -0.9129 -102.79 -35.38 4.85
11.6 -35.53 1.31 -0.92 -106.78 -0.92 -106.78 -35.53 1.31
11.7 -35.72 -2.20 -0.9272 -110.78 -0.9272 -110.78 -35.72 -2.20
11.8 -35.96 -5.68 -0.9343 -114.77 -0.9343 -114.77 -35.96 -5.68
11.9 -36.25 -9.12 -0.9415 -118.77 -0.9415 -118.77 -36.25 -9.12
12 -36.59 -12.50 -0.9486 -122.76 -0.9486 -122.76 -36.59 -12.50
12.1 -36.99 -15.83 -0.9557 -126.76 -0.9557 -126.76 -36.99 -15.83
12.2 -37.46 -19.07 -0.9627 -130.75 -0.9627 -130.75 -37.46 -19.07
12.3 -37.99 -22.21 -0.9698 -134.74 -0.9698 -134.74 -37.99 -22.21
12.4 -38.61 -25.23 -0.9768 -138.74 -0.9768 -138.74 -38.61 -25.23
12.5 -39.31 -28.07 -0.9839 -142.73 -0.9839 -142.73 -39.31 -28.07
12.6 -40.12 -30.68 -0.9909 -146.72 -0.9909 -146.72 -40.12 -30.68
12.7 -41.06 -32.96 -0.9979 -150.72 -0.9979 -150.72 -41.06 -32.96
12.8 -42.15 -34.79 -1.005 -154.71 -1.005 -154.71 -42.15 -34.79
12.9 -43.44 -35.92 -1.012 -158.70 -1.012 -158.70 -43.44 -35.92
13 -44.96 -35.94 -1.019 -162.70 -1.019 -162.70 -44.96 -35.94
13.1 -46.78 -34.06 -1.026 -166.69 -1.026 -166.69 -46.78 -34.06
13.2 -48.97 -28.67 -1.033 -170.68 -1.033 -170.68 -48.97 -28.67
13.3 -51.41 -16.52 -1.04 -174.67 -1.04 -174.67 -51.41 -16.52
13.4 -53.22 6.54 -1.047 -178.66 -1.047 -178.66 -53.22 6.54
13.5 -52.72 34.55 -1.054 177.34 -1.054 177.34 -52.72 34.55
13.6 -50.47 53.34 -1.061 173.35 -1.061 173.35 -50.47 53.34
13.7 -48.07 62.47 -1.068 169.36 -1.068 169.36 -48.07 62.47
13.8 -46 66.29 -1.075 165.37 -1.075 165.37 -46 66.29
13.9 -44.28 67.36 -1.082 161.38 -1.082 161.38 -44.28 67.36
14 -42.83 66.89 -1.089 157.39 -1.089 157.39 -42.83 66.89
14.1 -41.61 65.49 -1.096 153.40 -1.096 153.40 -41.61 65.49
14.2 -40.56 63.51 -1.104 149.40 -1.104 149.40 -40.56 63.51
14.3 -39.65 61.13 -1.111 145.41 -1.111 145.41 -39.65 61.13
14.4 -38.86 58.47 -1.118 141.42 -1.118 141.42 -38.86 58.47
14.5 -38.17 55.61 -1.125 137.43 -1.125 137.43 -38.17 55.61
14.6 -37.57 52.60 -1.132 133.44 -1.132 133.44 -37.57 52.60
14.7 -37.04 49.47 -1.139 129.45 -1.139 129.45 -37.04 49.47
14.8 -36.58 46.27 -1.146 125.47 -1.146 125.47 -36.58 46.27
14.9 -36.18 42.99 -1.153 121.48 -1.153 121.48 -36.18 42.99
15 -35.84 39.67 -1.16 117.49 -1.16 117.49 -35.84 39.67
15.1 -35.55 36.30 -1.168 113.50 -1.168 113.50 -35.55 36.30
15.2 -35.31 32.91 -1.175 109.51 -1.175 109.51 -35.31 32.91
15.3 -35.11 29.49 -1.182 105.52 -1.182 105.52 -35.11 29.49
15.4 -34.96 26.06 -1.189 101.54 -1.189 101.54 -34.96 26.06
15.5 -34.86 22.62 -1.196 97.55 -1.196 97.55 -34.86 22.62
15.6 -34.79 19.17 -1.203 93.56 -1.203 93.56 -34.79 19.17
15.7 -34.77 15.73 -1.21 89.58 -1.21 89.58 -34.77 15.73
15.8 -34.79 12.30 -1.217 85.59 -1.217 85.59 -34.79 12.30
15.9 -34.85 8.87 -1.224 81.60 -1.224 81.60 -34.85 8.87
16 -34.95 5.47 -1.231 77.62 -1.231 77.62 -34.95 5.47
16.1 -35.09 2.09 -1.238 73.63 -1.238 73.63 -35.09 2.09
16.2 -35.28 -1.26 -1.245 69.64 -1.245 69.64 -35.28 -1.26
16.3 -35.52 -4.57 -1.252 65.66 -1.252 65.66 -35.52 -4.57
16.4 -35.8 -7.83 -1.259 61.67 -1.259 61.67 -35.8 -7.83
16.5 -36.14 -11.03 -1.266 57.69 -1.266 57.69 -36.14 -11.03
16.6 -36.53 -14.15 -1.273 53.70 -1.273 53.70 -36.53 -14.15
16.7 -36.99 -17.17 -1.28 49.72 -1.28 49.72 -36.99 -17.17
16.8 -37.51 -20.07 -1.287 45.73 -1.287 45.73 -37.51 -20.07
16.9 -38.1 -22.81 -1.293 41.75 -1.293 41.75 -38.1 -22.81
17 -38.78 -25.35 -1.3 37.76 -1.3 37.76 -38.78 -25.35
17.1 -39.56 -27.61 -1.307 33.78 -1.307 33.78 -39.56 -27.61
17.2 -40.46 -29.50 -1.314 29.79 -1.314 29.79 -40.46 -29.50
17.3 -41.48 -30.85 -1.321 25.81 -1.321 25.81 -41.48 -30.85
17.4 -42.67 -31.42 -1.328 21.82 -1.328 21.82 -42.67 -31.42
17.5 -44.05 -30.81 -1.334 17.84 -1.334 17.84 -44.05 -30.81
17.6 -45.65 -28.30 -1.341 13.85 -1.341 13.85 -45.65 -28.30
17.7 -47.45 -22.63 -1.348 9.87 -1.348 9.87 -47.45 -22.63
17.8 -49.3 -11.79 -1.355 5.89 -1.355 5.89 -49.3 -11.79
17.9 -50.61 5.84 -1.362 1.90 -1.362 1.90 -50.61 5.84
18 -50.52 27.00 -1.369 -2.08 -1.369 -2.08 -50.52 27.00
