! yapnr rf coupon B: B05 S L40 (line, family S)
! stackup JLC06161H-7628, nominal parameters; reference planes 10 mm from each end; 50 ohm (renormalized from the line's Zc)
! model: 2D quasi-static RLGC (Djordjevic-Sarkar, Huray roughness, Wheeler loss); generated by python -m yapnr.rf.coupons expected
# GHz S DB R 50
0.1 -48.8 21.73 -0.05471 -10.54 -0.05471 -10.54 -48.8 21.73
0.2 -46.98 22.17 -0.08481 -20.87 -0.08481 -20.87 -46.98 22.17
0.3 -45.68 22.31 -0.1119 -31.15 -0.1119 -31.15 -45.68 22.31
0.4 -44.5 21.35 -0.1375 -41.40 -0.1375 -41.40 -44.5 21.35
0.5 -43.43 18.86 -0.162 -51.63 -0.162 -51.63 -43.43 18.86
0.6 -42.52 14.90 -0.1858 -61.83 -0.1858 -61.83 -42.52 14.90
0.7 -41.81 9.69 -0.2091 -72.03 -0.2091 -72.03 -41.81 9.69
0.8 -41.32 3.53 -0.232 -82.21 -0.232 -82.21 -41.32 3.53
0.9 -41.07 -3.35 -0.2545 -92.39 -0.2545 -92.39 -41.07 -3.35
1 -41.09 -10.75 -0.2767 -102.55 -0.2767 -102.55 -41.09 -10.75
1.1 -41.38 -18.51 -0.2986 -112.71 -0.2986 -112.71 -41.38 -18.51
1.2 -42 -26.49 -0.3203 -122.86 -0.3203 -122.86 -42 -26.49
1.3 -43.02 -34.54 -0.3418 -133.00 -0.3418 -133.00 -43.02 -34.54
1.4 -44.56 -42.44 -0.3631 -143.14 -0.3631 -143.14 -44.56 -42.44
1.5 -46.87 -49.78 -0.3843 -153.27 -0.3843 -153.27 -46.87 -49.78
1.6 -50.59 -55.20 -0.4053 -163.40 -0.4053 -163.40 -50.59 -55.20
1.7 -57.87 -50.13 -0.4262 -173.53 -0.4262 -173.53 -57.87 -50.13
1.8 -61.27 58.11 -0.4471 176.35 -0.4471 176.35 -61.27 58.11
1.9 -51.65 75.04 -0.4678 166.24 -0.4678 166.24 -51.65 75.04
2 -47.04 70.57 -0.4885 156.12 -0.4885 156.12 -47.04 70.57
2.1 -44.16 63.15 -0.5091 146.02 -0.5091 146.02 -44.16 63.15
2.2 -42.16 54.79 -0.5296 135.91 -0.5296 135.91 -42.16 54.79
2.3 -40.73 46.00 -0.5501 125.81 -0.5501 125.81 -40.73 46.00
2.4 -39.72 37.01 -0.5705 115.71 -0.5705 115.71 -39.72 37.01
2.5 -39.04 27.90 -0.5909 105.61 -0.5909 105.61 -39.04 27.90
2.6 -38.67 18.75 -0.6111 95.52 -0.6111 95.52 -38.67 18.75
2.7 -38.57 9.60 -0.6313 85.43 -0.6313 85.43 -38.57 9.60
2.8 -38.74 0.50 -0.6514 75.34 -0.6514 75.34 -38.74 0.50
2.9 -39.21 -8.49 -0.6714 65.26 -0.6714 65.26 -39.21 -8.49
3 -40 -17.29 -0.6913 55.18 -0.6913 55.18 -40 -17.29
3.1 -41.2 -25.73 -0.7111 45.10 -0.7111 45.10 -41.2 -25.73
3.2 -42.92 -33.49 -0.7308 35.02 -0.7308 35.02 -42.92 -33.49
3.3 -45.45 -39.77 -0.7505 24.94 -0.7505 24.94 -45.45 -39.77
3.4 -49.39 -41.81 -0.7701 14.87 -0.7701 14.87 -49.39 -41.81
3.5 -56.16 -22.98 -0.7897 4.80 -0.7897 4.80 -56.16 -22.98
3.6 -55.61 54.65 -0.8093 -5.27 -0.8093 -5.27 -55.61 54.65
3.7 -48.91 70.73 -0.8289 -15.34 -0.8289 -15.34 -48.91 70.73
3.8 -44.97 68.29 -0.8485 -25.41 -0.8485 -25.41 -44.97 68.29
3.9 -42.39 61.93 -0.8681 -35.47 -0.8681 -35.47 -42.39 61.93
4 -40.59 54.18 -0.8876 -45.54 -0.8876 -45.54 -40.59 54.18
4.1 -39.3 45.82 -0.9072 -55.60 -0.9072 -55.60 -39.3 45.82
4.2 -38.4 37.14 -0.9267 -65.66 -0.9267 -65.66 -38.4 37.14
4.3 -37.83 28.31 -0.9462 -75.72 -0.9462 -75.72 -37.83 28.31
4.4 -37.54 19.42 -0.9657 -85.77 -0.9657 -85.77 -37.54 19.42
4.5 -37.52 10.55 -0.9851 -95.82 -0.9851 -95.82 -37.52 10.55
4.6 -37.77 1.76 -1.004 -105.88 -1.004 -105.88 -37.77 1.76
4.7 -38.3 -6.86 -1.024 -115.93 -1.024 -115.93 -38.3 -6.86
4.8 -39.17 -15.18 -1.043 -125.98 -1.043 -125.98 -39.17 -15.18
4.9 -40.42 -22.96 -1.062 -136.02 -1.062 -136.02 -40.42 -22.96
5 -42.21 -29.74 -1.081 -146.07 -1.081 -146.07 -42.21 -29.74
5.1 -44.77 -34.30 -1.1 -156.11 -1.1 -156.11 -44.77 -34.30
5.2 -48.61 -32.72 -1.119 -166.16 -1.119 -166.16 -48.61 -32.72
5.3 -53.91 -7.21 -1.138 -176.20 -1.138 -176.20 -53.91 -7.21
5.4 -52.51 49.36 -1.157 173.75 -1.157 173.75 -52.51 49.36
5.5 -47.34 65.04 -1.176 163.71 -1.176 163.71 -47.34 65.04
5.6 -43.84 64.31 -1.195 153.67 -1.195 153.67 -43.84 64.31
5.7 -41.46 59.05 -1.214 143.63 -1.214 143.63 -41.46 59.05
5.8 -39.77 52.07 -1.233 133.60 -1.233 133.60 -39.77 52.07
5.9 -38.57 44.27 -1.252 123.56 -1.252 123.56 -38.57 44.27
6 -37.73 36.06 -1.271 113.53 -1.271 113.53 -37.73 36.06
6.1 -37.21 27.64 -1.29 103.49 -1.29 103.49 -37.21 27.64
6.2 -36.96 19.13 -1.309 93.46 -1.309 93.46 -36.96 19.13
6.3 -36.98 10.63 -1.328 83.43 -1.328 83.43 -36.98 10.63
6.4 -37.26 2.23 -1.346 73.40 -1.346 73.40 -37.26 2.23
6.5 -37.82 -5.94 -1.365 63.38 -1.365 63.38 -37.82 -5.94
6.6 -38.71 -13.72 -1.384 53.35 -1.384 53.35 -38.71 -13.72
6.7 -39.98 -20.81 -1.402 43.32 -1.402 43.32 -39.98 -20.81
6.8 -41.77 -26.59 -1.421 33.30 -1.421 33.30 -41.77 -26.59
6.9 -44.27 -29.58 -1.439 23.27 -1.439 23.27 -44.27 -29.58
7 -47.82 -25.26 -1.458 13.25 -1.458 13.25 -47.82 -25.26
7.1 -51.79 0.98 -1.476 3.23 -1.476 3.23 -51.79 0.98
7.2 -50.44 44.44 -1.495 -6.80 -1.495 -6.80 -50.44 44.44
7.3 -46.27 59.75 -1.514 -16.82 -1.514 -16.82 -46.27 59.75
7.4 -43.12 60.42 -1.532 -26.84 -1.532 -26.84 -43.12 60.42
7.5 -40.89 56.18 -1.551 -36.86 -1.551 -36.86 -40.89 56.18
7.6 -39.29 49.92 -1.569 -46.88 -1.569 -46.88 -39.29 49.92
7.7 -38.14 42.69 -1.588 -56.89 -1.588 -56.89 -38.14 42.69
7.8 -37.34 34.94 -1.607 -66.91 -1.607 -66.91 -37.34 34.94
7.9 -36.85 26.93 -1.625 -76.93 -1.625 -76.93 -36.85 26.93
8 -36.62 18.80 -1.644 -86.94 -1.644 -86.94 -36.62 18.80
8.1 -36.66 10.69 -1.662 -96.95 -1.662 -96.95 -36.66 10.69
8.2 -36.96 2.69 -1.681 -106.96 -1.681 -106.96 -36.96 2.69
8.3 -37.53 -5.04 -1.699 -116.97 -1.699 -116.97 -37.53 -5.04
8.4 -38.42 -12.30 -1.718 -126.98 -1.718 -126.98 -38.42 -12.30
8.5 -39.68 -18.73 -1.736 -136.99 -1.736 -136.99 -39.68 -18.73
8.6 -41.42 -23.62 -1.754 -147.00 -1.754 -147.00 -41.42 -23.62
8.7 -43.81 -25.31 -1.772 -157.01 -1.772 -157.01 -43.81 -25.31
8.8 -46.98 -19.29 -1.79 -167.02 -1.79 -167.02 -46.98 -19.29
8.9 -49.99 5.10 -1.809 -177.03 -1.809 -177.03 -49.99 5.10
9 -48.9 40.06 -1.827 172.96 -1.827 172.96 -48.9 40.06
9.1 -45.48 54.96 -1.845 162.96 -1.845 162.96 -45.48 54.96
9.2 -42.62 56.80 -1.863 152.95 -1.863 152.95 -42.62 56.80
9.3 -40.52 53.50 -1.882 142.95 -1.882 142.95 -40.52 53.50
9.4 -38.98 47.94 -1.9 132.94 -1.9 132.94 -38.98 47.94
9.5 -37.87 41.25 -1.918 122.94 -1.918 122.94 -37.87 41.25
9.6 -37.1 33.96 -1.937 112.94 -1.937 112.94 -37.1 33.96
9.7 -36.63 26.35 -1.955 102.94 -1.955 102.94 -36.63 26.35
9.8 -36.42 18.60 -1.973 92.94 -1.973 92.94 -36.42 18.60
9.9 -36.46 10.86 -1.992 82.94 -1.992 82.94 -36.46 10.86
10 -36.76 3.25 -2.01 72.94 -2.01 72.94 -36.76 3.25
10.1 -37.33 -4.06 -2.028 62.94 -2.028 62.94 -37.33 -4.06
10.2 -38.2 -10.84 -2.046 52.95 -2.046 52.95 -38.2 -10.84
10.3 -39.43 -16.68 -2.064 42.95 -2.064 42.95 -39.43 -16.68
10.4 -41.11 -20.80 -2.082 32.95 -2.082 32.95 -41.11 -20.80
10.5 -43.34 -21.50 -2.1 22.96 -2.1 22.96 -43.34 -21.50
10.6 -46.15 -14.65 -2.117 12.96 -2.117 12.96 -46.15 -14.65
10.7 -48.51 7.13 -2.135 2.97 -2.135 2.97 -48.51 7.13
10.8 -47.69 36.17 -2.153 -7.03 -2.153 -7.03 -47.69 36.17
10.9 -44.85 50.61 -2.171 -17.02 -2.171 -17.02 -44.85 50.61
11 -42.26 53.44 -2.189 -27.02 -2.189 -27.02 -42.26 53.44
11.1 -40.27 51.01 -2.207 -37.01 -2.207 -37.01 -40.27 51.01
11.2 -38.79 46.13 -2.225 -47.00 -2.225 -47.00 -38.79 46.13
11.3 -37.71 39.97 -2.244 -56.99 -2.244 -56.99 -37.71 39.97
11.4 -36.96 33.12 -2.262 -66.98 -2.262 -66.98 -36.96 33.12
11.5 -36.5 25.91 -2.28 -76.97 -2.28 -76.97 -36.5 25.91
11.6 -36.29 18.53 -2.298 -86.96 -2.298 -86.96 -36.29 18.53
11.7 -36.33 11.14 -2.316 -96.95 -2.316 -96.95 -36.33 11.14
11.8 -36.63 3.90 -2.334 -106.93 -2.334 -106.93 -36.63 3.90
11.9 -37.18 -3.02 -2.352 -116.92 -2.352 -116.92 -37.18 -3.02
12 -38.03 -9.35 -2.369 -126.91 -2.369 -126.91 -38.03 -9.35
12.1 -39.22 -14.66 -2.387 -136.89 -2.387 -136.89 -39.22 -14.66
12.2 -40.81 -18.15 -2.405 -146.88 -2.405 -146.88 -40.81 -18.15
12.3 -42.88 -18.15 -2.422 -156.86 -2.422 -156.86 -42.88 -18.15
12.4 -45.35 -11.09 -2.44 -166.85 -2.44 -166.85 -45.35 -11.09
12.5 -47.27 8.05 -2.458 -176.83 -2.458 -176.83 -47.27 8.05
12.6 -46.69 32.71 -2.476 173.19 -2.476 173.19 -46.69 32.71
12.7 -44.32 46.64 -2.493 163.20 -2.493 163.20 -44.32 46.64
12.8 -41.97 50.31 -2.511 153.22 -2.511 153.22 -41.97 50.31
12.9 -40.1 48.70 -2.529 143.24 -2.529 143.24 -40.1 48.70
13 -38.67 44.46 -2.547 133.25 -2.547 133.25 -38.67 44.46
13.1 -37.62 38.82 -2.565 123.27 -2.565 123.27 -37.62 38.82
13.2 -36.88 32.41 -2.583 113.29 -2.583 113.29 -36.88 32.41
13.3 -36.42 25.58 -2.6 103.31 -2.6 103.31 -36.42 25.58
13.4 -36.22 18.56 -2.618 93.33 -2.618 93.33 -36.22 18.56
13.5 -36.25 11.52 -2.636 83.36 -2.636 83.36 -36.25 11.52
13.6 -36.53 4.63 -2.654 73.38 -2.654 73.38 -36.53 4.63
13.7 -37.07 -1.92 -2.671 63.40 -2.671 63.40 -37.07 -1.92
13.8 -37.88 -7.84 -2.689 53.43 -2.689 53.43 -37.88 -7.84
13.9 -39.02 -12.70 -2.707 43.45 -2.707 43.45 -39.02 -12.70
14 -40.52 -15.69 -2.724 33.48 -2.724 33.48 -40.52 -15.69
14.1 -42.42 -15.24 -2.742 23.50 -2.742 23.50 -42.42 -15.24
14.2 -44.6 -8.36 -2.759 13.52 -2.759 13.52 -44.6 -8.36
14.3 -46.22 8.36 -2.776 3.55 -2.776 3.55 -46.22 8.36
14.4 -45.84 29.64 -2.794 -6.43 -2.794 -6.43 -45.84 29.64
14.5 -43.87 43.00 -2.812 -16.40 -2.812 -16.40 -43.87 43.00
14.6 -41.75 47.37 -2.829 -26.38 -2.829 -26.38 -41.75 47.37
14.7 -39.97 46.52 -2.847 -36.35 -2.847 -36.35 -39.97 46.52
14.8 -38.6 42.91 -2.865 -46.32 -2.865 -46.32 -38.6 42.91
14.9 -37.57 37.79 -2.882 -56.29 -2.882 -56.29 -37.57 37.79
15 -36.84 31.81 -2.9 -66.27 -2.9 -66.27 -36.84 31.81
15.1 -36.38 25.35 -2.918 -76.24 -2.918 -76.24 -36.38 25.35
15.2 -36.17 18.68 -2.935 -86.21 -2.935 -86.21 -36.17 18.68
15.3 -36.2 11.97 -2.953 -96.18 -2.953 -96.18 -36.2 11.97
15.4 -36.46 5.41 -2.97 -106.14 -2.97 -106.14 -36.46 5.41
15.5 -36.97 -0.79 -2.988 -116.11 -2.988 -116.11 -36.97 -0.79
15.6 -37.75 -6.35 -3.005 -126.08 -3.005 -126.08 -37.75 -6.35
15.7 -38.83 -10.82 -3.023 -136.05 -3.023 -136.05 -38.83 -10.82
15.8 -40.23 -13.41 -3.04 -146.02 -3.04 -146.02 -40.23 -13.41
15.9 -41.98 -12.71 -3.057 -155.98 -3.057 -155.98 -41.98 -12.71
16 -43.9 -6.24 -3.075 -165.95 -3.075 -165.95 -43.9 -6.24
16.1 -45.31 8.36 -3.092 -175.92 -3.092 -175.92 -45.31 8.36
16.2 -45.1 26.89 -3.109 174.12 -3.109 174.12 -45.1 26.89
16.3 -43.47 39.66 -3.127 164.15 -3.127 164.15 -43.47 39.66
16.4 -41.56 44.60 -3.144 154.18 -3.144 154.18 -41.56 44.60
16.5 -39.89 44.46 -3.162 144.22 -3.162 144.22 -39.89 44.46
16.6 -38.56 41.45 -3.179 134.25 -3.179 134.25 -38.56 41.45
16.7 -37.55 36.83 -3.197 124.29 -3.197 124.29 -37.55 36.83
16.8 -36.83 31.28 -3.214 114.32 -3.214 114.32 -36.83 31.28
16.9 -36.37 25.20 -3.232 104.36 -3.232 104.36 -36.37 25.20
17 -36.16 18.86 -3.249 94.40 -3.249 94.40 -36.16 18.86
17.1 -36.17 12.47 -3.267 84.44 -3.267 84.44 -36.17 12.47
17.2 -36.41 6.23 -3.284 74.47 -3.284 74.47 -36.41 6.23
17.3 -36.89 0.34 -3.301 64.51 -3.301 64.51 -36.89 0.34
17.4 -37.63 -4.89 -3.318 54.55 -3.318 54.55 -37.63 -4.89
17.5 -38.64 -9.02 -3.336 44.59 -3.336 44.59 -38.64 -9.02
17.6 -39.95 -11.32 -3.353 34.63 -3.353 34.63 -39.95 -11.32
17.7 -41.55 -10.51 -3.37 24.67 -3.37 24.67 -41.55 -10.51
17.8 -43.26 -4.56 -3.387 14.71 -3.387 14.71 -43.26 -4.56
17.9 -44.51 8.18 -3.404 4.75 -3.404 4.75 -44.51 8.18
18 -44.44 24.45 -3.421 -5.21 -3.421 -5.21 -44.44 24.45
