! yapnr rf coupon B B06: S L100 (line, family S)
! stackup JLC06161H-7628, nominal parameters; reference planes 10 mm from each end; 50 ohm (renormalized from the line's Zc)
! model: 2D quasi-static RLGC (Djordjevic-Sarkar, Huray roughness, Wheeler loss); generated by python -m yapnr.rf.coupons expected
# GHz S DB R 50
0.1 -41.18 6.04 -0.1366 -26.35 -0.1366 -26.35 -41.18 6.04
0.2 -40.19 -8.76 -0.2118 -52.19 -0.2118 -52.19 -40.19 -8.76
0.3 -40.32 -23.60 -0.2795 -77.88 -0.2795 -77.88 -40.32 -23.60
0.4 -41.35 -39.18 -0.3432 -103.50 -0.3432 -103.50 -41.35 -39.18
0.5 -43.74 -55.57 -0.4044 -129.07 -0.4044 -129.07 -43.74 -55.57
0.6 -48.99 -70.79 -0.4639 -154.59 -0.4639 -154.59 -48.99 -70.79
0.7 -66.11 -6.68 -0.522 179.93 -0.522 179.93 -66.11 -6.68
0.8 -48.8 52.49 -0.5792 154.47 -0.5792 154.47 -48.8 52.49
0.9 -43.61 34.61 -0.6355 129.03 -0.6355 129.03 -43.61 34.61
1 -41.51 13.92 -0.6911 103.62 -0.6911 103.62 -41.51 13.92
1.1 -41.29 -7.37 -0.746 78.23 -0.746 78.23 -41.29 -7.37
1.2 -42.89 -28.16 -0.8002 52.85 -0.8002 52.85 -42.89 -28.16
1.3 -47.35 -45.48 -0.854 27.49 -0.854 27.49 -47.35 -45.48
1.4 -59.77 -10.15 -0.9073 2.15 -0.9073 2.15 -59.77 -10.15
1.5 -48.31 60.87 -0.9604 -23.19 -0.9604 -23.19 -48.31 60.87
1.6 -42.83 44.94 -1.013 -48.51 -1.013 -48.51 -42.83 44.94
1.7 -40.59 24.18 -1.066 -73.82 -1.066 -73.82 -40.59 24.18
1.8 -40.23 2.71 -1.118 -99.12 -1.118 -99.12 -40.23 2.71
1.9 -41.65 -17.97 -1.17 -124.41 -1.17 -124.41 -41.65 -17.97
2 -45.61 -34.58 -1.221 -149.69 -1.221 -149.69 -45.61 -34.58
2.1 -55.24 -14.10 -1.273 -174.96 -1.273 -174.96 -55.24 -14.10
2.2 -48.29 59.93 -1.324 159.78 -1.324 159.78 -48.29 59.93
2.3 -42.49 48.55 -1.375 134.52 -1.375 134.52 -42.49 48.55
2.4 -40.06 29.13 -1.426 109.28 -1.426 109.28 -40.06 29.13
2.5 -39.55 8.42 -1.477 84.04 -1.477 84.04 -39.55 8.42
2.6 -40.74 -11.56 -1.527 58.81 -1.527 58.81 -40.74 -11.56
2.7 -44.2 -27.45 -1.577 33.58 -1.577 33.58 -44.2 -27.45
2.8 -51.93 -16.05 -1.627 8.36 -1.627 8.36 -51.93 -16.05
2.9 -48.55 55.17 -1.677 -16.85 -1.677 -16.85 -48.55 55.17
3 -42.47 50.05 -1.727 -42.06 -1.727 -42.06 -42.47 50.05
3.1 -39.82 32.43 -1.777 -67.26 -1.777 -67.26 -39.82 32.43
3.2 -39.1 12.72 -1.827 -92.46 -1.827 -92.46 -39.1 12.72
3.3 -40.05 -6.50 -1.876 -117.64 -1.876 -117.64 -40.05 -6.50
3.4 -43.04 -21.88 -1.925 -142.83 -1.925 -142.83 -43.04 -21.88
3.5 -49.38 -16.55 -1.974 -168.01 -1.974 -168.01 -49.38 -16.55
3.6 -48.86 47.60 -2.023 166.82 -2.023 166.82 -48.86 47.60
3.7 -42.67 50.36 -2.072 141.64 -2.072 141.64 -42.67 50.36
3.8 -39.76 34.96 -2.122 116.48 -2.122 116.48 -39.76 34.96
3.9 -38.83 16.35 -2.17 91.32 -2.17 91.32 -38.83 16.35
4 -39.52 -2.11 -2.219 66.16 -2.219 66.16 -39.52 -2.11
4.1 -42.07 -17.14 -2.268 41.01 -2.268 41.01 -42.07 -17.14
4.2 -47.36 -16.08 -2.316 15.87 -2.316 15.87 -47.36 -16.08
4.3 -48.95 37.92 -2.364 -9.28 -2.364 -9.28 -48.95 37.92
4.4 -43.01 49.68 -2.413 -34.42 -2.413 -34.42 -43.01 49.68
4.5 -39.84 36.94 -2.461 -59.56 -2.461 -59.56 -39.84 36.94
4.6 -38.68 19.57 -2.51 -84.69 -2.51 -84.69 -38.68 19.57
4.7 -39.1 1.87 -2.558 -109.81 -2.558 -109.81 -39.1 1.87
4.8 -41.25 -12.89 -2.606 -134.94 -2.606 -134.94 -41.25 -12.89
4.9 -45.71 -14.95 -2.653 -160.06 -2.653 -160.06 -45.71 -14.95
5 -48.64 27.47 -2.701 174.82 -2.701 174.82 -48.64 27.47
5.1 -43.44 47.98 -2.749 149.71 -2.749 149.71 -43.44 47.98
5.2 -40.02 38.45 -2.797 124.60 -2.797 124.60 -40.02 38.45
5.3 -38.62 22.46 -2.845 99.49 -2.845 99.49 -38.62 22.46
5.4 -38.79 5.54 -2.892 74.39 -2.892 74.39 -38.79 5.54
5.5 -40.56 -8.99 -2.94 49.29 -2.94 49.29 -40.56 -8.99
5.6 -44.34 -13.36 -2.987 24.19 -2.987 24.19 -44.34 -13.36
5.7 -47.93 17.88 -3.034 -0.90 -3.034 -0.90 -47.93 17.88
5.8 -43.89 45.19 -3.081 -26.00 -3.081 -26.00 -43.89 45.19
5.9 -40.29 39.47 -3.129 -51.09 -3.129 -51.09 -40.29 39.47
6 -38.65 25.05 -3.176 -76.17 -3.176 -76.17 -38.65 25.05
6.1 -38.56 8.95 -3.223 -101.25 -3.223 -101.25 -38.56 8.95
6.2 -39.99 -5.34 -3.27 -126.33 -3.27 -126.33 -39.99 -5.34
6.3 -43.19 -11.45 -3.317 -151.41 -3.317 -151.41 -43.19 -11.45
6.4 -46.94 10.27 -3.364 -176.48 -3.364 -176.48 -46.94 10.27
6.5 -44.3 41.26 -3.411 158.44 -3.411 158.44 -44.3 41.26
6.6 -40.62 39.93 -3.458 133.37 -3.458 133.37 -40.62 39.93
6.7 -38.74 27.32 -3.505 108.30 -3.505 108.30 -38.74 27.32
6.8 -38.41 12.12 -3.552 83.24 -3.552 83.24 -38.41 12.12
6.9 -39.51 -1.89 -3.598 58.18 -3.598 58.18 -39.51 -1.89
7 -42.23 -9.32 -3.645 33.12 -3.645 33.12 -42.23 -9.32
7.1 -45.85 4.88 -3.691 8.07 -3.691 8.07 -45.85 4.88
7.2 -44.6 36.28 -3.737 -16.99 -3.737 -16.99 -44.6 36.28
7.3 -40.99 39.79 -3.784 -42.04 -3.784 -42.04 -40.99 39.79
7.4 -38.9 29.27 -3.831 -67.09 -3.831 -67.09 -38.9 29.27
7.5 -38.32 15.05 -3.877 -92.14 -3.877 -92.14 -38.32 15.05
7.6 -39.13 1.38 -3.924 -117.18 -3.924 -117.18 -39.13 1.38
7.7 -41.41 -7.03 -3.97 -142.22 -3.97 -142.22 -41.41 -7.03
7.8 -44.76 1.42 -4.016 -167.26 -4.016 -167.26 -44.76 1.42
7.9 -44.74 30.57 -4.062 167.70 -4.062 167.70 -44.74 30.57
8 -41.39 38.97 -4.108 142.66 -4.108 142.66 -41.39 38.97
8.1 -39.11 30.84 -4.154 117.62 -4.154 117.62 -39.11 30.84
8.2 -38.29 17.75 -4.2 92.59 -4.2 92.59 -38.29 17.75
8.3 -38.82 4.49 -4.246 67.56 -4.246 67.56 -38.82 4.49
8.4 -40.72 -4.64 -4.292 42.54 -4.292 42.54 -40.72 -4.64
8.5 -43.74 -0.52 -4.338 17.51 -4.338 17.51 -43.74 -0.52
8.6 -44.65 24.62 -4.384 -7.51 -4.384 -7.51 -44.65 24.62
8.7 -41.78 37.41 -4.43 -32.54 -4.43 -32.54 -41.78 37.41
8.8 -39.37 32.00 -4.476 -57.56 -4.476 -57.56 -39.37 32.00
8.9 -38.33 20.19 -4.522 -82.57 -4.522 -82.57 -38.33 20.19
9 -38.58 7.43 -4.567 -107.59 -4.567 -107.59 -38.58 7.43
9.1 -40.14 -2.19 -4.613 -132.60 -4.613 -132.60 -40.14 -2.19
9.2 -42.82 -1.33 -4.658 -157.61 -4.658 -157.61 -42.82 -1.33
9.3 -44.36 19.00 -4.704 177.38 -4.704 177.38 -44.36 19.00
9.4 -42.14 35.12 -4.749 152.37 -4.749 152.37 -42.14 35.12
9.5 -39.66 32.71 -4.795 127.36 -4.795 127.36 -39.66 32.71
9.6 -38.41 22.35 -4.841 102.35 -4.841 102.35 -38.41 22.35
9.7 -38.42 10.20 -4.886 77.35 -4.886 77.35 -38.42 10.20
9.8 -39.65 0.29 -4.931 52.35 -4.931 52.35 -39.65 0.29
9.9 -42 -1.32 -4.977 27.35 -4.977 27.35 -42 -1.32
10 -43.89 14.16 -5.022 2.36 -5.022 2.36 -43.89 14.16
10.1 -42.42 32.13 -5.067 -22.64 -5.067 -22.64 -42.42 32.13
10.2 -39.98 32.93 -5.112 -47.64 -5.112 -47.64 -39.98 32.93
10.3 -38.54 24.22 -5.158 -72.63 -5.158 -72.63 -38.54 24.22
10.4 -38.31 12.79 -5.203 -97.62 -5.203 -97.62 -38.31 12.79
10.5 -39.25 2.75 -5.248 -122.61 -5.248 -122.61 -39.25 2.75
10.6 -41.28 -0.71 -5.293 -147.60 -5.293 -147.60 -41.28 -0.71
10.7 -43.32 10.34 -5.338 -172.58 -5.338 -172.58 -43.32 10.34
10.8 -42.61 28.61 -5.383 162.43 -5.383 162.43 -42.61 28.61
10.9 -40.3 32.61 -5.428 137.45 -5.428 137.45 -40.3 32.61
11 -38.71 25.76 -5.473 112.47 -5.473 112.47 -38.71 25.76
11.1 -38.26 15.19 -5.519 87.49 -5.519 87.49 -38.26 15.19
11.2 -38.93 5.18 -5.563 62.51 -5.563 62.51 -38.93 5.18
11.3 -40.66 0.33 -5.608 37.53 -5.608 37.53 -40.66 0.33
11.4 -42.7 7.56 -5.653 12.56 -5.653 12.56 -42.7 7.56
11.5 -42.66 24.79 -5.698 -12.42 -5.698 -12.42 -42.66 24.79
11.6 -40.61 31.73 -5.742 -37.39 -5.742 -37.39 -40.61 31.73
11.7 -38.92 26.94 -5.787 -62.36 -5.787 -62.36 -38.92 26.94
11.8 -38.26 17.37 -5.832 -87.33 -5.832 -87.33 -38.26 17.37
11.9 -38.68 7.55 -5.877 -112.30 -5.877 -112.30 -38.68 7.55
12 -40.12 1.67 -5.922 -137.26 -5.922 -137.26 -40.12 1.67
12.1 -42.07 5.75 -5.966 -162.23 -5.966 -162.23 -42.07 5.75
12.2 -42.58 20.95 -6.011 172.81 -6.011 172.81 -42.58 20.95
12.3 -40.9 30.31 -6.055 147.84 -6.055 147.84 -40.9 30.31
12.4 -39.15 27.74 -6.1 122.88 -6.1 122.88 -39.15 27.74
12.5 -38.31 19.32 -6.144 97.92 -6.144 97.92 -38.31 19.32
12.6 -38.49 9.82 -6.189 72.97 -6.189 72.97 -38.49 9.82
12.7 -39.67 3.22 -6.233 48.01 -6.233 48.01 -39.67 3.22
12.8 -41.47 4.75 -6.278 23.05 -6.278 23.05 -41.47 4.75
12.9 -42.37 17.37 -6.322 -1.90 -6.322 -1.90 -42.37 17.37
13 -41.14 28.38 -6.366 -26.86 -6.366 -26.86 -41.14 28.38
13.1 -39.4 28.11 -6.411 -51.81 -6.411 -51.81 -39.4 28.11
13.2 -38.39 21.00 -6.455 -76.76 -6.455 -76.76 -38.39 21.00
13.3 -38.36 11.98 -6.5 -101.71 -6.5 -101.71 -38.36 11.98
13.4 -39.29 4.91 -6.544 -126.65 -6.544 -126.65 -39.29 4.91
13.5 -40.9 4.41 -6.588 -151.60 -6.588 -151.60 -40.9 4.41
13.6 -42.07 14.28 -6.632 -176.54 -6.632 -176.54 -42.07 14.28
13.7 -41.3 26.05 -6.676 158.51 -6.676 158.51 -41.3 26.05
13.8 -39.65 28.06 -6.72 133.57 -6.72 133.57 -39.65 28.06
13.9 -38.52 22.41 -6.765 108.62 -6.765 108.62 -38.52 22.41
14 -38.29 14.00 -6.809 83.69 -6.809 83.69 -38.29 14.00
14.1 -38.98 6.68 -6.853 58.75 -6.853 58.75 -38.98 6.68
14.2 -40.4 4.59 -6.897 33.81 -6.897 33.81 -40.4 4.59
14.3 -41.69 11.79 -6.941 8.87 -6.941 8.87 -41.69 11.79
14.4 -41.39 23.46 -6.985 -16.06 -6.985 -16.06 -41.39 23.46
14.5 -39.9 27.56 -7.029 -41.00 -7.029 -41.00 -39.9 27.56
14.6 -38.67 23.51 -7.073 -65.93 -7.073 -65.93 -38.67 23.51
14.7 -38.26 15.86 -7.117 -90.86 -7.117 -90.86 -38.26 15.86
14.8 -38.73 8.47 -7.161 -115.79 -7.161 -115.79 -38.73 8.47
14.9 -39.94 5.16 -7.205 -140.72 -7.205 -140.72 -39.94 5.16
15 -41.28 9.94 -7.248 -165.65 -7.248 -165.65 -41.28 9.94
15.1 -41.37 20.78 -7.292 169.42 -7.292 169.42 -41.37 20.78
15.2 -40.12 26.64 -7.336 144.49 -7.336 144.49 -40.12 26.64
15.3 -38.85 24.28 -7.38 119.57 -7.38 119.57 -38.85 24.28
15.4 -38.27 17.53 -7.424 94.64 -7.424 94.64 -38.27 17.53
15.5 -38.53 10.25 -7.468 69.72 -7.468 69.72 -38.53 10.25
15.6 -39.55 6.03 -7.511 44.80 -7.511 44.80 -39.55 6.03
15.7 -40.85 8.70 -7.555 19.88 -7.555 19.88 -40.85 8.70
15.8 -41.27 18.19 -7.598 -5.04 -7.598 -5.04 -41.27 18.19
15.9 -40.31 25.34 -7.642 -29.96 -7.642 -29.96 -40.31 25.34
16 -39.04 24.70 -7.686 -54.88 -7.686 -54.88 -39.04 24.70
16.1 -38.32 18.98 -7.729 -79.80 -7.729 -79.80 -38.32 18.98
16.2 -38.4 11.98 -7.773 -104.71 -7.773 -104.71 -38.4 11.98
16.3 -39.22 7.11 -7.817 -129.62 -7.817 -129.62 -39.22 7.11
16.4 -40.43 8.00 -7.86 -154.54 -7.86 -154.54 -40.43 8.00
16.5 -41.1 15.84 -7.903 -179.45 -7.903 -179.45 -41.1 15.84
16.6 -40.44 23.73 -7.947 155.64 -7.947 155.64 -40.44 23.73
16.7 -39.23 24.77 -7.99 130.73 -7.99 130.73 -39.23 24.77
16.8 -38.41 20.20 -8.034 105.82 -8.034 105.82 -38.41 20.20
16.9 -38.31 13.62 -8.077 80.91 -8.077 80.91 -38.31 13.62
17 -38.93 8.34 -8.121 56.00 -8.121 56.00 -38.93 8.34
17.1 -40.04 7.76 -8.164 31.10 -8.164 31.10 -40.04 7.76
17.2 -40.86 13.85 -8.207 6.19 -8.207 6.19 -40.86 13.85
17.3 -40.52 21.91 -8.251 -18.71 -8.251 -18.71 -40.52 21.91
17.4 -39.42 24.49 -8.294 -43.62 -8.294 -43.62 -39.42 24.49
17.5 -38.52 21.17 -8.337 -68.52 -8.337 -68.52 -38.52 21.17
17.6 -38.26 15.14 -8.381 -93.42 -8.381 -93.42 -38.26 15.14
17.7 -38.7 9.65 -8.424 -118.32 -8.424 -118.32 -38.7 9.65
17.8 -39.68 7.90 -8.467 -143.22 -8.467 -143.22 -39.68 7.90
17.9 -40.58 12.26 -8.51 -168.12 -8.51 -168.12 -40.58 12.26
18 -40.53 19.99 -8.553 166.98 -8.553 166.98 -40.53 19.99
