! yapnr rf coupon B: B08 S VER28 (verify, family S)
! stackup JLC06161H-7628, nominal parameters; reference planes 10 mm from each end; 50 ohm (renormalized from the line's Zc)
! model: 2D quasi-static RLGC (Djordjevic-Sarkar, Huray roughness, Wheeler loss); generated by python -m yapnr.rf.coupons expected
# GHz S DB R 50
0.1 -51.85 24.88 -0.03831 -7.38 -0.03831 -7.38 -51.85 24.88
0.2 -49.96 28.40 -0.05938 -14.61 -0.05938 -14.61 -49.96 28.40
0.3 -48.52 31.58 -0.07836 -21.81 -0.07836 -21.81 -48.52 31.58
0.4 -47.16 33.65 -0.09623 -28.98 -0.09623 -28.98 -47.16 33.65
0.5 -45.85 34.17 -0.1134 -36.14 -0.1134 -36.14 -45.85 34.17
0.6 -44.65 33.19 -0.1301 -43.28 -0.1301 -43.28 -44.65 33.19
0.7 -43.57 30.95 -0.1464 -50.42 -0.1464 -50.42 -43.57 30.95
0.8 -42.65 27.72 -0.1624 -57.55 -0.1624 -57.55 -42.65 27.72
0.9 -41.87 23.74 -0.1782 -64.67 -0.1782 -64.67 -41.87 23.74
1 -41.24 19.19 -0.1937 -71.79 -0.1937 -71.79 -41.24 19.19
1.1 -40.76 14.21 -0.2091 -78.90 -0.2091 -78.90 -40.76 14.21
1.2 -40.42 8.90 -0.2244 -86.00 -0.2244 -86.00 -40.42 8.90
1.3 -40.22 3.35 -0.2395 -93.10 -0.2395 -93.10 -40.22 3.35
1.4 -40.17 -2.39 -0.2545 -100.20 -0.2545 -100.20 -40.17 -2.39
1.5 -40.26 -8.26 -0.2693 -107.29 -0.2693 -107.29 -40.26 -8.26
1.6 -40.5 -14.22 -0.2841 -114.38 -0.2841 -114.38 -40.5 -14.22
1.7 -40.91 -20.24 -0.2988 -121.47 -0.2988 -121.47 -40.91 -20.24
1.8 -41.52 -26.26 -0.3133 -128.55 -0.3133 -128.55 -41.52 -26.26
1.9 -42.35 -32.23 -0.3278 -135.63 -0.3278 -135.63 -42.35 -32.23
2 -43.46 -38.08 -0.3422 -142.71 -0.3422 -142.71 -43.46 -38.08
2.1 -44.94 -43.66 -0.3565 -149.79 -0.3565 -149.79 -44.94 -43.66
2.2 -46.94 -48.69 -0.3708 -156.86 -0.3708 -156.86 -46.94 -48.69
2.3 -49.82 -52.38 -0.385 -163.93 -0.385 -163.93 -49.82 -52.38
2.4 -54.42 -51.72 -0.3992 -171.00 -0.3992 -171.00 -54.42 -51.72
2.5 -63.25 -20.03 -0.4133 -178.07 -0.4133 -178.07 -63.25 -20.03
2.6 -58.28 69.79 -0.4274 174.87 -0.4274 174.87 -58.28 69.79
2.7 -51.63 78.42 -0.4415 167.80 -0.4415 167.80 -51.63 78.42
2.8 -47.81 76.24 -0.4555 160.74 -0.4555 160.74 -47.81 76.24
2.9 -45.2 71.66 -0.4696 153.68 -0.4696 153.68 -45.2 71.66
3 -43.27 66.17 -0.4836 146.62 -0.4836 146.62 -43.27 66.17
3.1 -41.77 60.25 -0.4975 139.56 -0.4975 139.56 -41.77 60.25
3.2 -40.59 54.09 -0.5115 132.51 -0.5115 132.51 -40.59 54.09
3.3 -39.66 47.78 -0.5254 125.46 -0.5254 125.46 -39.66 47.78
3.4 -38.93 41.39 -0.5393 118.40 -0.5393 118.40 -38.93 41.39
3.5 -38.37 34.94 -0.5532 111.35 -0.5532 111.35 -38.37 34.94
3.6 -37.96 28.46 -0.567 104.31 -0.567 104.31 -37.96 28.46
3.7 -37.7 21.97 -0.5808 97.26 -0.5808 97.26 -37.7 21.97
3.8 -37.57 15.48 -0.5946 90.21 -0.5946 90.21 -37.57 15.48
3.9 -37.57 9.00 -0.6083 83.17 -0.6083 83.17 -37.57 9.00
4 -37.71 2.56 -0.622 76.12 -0.622 76.12 -37.71 2.56
4.1 -37.99 -3.83 -0.6356 69.08 -0.6356 69.08 -37.99 -3.83
4.2 -38.42 -10.14 -0.6492 62.04 -0.6492 62.04 -38.42 -10.14
4.3 -39.02 -16.34 -0.6627 55.00 -0.6627 55.00 -39.02 -16.34
4.4 -39.82 -22.37 -0.6761 47.96 -0.6761 47.96 -39.82 -22.37
4.5 -40.85 -28.14 -0.6896 40.93 -0.6896 40.93 -40.85 -28.14
4.6 -42.18 -33.50 -0.703 33.89 -0.703 33.89 -42.18 -33.50
4.7 -43.91 -38.12 -0.7163 26.85 -0.7163 26.85 -43.91 -38.12
4.8 -46.25 -41.25 -0.7297 19.82 -0.7297 19.82 -46.25 -41.25
4.9 -49.57 -40.73 -0.743 12.78 -0.743 12.78 -49.57 -40.73
5 -54.57 -27.57 -0.7563 5.75 -0.7563 5.75 -54.57 -27.57
5.1 -57.77 28.86 -0.7697 -1.28 -0.7697 -1.28 -57.77 28.86
5.2 -52.33 66.06 -0.783 -8.31 -0.783 -8.31 -52.33 66.06
5.3 -47.98 72.23 -0.7963 -15.34 -0.7963 -15.34 -47.98 72.23
5.4 -45.03 70.93 -0.8096 -22.37 -0.8096 -22.37 -45.03 70.93
5.5 -42.88 67.13 -0.823 -29.40 -0.823 -29.40 -42.88 67.13
5.6 -41.24 62.23 -0.8363 -36.43 -0.8363 -36.43 -41.24 62.23
5.7 -39.96 56.76 -0.8497 -43.46 -0.8497 -43.46 -39.96 56.76
5.8 -38.95 50.96 -0.863 -50.48 -0.863 -50.48 -38.95 50.96
5.9 -38.15 44.96 -0.8763 -57.51 -0.8763 -57.51 -38.15 44.96
6 -37.54 38.84 -0.8897 -64.53 -0.8897 -64.53 -37.54 38.84
6.1 -37.08 32.63 -0.903 -71.56 -0.903 -71.56 -37.08 32.63
6.2 -36.78 26.39 -0.9163 -78.58 -0.9163 -78.58 -36.78 26.39
6.3 -36.6 20.13 -0.9295 -85.60 -0.9295 -85.60 -36.6 20.13
6.4 -36.56 13.87 -0.9427 -92.62 -0.9427 -92.62 -36.56 13.87
6.5 -36.64 7.65 -0.9559 -99.64 -0.9559 -99.64 -36.64 7.65
6.6 -36.86 1.47 -0.969 -106.66 -0.969 -106.66 -36.86 1.47
6.7 -37.23 -4.61 -0.9821 -113.67 -0.9821 -113.67 -37.23 -4.61
6.8 -37.74 -10.57 -0.9952 -120.69 -0.9952 -120.69 -37.74 -10.57
6.9 -38.43 -16.35 -1.008 -127.71 -1.008 -127.71 -38.43 -16.35
7 -39.31 -21.85 -1.021 -134.72 -1.021 -134.72 -39.31 -21.85
7.1 -40.44 -26.93 -1.034 -141.74 -1.034 -141.74 -40.44 -26.93
7.2 -41.89 -31.30 -1.047 -148.76 -1.047 -148.76 -41.89 -31.30
7.3 -43.77 -34.39 -1.06 -155.77 -1.06 -155.77 -43.77 -34.39
7.4 -46.26 -34.86 -1.073 -162.78 -1.073 -162.78 -46.26 -34.86
7.5 -49.63 -28.86 -1.086 -169.80 -1.086 -169.80 -49.63 -28.86
7.6 -53.52 -4.40 -1.099 -176.81 -1.099 -176.81 -53.52 -4.40
7.7 -53.12 40.19 -1.111 176.18 -1.111 176.18 -53.12 40.19
7.8 -49.13 61.55 -1.124 169.16 -1.124 169.16 -49.13 61.55
7.9 -45.83 66.45 -1.137 162.15 -1.137 162.15 -45.83 66.45
8 -43.39 65.59 -1.15 155.14 -1.15 155.14 -43.39 65.59
8.1 -41.53 62.36 -1.163 148.13 -1.163 148.13 -41.53 62.36
8.2 -40.09 57.97 -1.176 141.12 -1.176 141.12 -40.09 57.97
8.3 -38.95 52.92 -1.189 134.11 -1.189 134.11 -38.95 52.92
8.4 -38.05 47.49 -1.202 127.11 -1.202 127.11 -38.05 47.49
8.5 -37.34 41.82 -1.215 120.10 -1.215 120.10 -37.34 41.82
8.6 -36.81 35.99 -1.228 113.09 -1.228 113.09 -36.81 35.99
8.7 -36.42 30.07 -1.241 106.09 -1.241 106.09 -36.42 30.07
8.8 -36.17 24.10 -1.254 99.08 -1.254 99.08 -36.17 24.10
8.9 -36.06 18.10 -1.267 92.08 -1.267 92.08 -36.06 18.10
9 -36.07 12.12 -1.28 85.07 -1.28 85.07 -36.07 12.12
9.1 -36.21 6.18 -1.293 78.07 -1.293 78.07 -36.21 6.18
9.2 -36.48 0.32 -1.305 71.07 -1.305 71.07 -36.48 0.32
9.3 -36.89 -5.42 -1.318 64.06 -1.318 64.06 -36.89 -5.42
9.4 -37.46 -10.99 -1.331 57.06 -1.331 57.06 -37.46 -10.99
9.5 -38.2 -16.30 -1.343 50.06 -1.343 50.06 -38.2 -16.30
9.6 -39.15 -21.21 -1.356 43.06 -1.356 43.06 -39.15 -21.21
9.7 -40.35 -25.51 -1.369 36.06 -1.369 36.06 -40.35 -25.51
9.8 -41.86 -28.78 -1.381 29.06 -1.381 29.06 -41.86 -28.78
9.9 -43.8 -30.19 -1.394 22.06 -1.394 22.06 -43.8 -30.19
10 -46.29 -27.81 -1.406 15.06 -1.406 15.06 -46.29 -27.81
10.1 -49.33 -16.80 -1.419 8.06 -1.419 8.06 -49.33 -16.80
10.2 -51.57 10.90 -1.432 1.06 -1.432 1.06 -51.57 10.90
10.3 -50.12 42.63 -1.444 -5.94 -1.444 -5.94 -50.12 42.63
10.4 -47.03 57.49 -1.457 -12.94 -1.457 -12.94 -47.03 57.49
10.5 -44.36 61.57 -1.469 -19.93 -1.469 -19.93 -44.36 61.57
10.6 -42.26 60.97 -1.482 -26.93 -1.482 -26.93 -42.26 60.97
10.7 -40.62 58.16 -1.495 -33.93 -1.495 -33.93 -40.62 58.16
10.8 -39.33 54.16 -1.507 -40.92 -1.507 -40.92 -39.33 54.16
10.9 -38.29 49.49 -1.52 -47.92 -1.52 -47.92 -38.29 49.49
11 -37.48 44.38 -1.533 -54.91 -1.533 -54.91 -37.48 44.38
11.1 -36.84 39.01 -1.546 -61.91 -1.546 -61.91 -36.84 39.01
11.2 -36.36 33.47 -1.558 -68.90 -1.558 -68.90 -36.36 33.47
11.3 -36.03 27.81 -1.571 -75.90 -1.571 -75.90 -36.03 27.81
11.4 -35.83 22.10 -1.584 -82.89 -1.584 -82.89 -35.83 22.10
11.5 -35.75 16.37 -1.596 -89.88 -1.596 -89.88 -35.75 16.37
11.6 -35.8 10.66 -1.609 -96.87 -1.609 -96.87 -35.8 10.66
11.7 -35.98 5.01 -1.622 -103.86 -1.622 -103.86 -35.98 5.01
11.8 -36.29 -0.54 -1.634 -110.85 -1.634 -110.85 -36.29 -0.54
11.9 -36.75 -5.93 -1.647 -117.84 -1.647 -117.84 -36.75 -5.93
12 -37.35 -11.10 -1.659 -124.83 -1.659 -124.83 -37.35 -11.10
12.1 -38.13 -15.92 -1.671 -131.82 -1.671 -131.82 -38.13 -15.92
12.2 -39.12 -20.23 -1.684 -138.81 -1.684 -138.81 -39.12 -20.23
12.3 -40.36 -23.72 -1.696 -145.80 -1.696 -145.80 -40.36 -23.72
12.4 -41.9 -25.86 -1.708 -152.79 -1.708 -152.79 -41.9 -25.86
12.5 -43.82 -25.58 -1.721 -159.78 -1.721 -159.78 -43.82 -25.58
12.6 -46.17 -20.59 -1.733 -166.77 -1.733 -166.77 -46.17 -20.59
12.7 -48.61 -6.42 -1.745 -173.76 -1.745 -173.76 -48.61 -6.42
12.8 -49.63 19.21 -1.758 179.25 -1.758 179.25 -49.63 19.21
12.9 -48.03 42.53 -1.77 172.27 -1.77 172.27 -48.03 42.53
13 -45.52 53.89 -1.783 165.28 -1.783 165.28 -45.52 53.89
13.1 -43.26 57.40 -1.795 158.29 -1.795 158.29 -43.26 57.40
13.2 -41.43 56.97 -1.807 151.30 -1.807 151.30 -41.43 56.97
13.3 -39.96 54.48 -1.82 144.32 -1.82 144.32 -39.96 54.48
13.4 -38.78 50.82 -1.832 137.33 -1.832 137.33 -38.78 50.82
13.5 -37.83 46.46 -1.845 130.35 -1.845 130.35 -37.83 46.46
13.6 -37.08 41.66 -1.857 123.36 -1.857 123.36 -37.08 41.66
13.7 -36.5 36.56 -1.87 116.38 -1.87 116.38 -36.5 36.56
13.8 -36.07 31.28 -1.882 109.39 -1.882 109.39 -36.07 31.28
13.9 -35.78 25.88 -1.895 102.41 -1.895 102.41 -35.78 25.88
14 -35.62 20.43 -1.907 95.43 -1.907 95.43 -35.62 20.43
14.1 -35.58 14.95 -1.92 88.44 -1.92 88.44 -35.58 14.95
14.2 -35.66 9.51 -1.932 81.46 -1.932 81.46 -35.66 9.51
14.3 -35.87 4.14 -1.945 74.48 -1.945 74.48 -35.87 4.14
14.4 -36.21 -1.10 -1.957 67.50 -1.957 67.50 -36.21 -1.10
14.5 -36.69 -6.15 -1.969 60.52 -1.969 60.52 -36.69 -6.15
14.6 -37.32 -10.91 -1.981 53.54 -1.981 53.54 -37.32 -10.91
14.7 -38.13 -15.24 -1.994 46.56 -1.994 46.56 -38.13 -15.24
14.8 -39.14 -18.94 -2.006 39.58 -2.006 39.58 -39.14 -18.94
14.9 -40.39 -21.63 -2.018 32.60 -2.018 32.60 -40.39 -21.63
15 -41.92 -22.68 -2.03 25.62 -2.03 25.62 -41.92 -22.68
15.1 -43.77 -20.85 -2.042 18.64 -2.042 18.64 -43.77 -20.85
15.2 -45.86 -13.85 -2.054 11.66 -2.054 11.66 -45.86 -13.85
15.3 -47.68 1.47 -2.067 4.68 -2.067 4.68 -47.68 1.47
15.4 -47.98 23.51 -2.079 -2.30 -2.079 -2.30 -47.98 23.51
15.5 -46.46 41.50 -2.091 -9.28 -2.091 -9.28 -46.46 41.50
15.6 -44.35 50.68 -2.103 -16.26 -2.103 -16.26 -44.35 50.68
15.7 -42.41 53.77 -2.115 -23.24 -2.115 -23.24 -42.41 53.77
15.8 -40.78 53.47 -2.128 -30.22 -2.128 -30.22 -40.78 53.47
15.9 -39.45 51.24 -2.14 -37.19 -2.14 -37.19 -39.45 51.24
16 -38.37 47.88 -2.152 -44.17 -2.152 -44.17 -38.37 47.88
16.1 -37.5 43.80 -2.165 -51.15 -2.165 -51.15 -37.5 43.80
16.2 -36.8 39.27 -2.177 -58.12 -2.177 -58.12 -36.8 39.27
16.3 -36.27 34.43 -2.189 -65.10 -2.189 -65.10 -36.27 34.43
16.4 -35.88 29.40 -2.202 -72.08 -2.202 -72.08 -35.88 29.40
16.5 -35.62 24.25 -2.214 -79.05 -2.214 -79.05 -35.62 24.25
16.6 -35.49 19.03 -2.226 -86.03 -2.226 -86.03 -35.49 19.03
16.7 -35.48 13.81 -2.238 -93.00 -2.238 -93.00 -35.48 13.81
16.8 -35.59 8.62 -2.251 -99.97 -2.251 -99.97 -35.59 8.62
16.9 -35.82 3.53 -2.263 -106.95 -2.263 -106.95 -35.82 3.53
17 -36.18 -1.41 -2.275 -113.92 -2.275 -113.92 -36.18 -1.41
17.1 -36.68 -6.11 -2.287 -120.89 -2.287 -120.89 -36.68 -6.11
17.2 -37.33 -10.47 -2.299 -127.87 -2.299 -127.87 -37.33 -10.47
17.3 -38.16 -14.33 -2.311 -134.84 -2.311 -134.84 -38.16 -14.33
17.4 -39.17 -17.43 -2.323 -141.81 -2.323 -141.81 -39.17 -17.43
17.5 -40.41 -19.35 -2.335 -148.78 -2.335 -148.78 -40.41 -19.35
17.6 -41.89 -19.39 -2.347 -155.76 -2.347 -155.76 -41.89 -19.39
17.7 -43.62 -16.28 -2.359 -162.73 -2.359 -162.73 -43.62 -16.28
17.8 -45.41 -8.01 -2.371 -169.70 -2.371 -169.70 -45.41 -8.01
17.9 -46.7 7.06 -2.383 -176.67 -2.383 -176.67 -46.7 7.06
18 -46.62 25.67 -2.395 176.35 -2.395 176.35 -46.62 25.67
