! yapnr rf coupon B B09: B09 S0.7 (variant, family S0.7)
! stackup JLC06161H-7628, nominal parameters; reference planes 10 mm from each end; 50 ohm (renormalized from the line's Zc)
! model: 2D quasi-static RLGC (Djordjevic-Sarkar, Huray roughness, Wheeler loss); generated by python -m yapnr.rf.coupons expected
# GHz S DB R 50
0.1 -30.19 70.47 -0.06954 -10.70 -0.06954 -10.70 -30.19 70.47
0.2 -24.64 63.37 -0.1127 -21.16 -0.1127 -21.16 -24.64 63.37
0.3 -21.51 54.50 -0.1569 -31.52 -0.1569 -31.52 -21.51 54.50
0.4 -19.44 45.14 -0.2021 -41.81 -0.2021 -41.81 -19.44 45.14
0.5 -18.02 35.60 -0.2466 -52.03 -0.2466 -52.03 -18.02 35.60
0.6 -17.04 26.00 -0.2884 -62.20 -0.2884 -62.20 -17.04 26.00
0.7 -16.41 16.39 -0.3259 -72.31 -0.3259 -72.31 -16.41 16.39
0.8 -16.08 6.78 -0.3574 -82.39 -0.3574 -82.39 -16.08 6.78
0.9 -16.03 -2.80 -0.3822 -92.45 -0.3822 -92.45 -16.03 -2.80
1 -16.24 -12.34 -0.4001 -102.50 -0.4001 -102.50 -16.24 -12.34
1.1 -16.74 -21.84 -0.4119 -112.57 -0.4119 -112.57 -16.74 -21.84
1.2 -17.55 -31.24 -0.419 -122.66 -0.419 -122.66 -17.55 -31.24
1.3 -18.75 -40.49 -0.4231 -132.78 -0.4231 -132.78 -18.75 -40.49
1.4 -20.47 -49.41 -0.4267 -142.94 -0.4267 -142.94 -20.47 -49.41
1.5 -22.96 -57.58 -0.4319 -153.14 -0.4319 -153.14 -22.96 -57.58
1.6 -26.85 -63.62 -0.441 -163.37 -0.441 -163.37 -26.85 -63.62
1.7 -34.34 -58.25 -0.4555 -173.61 -0.4555 -173.61 -34.34 -58.25
1.8 -37.37 47.55 -0.4763 176.14 -0.4763 176.14 -37.37 47.55
1.9 -28.19 63.56 -0.5036 165.90 -0.5036 165.90 -28.19 63.56
2 -23.78 58.70 -0.5365 155.68 -0.5365 155.68 -23.78 58.70
2.1 -21.07 50.92 -0.5737 145.50 -0.5737 145.50 -21.07 50.92
2.2 -19.22 42.25 -0.6131 135.36 -0.6131 135.36 -19.22 42.25
2.3 -17.94 33.23 -0.6526 125.27 -0.6526 125.27 -17.94 33.23
2.4 -17.07 24.06 -0.6899 115.22 -0.6899 115.22 -17.07 24.06
2.5 -16.52 14.83 -0.723 105.21 -0.723 105.21 -16.52 14.83
2.6 -16.26 5.61 -0.7507 95.22 -0.7507 95.22 -16.26 5.61
2.7 -16.27 -3.58 -0.7721 85.25 -0.7721 85.25 -16.27 -3.58
2.8 -16.54 -12.70 -0.7872 75.27 -0.7872 75.27 -16.54 -12.70
2.9 -17.09 -21.72 -0.7968 65.27 -0.7968 65.27 -17.09 -21.72
3 -17.97 -30.53 -0.8022 55.24 -0.8022 55.24 -17.97 -30.53
3.1 -19.24 -39.00 -0.8053 45.18 -0.8053 45.18 -19.24 -39.00
3.2 -21.04 -46.79 -0.8082 35.08 -0.8082 35.08 -21.04 -46.79
3.3 -23.65 -53.02 -0.8131 24.94 -0.8131 24.94 -23.65 -53.02
3.4 -27.68 -54.74 -0.8219 14.77 -0.8219 14.77 -27.68 -54.74
3.5 -34.44 -34.35 -0.836 4.58 -0.836 4.58 -34.44 -34.35
3.6 -33.55 40.45 -0.8562 -5.61 -0.8562 -5.61 -33.55 40.45
3.7 -27.15 55.70 -0.8825 -15.79 -0.8825 -15.79 -27.15 55.70
3.8 -23.37 53.19 -0.9141 -25.96 -0.9141 -25.96 -23.37 53.19
3.9 -20.9 46.79 -0.9495 -36.08 -0.9495 -36.08 -20.9 46.79
4 -19.19 39.04 -0.9869 -46.17 -0.9869 -46.17 -19.19 39.04
4.1 -18 30.70 -1.024 -56.22 -1.024 -56.22 -18 30.70
4.2 -17.19 22.08 -1.059 -66.22 -1.059 -66.22 -17.19 22.08
4.3 -16.69 13.34 -1.09 -76.20 -1.09 -76.20 -16.69 13.34
4.4 -16.47 4.56 -1.116 -86.15 -1.116 -86.15 -16.47 4.56
4.5 -16.52 -4.20 -1.135 -96.10 -1.135 -96.10 -16.52 -4.20
4.6 -16.82 -12.87 -1.149 -106.05 -1.149 -106.05 -16.82 -12.87
4.7 -17.41 -21.38 -1.158 -116.03 -1.158 -116.03 -17.41 -21.38
4.8 -18.31 -29.59 -1.164 -126.03 -1.164 -126.03 -18.31 -29.59
4.9 -19.62 -37.27 -1.167 -136.06 -1.167 -136.06 -19.62 -37.27
5 -21.45 -43.92 -1.17 -146.13 -1.17 -146.13 -21.45 -43.92
5.1 -24.06 -48.25 -1.176 -156.24 -1.176 -156.24 -24.06 -48.25
5.2 -27.95 -46.06 -1.185 -166.38 -1.185 -166.38 -27.95 -46.06
5.3 -33.08 -19.18 -1.199 -176.53 -1.199 -176.53 -33.08 -19.18
5.4 -31.45 34.69 -1.219 173.32 -1.219 173.32 -31.45 34.69
5.5 -26.51 49.41 -1.245 163.17 -1.245 163.17 -26.51 49.41
5.6 -23.15 48.58 -1.275 153.04 -1.275 153.04 -23.15 48.58
5.7 -20.86 43.33 -1.309 142.95 -1.309 142.95 -20.86 43.33
5.8 -19.26 36.39 -1.345 132.89 -1.345 132.89 -19.26 36.39
5.9 -18.12 28.66 -1.38 122.87 -1.38 122.87 -18.12 28.66
6 -17.35 20.55 -1.413 112.89 -1.413 112.89 -17.35 20.55
6.1 -16.89 12.25 -1.443 102.94 -1.443 102.94 -16.89 12.25
6.2 -16.7 3.89 -1.467 93.00 -1.467 93.00 -16.7 3.89
6.3 -16.76 -4.45 -1.486 83.07 -1.486 83.07 -16.76 -4.45
6.4 -17.08 -12.69 -1.5 73.13 -1.5 73.13 -17.08 -12.69
6.5 -17.68 -20.72 -1.508 63.18 -1.508 63.18 -17.68 -20.72
6.6 -18.6 -28.35 -1.514 53.19 -1.514 53.19 -18.6 -28.35
6.7 -19.91 -35.29 -1.518 43.18 -1.518 43.18 -19.91 -35.29
6.8 -21.72 -40.87 -1.522 33.12 -1.522 33.12 -21.72 -40.87
6.9 -24.26 -43.52 -1.528 23.04 -1.528 23.04 -24.26 -43.52
7 -27.81 -38.46 -1.537 12.93 -1.537 12.93 -27.81 -38.46
7.1 -31.56 -11.32 -1.552 2.81 -1.552 2.81 -31.56 -11.32
7.2 -30.04 29.84 -1.571 -7.32 -1.571 -7.32 -30.04 29.84
7.3 -26.05 44.09 -1.596 -17.44 -1.596 -17.44 -26.05 44.09
7.4 -23.03 44.59 -1.626 -27.54 -1.626 -27.54 -23.03 44.59
7.5 -20.9 40.34 -1.659 -37.61 -1.659 -37.61 -20.9 40.34
7.6 -19.36 34.14 -1.693 -47.65 -1.693 -47.65 -19.36 34.14
7.7 -18.28 26.99 -1.727 -57.65 -1.727 -57.65 -18.28 26.99
7.8 -17.54 19.36 -1.758 -67.61 -1.758 -67.61 -17.54 19.36
7.9 -17.1 11.48 -1.786 -77.56 -1.786 -77.56 -17.1 11.48
8 -16.92 3.52 -1.81 -87.48 -1.81 -87.48 -16.92 3.52
8.1 -16.99 -4.43 -1.828 -97.40 -1.828 -97.40 -16.99 -4.43
8.2 -17.32 -12.26 -1.842 -107.33 -1.842 -107.33 -17.32 -12.26
8.3 -17.92 -19.82 -1.851 -117.27 -1.851 -117.27 -17.92 -19.82
8.4 -18.84 -26.92 -1.857 -127.24 -1.857 -127.24 -18.84 -26.92
8.5 -20.13 -33.16 -1.861 -137.25 -1.861 -137.25 -20.13 -33.16
8.6 -21.89 -37.80 -1.865 -147.28 -1.865 -147.28 -21.89 -37.80
8.7 -24.3 -39.08 -1.872 -157.34 -1.872 -157.34 -24.3 -39.08
8.8 -27.45 -32.30 -1.882 -167.43 -1.882 -167.43 -27.45 -32.30
8.9 -30.23 -7.37 -1.896 -177.54 -1.896 -177.54 -30.23 -7.37
9 -28.99 25.67 -1.916 172.36 -1.916 172.36 -28.99 25.67
9.1 -25.71 39.45 -1.94 162.26 -1.94 162.26 -25.71 39.45
9.2 -22.98 41.04 -1.969 152.18 -1.969 152.18 -22.98 41.04
9.3 -20.97 37.70 -2 142.13 -2 142.13 -20.97 37.70
9.4 -19.5 32.19 -2.033 132.11 -2.033 132.11 -19.5 32.19
9.5 -18.45 25.59 -2.066 122.12 -2.066 122.12 -18.45 25.59
9.6 -17.74 18.41 -2.096 112.17 -2.096 112.17 -17.74 18.41
9.7 -17.31 10.95 -2.123 102.24 -2.123 102.24 -17.31 10.95
9.8 -17.14 3.36 -2.146 92.32 -2.146 92.32 -17.14 3.36
9.9 -17.21 -4.21 -2.164 82.41 -2.164 82.41 -17.21 -4.21
10 -17.54 -11.64 -2.177 72.49 -2.177 72.49 -17.54 -11.64
10.1 -18.14 -18.77 -2.187 62.55 -2.187 62.55 -18.14 -18.77
10.2 -19.03 -25.36 -2.193 52.59 -2.193 52.59 -19.03 -25.36
10.3 -20.28 -30.99 -2.198 42.60 -2.198 42.60 -20.28 -30.99
10.4 -21.98 -34.83 -2.203 32.58 -2.203 32.58 -21.98 -34.83
10.5 -24.22 -35.08 -2.21 22.53 -2.21 22.53 -24.22 -35.08
10.6 -26.98 -27.51 -2.221 12.46 -2.221 12.46 -26.98 -27.51
10.7 -29.12 -5.42 -2.235 2.38 -2.235 2.38 -29.12 -5.42
10.8 -28.17 22.02 -2.254 -7.71 -2.254 -7.71 -28.17 22.02
10.9 -25.43 35.32 -2.278 -17.79 -2.278 -17.79 -25.43 35.32
11 -22.96 37.82 -2.306 -27.85 -2.306 -27.85 -22.96 37.82
11.1 -21.06 35.32 -2.336 -37.89 -2.336 -37.89 -21.06 35.32
11.2 -19.65 30.46 -2.368 -47.89 -2.368 -47.89 -19.65 30.46
11.3 -18.63 24.39 -2.399 -57.87 -2.399 -57.87 -18.63 24.39
11.4 -17.93 17.66 -2.428 -67.81 -2.428 -67.81 -17.93 17.66
11.5 -17.51 10.59 -2.455 -77.74 -2.455 -77.74 -17.51 10.59
11.6 -17.35 3.37 -2.477 -87.65 -2.477 -87.65 -17.35 3.37
11.7 -17.42 -3.84 -2.495 -97.56 -2.495 -97.56 -17.42 -3.84
11.8 -17.74 -10.90 -2.508 -107.47 -2.508 -107.47 -17.74 -10.90
11.9 -18.32 -17.63 -2.518 -117.40 -2.518 -117.40 -18.32 -17.63
12 -19.19 -23.75 -2.525 -127.35 -2.525 -127.35 -19.19 -23.75
12.1 -20.39 -28.83 -2.531 -137.33 -2.531 -137.33 -20.39 -28.83
12.2 -22 -32.01 -2.537 -147.34 -2.537 -147.34 -22 -32.01
12.3 -24.07 -31.55 -2.544 -157.37 -2.544 -157.37 -24.07 -31.55
12.4 -26.47 -23.83 -2.555 -167.43 -2.555 -167.43 -26.47 -23.83
12.5 -28.2 -4.52 -2.569 -177.49 -2.569 -177.49 -28.2 -4.52
12.6 -27.49 18.80 -2.588 172.44 -2.588 172.44 -27.49 18.80
12.7 -25.2 31.60 -2.611 162.37 -2.611 162.37 -25.2 31.60
12.8 -22.96 34.86 -2.637 152.33 -2.637 152.33 -22.96 34.86
12.9 -21.17 33.14 -2.667 142.30 -2.667 142.30 -21.17 33.14
13 -19.81 28.91 -2.697 132.31 -2.697 132.31 -19.81 28.91
13.1 -18.82 23.34 -2.727 122.34 -2.727 122.34 -18.82 23.34
13.2 -18.13 17.05 -2.756 112.40 -2.756 112.40 -18.13 17.05
13.3 -17.72 10.36 -2.782 102.48 -2.782 102.48 -17.72 10.36
13.4 -17.55 3.50 -2.804 92.57 -2.804 92.57 -17.55 3.50
13.5 -17.61 -3.37 -2.821 82.67 -2.821 82.67 -17.61 -3.37
13.6 -17.92 -10.07 -2.835 72.76 -2.835 72.76 -17.92 -10.07
13.7 -18.48 -16.42 -2.845 62.84 -2.845 62.84 -18.48 -16.42
13.8 -19.31 -22.13 -2.853 52.89 -2.853 52.89 -19.31 -22.13
13.9 -20.46 -26.73 -2.859 42.92 -2.859 42.92 -20.46 -26.73
14 -21.97 -29.39 -2.865 32.93 -2.865 32.93 -21.97 -29.39
14.1 -23.87 -28.48 -2.873 22.91 -2.873 22.91 -23.87 -28.48
14.2 -25.97 -21.02 -2.884 12.87 -2.884 12.87 -25.97 -21.02
14.3 -27.41 -4.19 -2.898 2.81 -2.898 2.81 -27.41 -4.19
14.4 -26.91 15.95 -2.917 -7.24 -2.917 -7.24 -26.91 15.95
14.5 -25 28.22 -2.939 -17.29 -2.939 -17.29 -25 28.22
14.6 -22.97 32.11 -2.965 -27.33 -2.965 -27.33 -22.97 32.11
14.7 -21.28 31.10 -2.993 -37.34 -2.993 -37.34 -21.28 31.10
14.8 -19.97 27.48 -3.023 -47.33 -3.023 -47.33 -19.97 27.48
14.9 -19 22.42 -3.052 -57.29 -3.052 -57.29 -19 22.42
15 -18.33 16.54 -3.08 -67.22 -3.08 -67.22 -18.33 16.54
15.1 -17.91 10.23 -3.105 -77.14 -3.105 -77.14 -17.91 10.23
15.2 -17.74 3.71 -3.126 -87.04 -3.126 -87.04 -17.74 3.71
15.3 -17.79 -2.82 -3.144 -96.94 -3.144 -96.94 -17.79 -2.82
15.4 -18.08 -9.19 -3.158 -106.85 -3.158 -106.85 -18.08 -9.19
15.5 -18.61 -15.18 -3.169 -116.76 -3.169 -116.76 -18.61 -15.18
15.6 -19.41 -20.52 -3.177 -126.70 -3.177 -126.70 -19.41 -20.52
15.7 -20.5 -24.72 -3.184 -136.66 -3.184 -136.66 -20.5 -24.72
15.8 -21.91 -26.98 -3.191 -146.65 -3.191 -146.65 -21.91 -26.98
15.9 -23.64 -25.82 -3.199 -156.65 -3.199 -156.65 -23.64 -25.82
16 -25.49 -18.83 -3.21 -166.68 -3.21 -166.68 -25.49 -18.83
16.1 -26.74 -4.16 -3.224 -176.72 -3.224 -176.72 -26.74 -4.16
16.2 -26.41 13.42 -3.242 173.24 -3.242 173.24 -26.41 13.42
16.3 -24.81 25.13 -3.264 163.20 -3.264 163.20 -24.81 25.13
16.4 -22.99 29.54 -3.289 153.18 -3.289 153.18 -22.99 29.54
16.5 -21.4 29.20 -3.316 143.17 -3.316 143.17 -21.4 29.20
16.6 -20.14 26.15 -3.344 133.19 -3.344 133.19 -20.14 26.15
16.7 -19.19 21.58 -3.373 123.24 -3.373 123.24 -19.19 21.58
16.8 -18.52 16.12 -3.4 113.31 -3.4 113.31 -18.52 16.12
16.9 -18.1 10.17 -3.424 103.39 -3.424 103.39 -18.1 10.17
17 -17.92 3.99 -3.446 93.49 -3.446 93.49 -17.92 3.99
17.1 -17.96 -2.22 -3.463 83.59 -3.463 83.59 -17.96 -2.22
17.2 -18.23 -8.27 -3.478 73.69 -3.478 73.69 -18.23 -8.27
17.3 -18.73 -13.95 -3.489 63.78 -3.489 63.78 -18.73 -13.95
17.4 -19.48 -18.94 -3.497 53.85 -3.497 53.85 -19.48 -18.94
17.5 -20.51 -22.81 -3.505 43.90 -3.505 43.90 -20.51 -22.81
17.6 -21.82 -24.77 -3.512 33.92 -3.512 33.92 -21.82 -24.77
17.7 -23.4 -23.52 -3.521 23.93 -3.521 23.93 -23.4 -23.52
17.8 -25.04 -17.11 -3.532 13.91 -3.532 13.91 -25.04 -17.11
17.9 -26.15 -4.31 -3.546 3.88 -3.546 3.88 -26.15 -4.31
18 -25.96 11.17 -3.564 -6.15 -3.564 -6.15 -25.96 11.17
