! yapnr rf coupon B B10: B10 S1.4 (variant, family S1.4)
! stackup JLC06161H-7628, nominal parameters; reference planes 10 mm from each end; 50 ohm (renormalized from the line's Zc)
! model: 2D quasi-static RLGC (Djordjevic-Sarkar, Huray roughness, Wheeler loss); generated by python -m yapnr.rf.coupons expected
# GHz S DB R 50
0.1 -30.62 -97.38 -0.05139 -10.66 -0.05139 -10.66 -30.62 -97.38
0.2 -24.79 -109.84 -0.09128 -21.10 -0.09128 -21.10 -24.79 -109.84
0.3 -21.58 -120.99 -0.1341 -31.45 -0.1341 -31.45 -21.58 -120.99
0.4 -19.5 -131.68 -0.1785 -41.73 -0.1785 -41.73 -19.5 -131.68
0.5 -18.07 -142.11 -0.2224 -51.93 -0.2224 -51.93 -18.07 -142.11
0.6 -17.1 -152.37 -0.2634 -62.07 -0.2634 -62.07 -17.1 -152.37
0.7 -16.49 -162.49 -0.2996 -72.17 -0.2996 -72.17 -16.49 -162.49
0.8 -16.18 -172.51 -0.3294 -82.22 -0.3294 -82.22 -16.18 -172.51
0.9 -16.14 177.57 -0.3523 -92.26 -0.3523 -92.26 -16.14 177.57
1 -16.37 167.72 -0.3682 -102.30 -0.3682 -102.30 -16.37 167.72
1.1 -16.88 157.96 -0.378 -112.35 -0.378 -112.35 -16.88 157.96
1.2 -17.71 148.30 -0.3832 -122.43 -0.3832 -122.43 -17.71 148.30
1.3 -18.91 138.81 -0.3859 -132.54 -0.3859 -132.54 -18.91 138.81
1.4 -20.63 129.62 -0.3883 -142.69 -0.3883 -142.69 -20.63 129.62
1.5 -23.12 121.11 -0.3927 -152.87 -0.3927 -152.87 -23.12 121.11
1.6 -26.99 114.52 -0.4012 -163.08 -0.4012 -163.08 -26.99 114.52
1.7 -34.4 117.87 -0.415 -173.31 -0.415 -173.31 -34.4 117.87
1.8 -38.42 -133.39 -0.4351 176.46 -0.4351 176.46 -38.42 -133.39
1.9 -28.72 -116.83 -0.4612 166.24 -0.4612 166.24 -28.72 -116.83
2 -24.24 -122.02 -0.4926 156.04 -0.4926 156.04 -24.24 -122.02
2.1 -21.5 -130.02 -0.5276 145.89 -0.5276 145.89 -21.5 -130.02
2.2 -19.64 -138.85 -0.5644 135.77 -0.5644 135.77 -19.64 -138.85
2.3 -18.36 -148.01 -0.6008 125.70 -0.6008 125.70 -18.36 -148.01
2.4 -17.48 -157.31 -0.6348 115.66 -0.6348 115.66 -17.48 -157.31
2.5 -16.94 -166.65 -0.6647 105.66 -0.6647 105.66 -16.94 -166.65
2.6 -16.68 -175.99 -0.6893 95.68 -0.6893 95.68 -16.68 -175.99
2.7 -16.69 174.70 -0.7081 85.70 -0.7081 85.70 -16.69 174.70
2.8 -16.96 165.45 -0.7213 75.72 -0.7213 75.72 -16.96 165.45
2.9 -17.51 156.30 -0.7296 65.72 -0.7296 65.72 -17.51 156.30
3 -18.39 147.33 -0.7345 55.69 -0.7345 55.69 -18.39 147.33
3.1 -19.65 138.67 -0.7378 45.63 -0.7378 45.63 -19.65 138.67
3.2 -21.45 130.64 -0.7413 35.53 -0.7413 35.53 -21.45 130.64
3.3 -24.03 123.99 -0.7471 25.40 -0.7471 25.40 -24.03 123.99
3.4 -28.02 121.34 -0.7567 15.25 -0.7567 15.25 -28.02 121.34
3.5 -34.93 138.46 -0.7714 5.08 -0.7714 5.08 -34.93 138.46
3.6 -34.83 -142.10 -0.7915 -5.09 -0.7915 -5.09 -34.83 -142.10
3.7 -28.03 -125.59 -0.8169 -15.24 -0.8169 -15.24 -28.03 -125.59
3.8 -24.12 -128.25 -0.8468 -25.38 -0.8468 -25.38 -24.12 -128.25
3.9 -21.6 -134.81 -0.8797 -35.48 -0.8797 -35.48 -21.6 -134.81
4 -19.86 -142.70 -0.9138 -45.55 -0.9138 -45.55 -19.86 -142.70
4.1 -18.65 -151.16 -0.9474 -55.58 -0.9474 -55.58 -18.65 -151.16
4.2 -17.82 -159.88 -0.9786 -65.58 -0.9786 -65.58 -17.82 -159.88
4.3 -17.32 -168.74 -1.006 -75.55 -1.006 -75.55 -17.32 -168.74
4.4 -17.09 -177.63 -1.029 -85.50 -1.029 -85.50 -17.09 -177.63
4.5 -17.12 173.49 -1.046 -95.46 -1.046 -95.46 -17.12 173.49
4.6 -17.42 164.69 -1.058 -105.42 -1.058 -105.42 -17.42 164.69
4.7 -18 156.04 -1.067 -115.39 -1.067 -115.39 -18 156.04
4.8 -18.9 147.65 -1.072 -125.40 -1.072 -125.40 -18.9 147.65
4.9 -20.19 139.74 -1.076 -135.44 -1.076 -135.44 -20.19 139.74
5 -22 132.76 -1.081 -145.50 -1.081 -145.50 -22 132.76
5.1 -24.58 127.85 -1.088 -155.60 -1.088 -155.60 -24.58 127.85
5.2 -28.45 128.74 -1.098 -165.72 -1.098 -165.72 -28.45 128.74
5.3 -33.96 152.73 -1.113 -175.85 -1.113 -175.85 -33.96 152.73
5.4 -32.89 -148.76 -1.134 174.02 -1.134 174.02 -32.89 -148.76
5.5 -27.62 -132.38 -1.158 163.90 -1.158 163.90 -27.62 -132.38
5.6 -24.11 -133.18 -1.187 153.81 -1.187 153.81 -24.11 -133.18
5.7 -21.75 -138.55 -1.218 143.74 -1.218 143.74 -21.75 -138.55
5.8 -20.1 -145.62 -1.25 133.70 -1.25 133.70 -20.1 -145.62
5.9 -18.94 -153.46 -1.282 123.69 -1.282 123.69 -18.94 -153.46
6 -18.14 -161.68 -1.311 113.72 -1.311 113.72 -18.14 -161.68
6.1 -17.66 -170.10 -1.337 103.76 -1.337 103.76 -17.66 -170.10
6.2 -17.45 -178.58 -1.358 93.82 -1.358 93.82 -17.45 -178.58
6.3 -17.5 172.94 -1.375 83.88 -1.375 83.88 -17.5 172.94
6.4 -17.81 164.55 -1.387 73.94 -1.387 73.94 -17.81 164.55
6.5 -18.4 156.36 -1.396 63.97 -1.396 63.97 -18.4 156.36
6.6 -19.3 148.51 -1.402 53.98 -1.402 53.98 -19.3 148.51
6.7 -20.59 141.30 -1.407 43.97 -1.407 43.97 -20.59 141.30
6.8 -22.38 135.30 -1.413 33.92 -1.413 33.92 -22.38 135.30
6.9 -24.9 131.93 -1.421 23.85 -1.421 23.85 -24.9 131.93
7 -28.48 135.47 -1.432 13.76 -1.432 13.76 -28.48 135.47
7.1 -32.68 160.58 -1.447 3.65 -1.447 3.65 -32.68 160.58
7.2 -31.59 -154.25 -1.467 -6.45 -1.467 -6.45 -31.59 -154.25
7.3 -27.34 -138.10 -1.491 -16.54 -1.491 -16.54 -27.34 -138.10
7.4 -24.16 -137.40 -1.518 -26.61 -1.518 -26.61 -24.16 -137.40
7.5 -21.93 -141.70 -1.548 -36.66 -1.548 -36.66 -21.93 -141.70
7.6 -20.34 -148.01 -1.579 -46.67 -1.579 -46.67 -20.34 -148.01
7.7 -19.22 -155.27 -1.609 -56.66 -1.609 -56.66 -19.22 -155.27
7.8 -18.45 -163.02 -1.637 -66.62 -1.637 -66.62 -18.45 -163.02
7.9 -17.99 -171.02 -1.661 -76.57 -1.661 -76.57 -17.99 -171.02
8 -17.79 -179.13 -1.682 -86.50 -1.682 -86.50 -17.79 -179.13
8.1 -17.84 172.78 -1.698 -96.43 -1.698 -96.43 -17.84 172.78
8.2 -18.15 164.78 -1.711 -106.36 -1.711 -106.36 -18.15 164.78
8.3 -18.74 157.02 -1.72 -116.32 -1.72 -116.32 -18.74 157.02
8.4 -19.63 149.69 -1.726 -126.29 -1.726 -126.29 -19.63 149.69
8.5 -20.9 143.11 -1.732 -136.30 -1.732 -136.30 -20.9 143.11
8.6 -22.64 137.98 -1.739 -146.33 -1.739 -146.33 -22.64 137.98
8.7 -25.04 135.86 -1.747 -156.38 -1.747 -156.38 -25.04 135.86
8.8 -28.26 141.10 -1.759 -166.45 -1.759 -166.45 -28.26 141.10
8.9 -31.5 164.68 -1.774 -176.53 -1.774 -176.53 -31.5 164.68
9 -30.62 -158.94 -1.794 173.39 -1.794 173.39 -30.62 -158.94
9.1 -27.13 -143.12 -1.817 163.32 -1.817 163.32 -27.13 -143.12
9.2 -24.24 -141.14 -1.844 153.27 -1.844 153.27 -24.24 -141.14
9.3 -22.13 -144.46 -1.872 143.24 -1.872 143.24 -22.13 -144.46
9.4 -20.59 -150.06 -1.901 133.24 -1.901 133.24 -20.59 -150.06
9.5 -19.5 -156.77 -1.93 123.27 -1.93 123.27 -19.5 -156.77
9.6 -18.75 -164.06 -1.957 113.31 -1.957 113.31 -18.75 -164.06
9.7 -18.29 -171.66 -1.981 103.38 -1.981 103.38 -18.29 -171.66
9.8 -18.09 -179.39 -2.001 93.46 -2.001 93.46 -18.09 -179.39
9.9 -18.15 172.87 -2.017 83.53 -2.017 83.53 -18.15 172.87
10 -18.45 165.25 -2.029 73.60 -2.029 73.60 -18.45 165.25
10.1 -19.03 157.90 -2.039 63.66 -2.039 63.66 -19.03 157.90
10.2 -19.9 151.04 -2.046 53.69 -2.046 53.69 -19.9 151.04
10.3 -21.13 145.04 -2.053 43.70 -2.053 43.70 -21.13 145.04
10.4 -22.81 140.65 -2.06 33.69 -2.06 33.69 -22.81 140.65
10.5 -25.05 139.50 -2.069 23.65 -2.069 23.65 -25.05 139.50
10.6 -27.91 145.59 -2.081 13.60 -2.081 13.60 -27.91 145.59
10.7 -30.48 166.77 -2.096 3.54 -2.096 3.54 -30.48 166.77
10.8 -29.85 -163.01 -2.115 -6.52 -2.115 -6.52 -29.85 -163.01
10.9 -26.97 -147.62 -2.138 -16.58 -2.138 -16.58 -26.97 -147.62
11 -24.33 -144.55 -2.164 -26.61 -2.164 -26.61 -24.33 -144.55
11.1 -22.33 -146.95 -2.191 -36.63 -2.191 -36.63 -22.33 -146.95
11.2 -20.85 -151.86 -2.219 -46.61 -2.219 -46.61 -20.85 -151.86
11.3 -19.77 -158.03 -2.247 -56.58 -2.247 -56.58 -19.77 -158.03
11.4 -19.03 -164.88 -2.273 -66.52 -2.273 -66.52 -19.03 -164.88
11.5 -18.58 -172.09 -2.296 -76.45 -2.296 -76.45 -18.58 -172.09
11.6 -18.38 -179.47 -2.315 -86.37 -2.315 -86.37 -18.38 -179.47
11.7 -18.43 173.15 -2.331 -96.29 -2.331 -96.29 -18.43 173.15
11.8 -18.72 165.88 -2.344 -106.21 -2.344 -106.21 -18.72 165.88
11.9 -19.28 158.92 -2.354 -116.15 -2.354 -116.15 -19.28 158.92
12 -20.12 152.49 -2.362 -126.11 -2.362 -126.11 -20.12 152.49
12.1 -21.31 147.00 -2.37 -136.09 -2.37 -136.09 -21.31 147.00
12.2 -22.9 143.22 -2.377 -146.09 -2.377 -146.09 -22.9 143.22
12.3 -24.98 142.76 -2.387 -156.11 -2.387 -156.11 -24.98 142.76
12.4 -27.51 149.11 -2.399 -166.15 -2.399 -166.15 -27.51 149.11
12.5 -29.62 167.80 -2.414 -176.19 -2.414 -176.19 -29.62 167.80
12.6 -29.21 -166.57 -2.433 173.77 -2.433 173.77 -29.21 -166.57
12.7 -26.83 -151.69 -2.455 163.73 -2.455 163.73 -26.83 -151.69
12.8 -24.43 -147.71 -2.48 153.71 -2.48 153.71 -24.43 -147.71
12.9 -22.53 -149.25 -2.506 143.70 -2.506 143.70 -22.53 -149.25
13 -21.09 -153.49 -2.533 133.72 -2.533 133.72 -21.09 -153.49
13.1 -20.04 -159.13 -2.56 123.77 -2.56 123.77 -20.04 -159.13
13.2 -19.31 -165.55 -2.585 113.83 -2.585 113.83 -19.31 -165.55
13.3 -18.85 -172.38 -2.607 103.91 -2.607 103.91 -18.85 -172.38
13.4 -18.65 -179.40 -2.627 93.99 -2.627 93.99 -18.65 -179.40
13.5 -18.69 173.55 -2.643 84.08 -2.643 84.08 -18.69 173.55
13.6 -18.97 166.63 -2.656 74.16 -2.656 74.16 -18.97 166.63
13.7 -19.5 160.02 -2.666 64.23 -2.666 64.23 -19.5 160.02
13.8 -20.31 153.98 -2.675 54.28 -2.675 54.28 -20.31 153.98
13.9 -21.44 148.94 -2.683 44.31 -2.683 44.31 -21.44 148.94
14 -22.94 145.65 -2.691 34.32 -2.691 34.32 -22.94 145.65
14.1 -24.85 145.64 -2.701 24.31 -2.701 24.31 -24.85 145.64
14.2 -27.09 151.88 -2.713 14.29 -2.713 14.29 -27.09 151.88
14.3 -28.88 168.23 -2.728 4.26 -2.728 4.26 -28.88 168.23
14.4 -28.66 -169.71 -2.747 -5.77 -2.747 -5.77 -28.66 -169.71
14.5 -26.7 -155.42 -2.768 -15.80 -2.768 -15.80 -26.7 -155.42
14.6 -24.53 -150.67 -2.792 -25.81 -2.792 -25.81 -24.53 -150.67
14.7 -22.73 -151.40 -2.818 -35.80 -2.818 -35.80 -22.73 -151.40
14.8 -21.34 -154.99 -2.844 -45.77 -2.844 -45.77 -21.34 -154.99
14.9 -20.3 -160.11 -2.869 -55.72 -2.869 -55.72 -20.3 -160.11
15 -19.57 -166.09 -2.894 -65.66 -2.894 -65.66 -19.57 -166.09
15.1 -19.12 -172.55 -2.916 -75.58 -2.916 -75.58 -19.12 -172.55
15.2 -18.91 -179.23 -2.935 -85.49 -2.935 -85.49 -18.91 -179.23
15.3 -18.93 174.04 -2.951 -95.39 -2.951 -95.39 -18.93 174.04
15.4 -19.19 167.44 -2.965 -105.31 -2.965 -105.31 -19.19 167.44
15.5 -19.69 161.17 -2.975 -115.23 -2.975 -115.23 -19.69 161.17
15.6 -20.46 155.48 -2.985 -125.18 -2.985 -125.18 -20.46 155.48
15.7 -21.53 150.82 -2.993 -135.14 -2.993 -135.14 -21.53 150.82
15.8 -22.94 147.93 -3.002 -145.12 -3.002 -145.12 -22.94 147.93
15.9 -24.7 148.18 -3.012 -155.11 -3.012 -155.11 -24.7 148.18
16 -26.68 154.07 -3.025 -165.12 -3.025 -165.12 -26.68 154.07
16.1 -28.24 168.34 -3.04 -175.14 -3.04 -175.14 -28.24 168.34
16.2 -28.18 -172.49 -3.058 174.84 -3.058 174.84 -28.18 -172.49
16.3 -26.58 -158.85 -3.078 164.83 -3.078 164.83 -26.58 -158.85
16.4 -24.63 -153.46 -3.101 154.83 -3.101 154.83 -24.63 -153.46
16.5 -22.92 -153.44 -3.126 144.84 -3.126 144.84 -22.92 -153.44
16.6 -21.57 -156.39 -3.151 134.88 -3.151 134.88 -21.57 -156.39
16.7 -20.56 -161.00 -3.176 124.93 -3.176 124.93 -20.56 -161.00
16.8 -19.83 -166.56 -3.2 115.00 -3.2 115.00 -19.83 -166.56
16.9 -19.37 -172.65 -3.222 105.09 -3.222 105.09 -19.37 -172.65
17 -19.15 -179.00 -3.241 95.18 -3.241 95.18 -19.15 -179.00
17.1 -19.15 174.59 -3.257 85.27 -3.257 85.27 -19.15 174.59
17.2 -19.39 168.30 -3.271 75.36 -3.271 75.36 -19.39 168.30
17.3 -19.86 162.33 -3.282 65.44 -3.282 65.44 -19.86 162.33
17.4 -20.59 156.97 -3.292 55.51 -3.292 55.51 -20.59 156.97
17.5 -21.6 152.64 -3.301 45.56 -3.301 45.56 -21.6 152.64
17.6 -22.91 150.03 -3.31 35.59 -3.31 35.59 -22.91 150.03
17.7 -24.52 150.41 -3.321 25.60 -3.321 25.60 -24.52 150.41
17.8 -26.3 155.83 -3.333 15.60 -3.333 15.60 -26.3 155.83
17.9 -27.68 168.29 -3.348 5.59 -3.348 5.59 -27.68 168.29
18 -27.75 -174.94 -3.365 -4.41 -3.365 -4.41 -27.75 -174.94
