! yapnr rf coupon B B11: B11 RING S (ring, family S)
! stackup JLC06161H-7628, nominal parameters; reference planes 10 mm from each end; 50 ohm (renormalized from the line's Zc)
! model: 2D quasi-static RLGC (Djordjevic-Sarkar, Huray roughness, Wheeler loss); generated by python -m yapnr.rf.coupons expected
# GHz S DB R 50
0.1 -20.65 -104.97 -0.1065 -15.76 -0.1065 -15.76 -20.65 -104.97
0.2 -14.79 -121.26 -0.2639 -31.17 -0.2639 -31.17 -14.79 -121.26
0.3 -11.47 -136.86 -0.4884 -46.37 -0.4884 -46.37 -11.47 -136.86
0.4 -9.215 -152.10 -0.776 -61.37 -0.776 -61.37 -9.215 -152.10
0.5 -7.548 -167.06 -1.122 -76.16 -1.122 -76.16 -7.548 -167.06
0.6 -6.262 178.23 -1.522 -90.74 -1.522 -90.74 -6.262 178.23
0.7 -5.24 163.75 -1.972 -105.12 -1.972 -105.12 -5.24 163.75
0.8 -4.413 149.48 -2.471 -119.31 -2.471 -119.31 -4.413 149.48
0.9 -3.733 135.38 -3.019 -133.33 -3.019 -133.33 -3.733 135.38
1 -3.169 121.42 -3.617 -147.22 -3.617 -147.22 -3.169 121.42
1.1 -2.696 107.57 -4.271 -160.99 -4.271 -160.99 -2.696 107.57
1.2 -2.299 93.78 -4.988 -174.68 -4.988 -174.68 -2.299 93.78
1.3 -1.964 80.01 -5.783 171.68 -5.783 171.68 -1.964 80.01
1.4 -1.681 66.19 -6.676 158.04 -6.676 158.04 -1.681 66.19
1.5 -1.444 52.27 -7.697 144.38 -7.697 144.38 -1.444 52.27
1.6 -1.249 38.18 -8.893 130.68 -8.893 130.68 -1.249 38.18
1.7 -1.092 23.82 -10.34 116.93 -10.34 116.93 -1.092 23.82
1.8 -0.9738 9.10 -12.18 103.22 -12.18 103.22 -0.9738 9.10
1.9 -0.8965 -6.09 -14.65 89.87 -14.65 89.87 -0.8965 -6.09
2 -0.8651 -21.90 -18.34 78.16 -18.34 78.16 -0.8651 -21.90
2.1 -0.8872 -38.47 -25.13 76.35 -25.13 76.35 -0.8872 -38.47
2.2 -0.9728 -56.00 -29.55 164.49 -29.55 164.49 -0.9728 -56.00
2.3 -1.131 -74.69 -20.16 179.53 -20.16 179.53 -1.131 -74.69
2.4 -1.367 -94.80 -15.59 166.12 -15.59 166.12 -1.367 -94.80
2.5 -1.666 -116.68 -12.99 147.74 -12.99 147.74 -1.666 -116.68
2.6 -1.988 -140.87 -11.72 126.91 -11.72 126.91 -1.988 -140.87
2.7 -2.262 -168.30 -11.9 104.74 -11.9 104.74 -2.262 -168.30
2.8 -2.444 159.70 -14.62 85.70 -14.62 85.70 -2.444 159.70
2.9 -2.662 122.32 -20.53 117.52 -20.53 117.52 -2.662 122.32
3 -3.224 81.99 -11.87 145.36 -11.87 145.36 -3.224 81.99
3.1 -4.124 44.46 -7.019 121.51 -7.019 121.51 -4.124 44.46
3.2 -4.968 13.12 -4.912 96.05 -4.912 96.05 -4.968 13.12
3.3 -5.53 -12.48 -3.939 73.62 -3.939 73.62 -5.53 -12.48
3.4 -5.828 -33.98 -3.464 53.94 -3.464 53.94 -5.828 -33.98
3.5 -5.952 -52.74 -3.225 36.23 -3.225 36.23 -5.952 -52.74
3.6 -5.978 -69.67 -3.107 19.92 -3.107 19.92 -5.978 -69.67
3.7 -5.957 -85.37 -3.054 4.60 -3.054 4.60 -5.957 -85.37
3.8 -5.917 -100.19 -3.036 -10.00 -3.036 -10.00 -5.917 -100.19
3.9 -5.875 -114.41 -3.038 -24.09 -3.038 -24.09 -5.875 -114.41
4 -5.839 -128.19 -3.049 -37.79 -3.049 -37.79 -5.839 -128.19
4.1 -5.815 -141.67 -3.066 -51.24 -3.066 -51.24 -5.815 -141.67
4.2 -5.804 -154.94 -3.085 -64.50 -3.085 -64.50 -5.804 -154.94
4.3 -5.809 -168.07 -3.104 -77.67 -3.104 -77.67 -5.809 -168.07
4.4 -5.829 178.84 -3.124 -90.80 -3.124 -90.80 -5.829 178.84
4.5 -5.866 165.75 -3.145 -103.97 -3.145 -103.97 -5.866 165.75
4.6 -5.919 152.58 -3.168 -117.22 -3.168 -117.22 -5.919 152.58
4.7 -5.988 139.25 -3.196 -130.64 -3.196 -130.64 -5.988 139.25
4.8 -6.073 125.67 -3.233 -144.30 -3.233 -144.30 -6.073 125.67
4.9 -6.172 111.72 -3.286 -158.30 -3.286 -158.30 -6.172 111.72
5 -6.28 97.23 -3.365 -172.76 -3.365 -172.76 -6.28 97.23
5.1 -6.389 81.95 -3.486 172.17 -3.486 172.17 -6.389 81.95
5.2 -6.482 65.53 -3.68 156.27 -3.68 156.27 -6.482 65.53
5.3 -6.533 47.39 -3.999 139.26 -3.999 139.26 -6.533 47.39
5.4 -6.498 26.66 -4.546 120.79 -4.546 120.79 -6.498 26.66
5.5 -6.324 2.05 -5.528 100.52 -5.528 100.52 -6.324 2.05
5.6 -5.975 -27.91 -7.38 78.85 -7.38 78.85 -5.975 -27.91
5.7 -5.507 -63.82 -10.93 59.87 -10.93 59.87 -5.507 -63.82
5.8 -5.062 -103.36 -16.34 63.64 -16.34 63.64 -5.062 -103.36
5.9 -4.689 -141.70 -15.99 91.35 -15.99 91.35 -4.689 -141.70
6 -4.299 -175.45 -13.47 85.36 -13.47 85.36 -4.299 -175.45
6.1 -3.854 155.66 -12.88 68.53 -12.88 68.53 -3.854 155.66
6.2 -3.4 130.58 -13.69 51.06 -13.69 51.06 -3.4 130.58
6.3 -2.998 108.25 -15.64 35.99 -15.64 35.99 -2.998 108.25
6.4 -2.682 87.94 -18.84 26.77 -18.84 26.77 -2.682 87.94
6.5 -2.464 69.20 -23.36 34.37 -23.36 34.37 -2.464 69.20
6.6 -2.336 51.72 -24.59 73.96 -24.59 73.96 -2.336 51.72
6.7 -2.289 35.25 -20.29 92.07 -20.29 92.07 -2.289 35.25
6.8 -2.308 19.61 -16.74 88.91 -16.74 88.91 -2.308 19.61
6.9 -2.384 4.64 -14.22 79.59 -14.22 79.59 -2.384 4.64
7 -2.509 -9.81 -12.35 68.19 -12.35 68.19 -2.509 -9.81
7.1 -2.679 -23.86 -10.87 55.97 -10.87 55.97 -2.679 -23.86
7.2 -2.892 -37.60 -9.669 43.37 -9.669 43.37 -2.892 -37.60
7.3 -3.149 -51.12 -8.652 30.57 -8.652 30.57 -3.149 -51.12
7.4 -3.454 -64.48 -7.773 17.65 -7.773 17.65 -3.454 -64.48
7.5 -3.812 -77.75 -6.999 4.62 -6.999 4.62 -3.812 -77.75
7.6 -4.231 -90.95 -6.308 -8.52 -6.308 -8.52 -4.231 -90.95
7.7 -4.723 -104.11 -5.688 -21.79 -5.688 -21.79 -4.723 -104.11
7.8 -5.3 -117.26 -5.129 -35.18 -5.129 -35.18 -5.3 -117.26
7.9 -5.982 -130.36 -4.626 -48.73 -4.626 -48.73 -5.982 -130.36
8 -6.794 -143.39 -4.177 -62.43 -4.177 -62.43 -6.794 -143.39
8.1 -7.766 -156.27 -3.783 -76.28 -3.783 -76.28 -7.766 -156.27
8.2 -8.943 -168.84 -3.442 -90.29 -3.442 -90.29 -8.943 -168.84
8.3 -10.39 179.15 -3.158 -104.43 -3.158 -104.43 -10.39 179.15
8.4 -12.21 168.24 -2.932 -118.69 -2.932 -118.69 -12.21 168.24
8.5 -14.54 159.60 -2.765 -133.04 -2.765 -133.04 -14.54 159.60
8.6 -17.59 156.25 -2.659 -147.46 -2.659 -147.46 -17.59 156.25
8.7 -21.19 166.63 -2.614 -161.90 -2.614 -161.90 -21.19 166.63
8.8 -22.15 -162.46 -2.63 -176.35 -2.63 -176.35 -22.15 -162.46
8.9 -18.95 -143.96 -2.707 169.23 -2.707 169.23 -18.95 -143.96
9 -15.68 -143.75 -2.842 154.87 -2.842 154.87 -15.68 -143.75
9.1 -13.18 -150.87 -3.034 140.60 -3.034 140.60 -13.18 -150.87
9.2 -11.26 -160.96 -3.281 126.43 -3.281 126.43 -11.26 -160.96
9.3 -9.74 -172.44 -3.582 112.38 -3.582 112.38 -9.74 -172.44
9.4 -8.518 175.38 -3.935 98.46 -3.935 98.46 -8.518 175.38
9.5 -7.517 162.82 -4.34 84.69 -4.34 84.69 -7.517 162.82
9.6 -6.688 150.05 -4.796 71.05 -4.796 71.05 -6.688 150.05
9.7 -5.996 137.16 -5.305 57.57 -5.305 57.57 -5.996 137.16
9.8 -5.416 124.21 -5.87 44.22 -5.87 44.22 -5.416 124.21
9.9 -4.931 111.21 -6.496 31.03 -6.496 31.03 -4.931 111.21
10 -4.525 98.16 -7.19 17.99 -7.19 17.99 -4.525 98.16
10.1 -4.19 85.05 -7.964 5.10 -7.964 5.10 -4.19 85.05
10.2 -3.917 71.85 -8.835 -7.59 -8.835 -7.59 -3.917 71.85
10.3 -3.702 58.52 -9.829 -20.06 -9.829 -20.06 -3.702 58.52
10.4 -3.54 45.01 -10.98 -32.17 -10.98 -32.17 -3.54 45.01
10.5 -3.433 31.26 -12.34 -43.73 -12.34 -43.73 -3.433 31.26
10.6 -3.38 17.18 -14 -54.27 -14 -54.27 -3.38 17.18
10.7 -3.387 2.69 -16.06 -62.75 -16.06 -62.75 -3.387 2.69
10.8 -3.461 -12.34 -18.63 -66.71 -18.63 -66.71 -3.461 -12.34
10.9 -3.613 -28.03 -21.45 -60.40 -21.45 -60.40 -3.613 -28.03
11 -3.856 -44.56 -22.53 -40.00 -22.53 -40.00 -3.856 -44.56
11.1 -4.209 -62.12 -20.44 -25.11 -20.44 -25.11 -4.209 -62.12
11.2 -4.688 -81.03 -17.77 -25.69 -17.77 -25.69 -4.688 -81.03
11.3 -5.311 -101.69 -15.78 -34.68 -15.78 -34.68 -5.311 -101.69
11.4 -6.085 -124.78 -14.64 -47.19 -14.64 -47.19 -6.085 -124.78
11.5 -7.001 -151.29 -14.38 -59.89 -14.38 -59.89 -7.001 -151.29
11.6 -8.006 177.53 -14.95 -68.11 -14.95 -68.11 -8.006 177.53
11.7 -8.955 141.01 -15.33 -65.57 -15.33 -65.57 -8.955 141.01
11.8 -9.6 100.98 -13.46 -60.57 -13.46 -60.57 -9.6 100.98
11.9 -9.794 62.19 -10.67 -68.06 -10.67 -68.06 -9.794 62.19
12 -9.662 28.70 -8.596 -83.38 -8.596 -83.38 -9.662 28.70
12.1 -9.402 1.19 -7.292 -100.68 -7.292 -100.68 -9.402 1.19
12.2 -9.122 -21.57 -6.496 -117.78 -6.496 -117.78 -9.122 -21.57
12.3 -8.863 -41.04 -6.005 -134.11 -6.005 -134.11 -8.863 -41.04
12.4 -8.637 -58.31 -5.697 -149.65 -5.697 -149.65 -8.637 -58.31
12.5 -8.448 -74.13 -5.502 -164.49 -5.502 -164.49 -8.448 -74.13
12.6 -8.294 -88.96 -5.377 -178.80 -5.377 -178.80 -8.294 -88.96
12.7 -8.173 -103.12 -5.299 167.33 -5.299 167.33 -8.173 -103.12
12.8 -8.082 -116.80 -5.25 153.77 -5.25 153.77 -8.082 -116.80
12.9 -8.02 -130.16 -5.223 140.45 -5.223 140.45 -8.02 -130.16
13 -7.984 -143.29 -5.211 127.30 -5.211 127.30 -7.984 -143.29
13.1 -7.972 -156.28 -5.211 114.24 -5.211 114.24 -7.972 -156.28
13.2 -7.984 -169.20 -5.222 101.22 -5.222 101.22 -7.984 -169.20
13.3 -8.02 177.89 -5.244 88.19 -5.244 88.19 -8.02 177.89
13.4 -8.08 164.93 -5.278 75.10 -5.278 75.10 -8.08 164.93
13.5 -8.165 151.86 -5.327 61.89 -5.327 61.89 -8.165 151.86
13.6 -8.279 138.58 -5.396 48.50 -5.396 48.50 -8.279 138.58
13.7 -8.425 124.99 -5.493 34.87 -5.493 34.87 -8.425 124.99
13.8 -8.607 110.95 -5.628 20.93 -5.628 20.93 -8.607 110.95
13.9 -8.833 96.23 -5.82 6.58 -5.82 6.58 -8.833 96.23
14 -9.112 80.52 -6.096 -8.26 -6.096 -8.26 -9.112 80.52
14.1 -9.456 63.34 -6.502 -23.66 -6.502 -23.66 -9.456 63.34
14.2 -9.884 43.90 -7.107 -39.66 -7.107 -39.66 -9.884 43.90
14.3 -10.41 21.07 -8.026 -56.03 -8.026 -56.03 -10.41 21.07
14.4 -11.03 -6.76 -9.419 -71.94 -9.419 -71.94 -11.03 -6.76
14.5 -11.58 -41.12 -11.41 -85.06 -11.41 -85.06 -11.58 -41.12
14.6 -11.7 -81.43 -13.73 -91.13 -13.73 -91.13 -11.7 -81.43
14.7 -11.05 -122.82 -15.15 -89.44 -15.15 -89.44 -11.05 -122.82
14.8 -9.879 -159.67 -15.15 -90.02 -15.15 -90.02 -9.879 -159.67
14.9 -8.632 169.54 -14.99 -97.49 -14.99 -97.49 -8.632 169.54
15 -7.539 143.63 -15.4 -108.16 -15.4 -108.16 -7.539 143.63
15.1 -6.653 121.15 -16.48 -118.35 -16.48 -118.35 -6.653 121.15
15.2 -5.966 101.03 -18.14 -124.96 -18.14 -124.96 -5.966 101.03
15.3 -5.453 82.62 -20.04 -124.44 -20.04 -124.44 -5.453 82.62
15.4 -5.089 65.49 -21.16 -114.82 -21.16 -114.82 -5.089 65.49
15.5 -4.848 49.36 -20.39 -103.53 -20.39 -103.53 -4.848 49.36
15.6 -4.71 34.05 -18.48 -99.80 -18.48 -99.80 -4.71 34.05
15.7 -4.658 19.38 -16.5 -103.17 -16.5 -103.17 -4.658 19.38
15.8 -4.679 5.24 -14.79 -110.58 -14.79 -110.58 -4.679 5.24
15.9 -4.764 -8.48 -13.35 -120.12 -13.35 -120.12 -4.764 -8.48
16 -4.907 -21.88 -12.14 -130.84 -12.14 -130.84 -4.907 -21.88
16.1 -5.105 -35.02 -11.1 -142.25 -11.1 -142.25 -5.105 -35.02
16.2 -5.359 -47.96 -10.2 -154.11 -10.2 -154.11 -5.359 -47.96
16.3 -5.671 -60.76 -9.411 -166.28 -9.411 -166.28 -5.671 -60.76
16.4 -6.045 -73.44 -8.706 -178.70 -8.706 -178.70 -6.045 -73.44
16.5 -6.489 -86.02 -8.075 168.67 -8.075 168.67 -6.489 -86.02
16.6 -7.012 -98.51 -7.508 155.85 -7.508 155.85 -7.012 -98.51
16.7 -7.626 -110.86 -6.999 142.84 -6.999 142.84 -7.626 -110.86
16.8 -8.347 -123.04 -6.545 129.67 -6.545 129.67 -8.347 -123.04
16.9 -9.196 -134.93 -6.144 116.32 -6.144 116.32 -9.196 -134.93
17 -10.2 -146.38 -5.795 102.83 -5.795 102.83 -10.2 -146.38
17.1 -11.38 -157.10 -5.5 89.19 -5.5 89.19 -11.38 -157.10
17.2 -12.78 -166.61 -5.259 75.43 -5.259 75.43 -12.78 -166.61
17.3 -14.43 -174.07 -5.073 61.58 -5.073 61.58 -14.43 -174.07
17.4 -16.3 -177.99 -4.943 47.65 -4.943 47.65 -16.3 -177.99
17.5 -18.17 -176.10 -4.869 33.68 -4.869 33.68 -18.17 -176.10
17.6 -19.3 -167.18 -4.851 19.70 -4.851 19.70 -19.3 -167.18
17.7 -18.86 -156.36 -4.888 5.73 -4.888 5.73 -18.86 -156.36
17.8 -17.27 -151.27 -4.979 -8.21 -4.979 -8.21 -17.27 -151.27
17.9 -15.42 -152.89 -5.124 -22.08 -5.124 -22.08 -15.42 -152.89
18 -13.72 -158.91 -5.321 -35.88 -5.321 -35.88 -13.72 -158.91
