! yapnr rf coupon B: B15 P L40 (line, family P)
! stackup JLC06161H-7628, nominal parameters; reference planes 10 mm from each end; 50 ohm (renormalized from the line's Zc)
! model: 2D quasi-static RLGC (Djordjevic-Sarkar, Huray roughness, Wheeler loss); generated by python -m yapnr.rf.coupons expected
# GHz S DB R 50
0.1 -51.57 25.96 -0.04062 -8.86 -0.04062 -8.86 -51.57 25.96
0.2 -49.78 25.72 -0.0643 -17.56 -0.0643 -17.56 -49.78 25.72
0.3 -48.51 26.95 -0.08543 -26.21 -0.08543 -26.21 -48.51 26.95
0.4 -47.3 27.76 -0.1053 -34.84 -0.1053 -34.84 -47.3 27.76
0.5 -46.12 27.23 -0.1243 -43.45 -0.1243 -43.45 -46.12 27.23
0.6 -45.04 25.21 -0.1428 -52.04 -0.1428 -52.04 -45.04 25.21
0.7 -44.09 21.86 -0.1609 -60.63 -0.1609 -60.63 -44.09 21.86
0.8 -43.31 17.45 -0.1786 -69.21 -0.1786 -69.21 -43.31 17.45
0.9 -42.71 12.22 -0.1961 -77.78 -0.1961 -77.78 -42.71 12.22
1 -42.3 6.39 -0.2133 -86.35 -0.2133 -86.35 -42.3 6.39
1.1 -42.09 0.10 -0.2303 -94.91 -0.2303 -94.91 -42.09 0.10
1.2 -42.08 -6.51 -0.2472 -103.47 -0.2472 -103.47 -42.08 -6.51
1.3 -42.28 -13.36 -0.2639 -112.02 -0.2639 -112.02 -42.28 -13.36
1.4 -42.72 -20.36 -0.2805 -120.56 -0.2805 -120.56 -42.72 -20.36
1.5 -43.43 -27.43 -0.2969 -129.11 -0.2969 -129.11 -43.43 -27.43
1.6 -44.47 -34.46 -0.3132 -137.64 -0.3132 -137.64 -44.47 -34.46
1.7 -45.95 -41.31 -0.3294 -146.18 -0.3294 -146.18 -45.95 -41.31
1.8 -48.07 -47.66 -0.3456 -154.72 -0.3456 -154.72 -48.07 -47.66
1.9 -51.28 -52.60 -0.3616 -163.25 -0.3616 -163.25 -51.28 -52.60
2 -56.93 -51.81 -0.3776 -171.78 -0.3776 -171.78 -56.93 -51.81
2.1 -67.11 19.98 -0.3935 179.70 -0.3935 179.70 -67.11 19.98
2.2 -56.05 78.31 -0.4094 171.17 -0.4094 171.17 -56.05 78.31
2.3 -50.44 78.08 -0.4252 162.65 -0.4252 162.65 -50.44 78.08
2.4 -47.08 72.77 -0.441 154.13 -0.441 154.13 -47.08 72.77
2.5 -44.75 66.09 -0.4567 145.61 -0.4567 145.61 -44.75 66.09
2.6 -43.03 58.84 -0.4724 137.10 -0.4724 137.10 -43.03 58.84
2.7 -41.74 51.31 -0.4881 128.58 -0.4881 128.58 -41.74 51.31
2.8 -40.76 43.62 -0.5037 120.07 -0.5037 120.07 -40.76 43.62
2.9 -40.05 35.84 -0.5193 111.56 -0.5193 111.56 -40.05 35.84
3 -39.56 28.02 -0.5348 103.04 -0.5348 103.04 -39.56 28.02
3.1 -39.28 20.17 -0.5503 94.54 -0.5503 94.54 -39.28 20.17
3.2 -39.2 12.33 -0.5658 86.03 -0.5658 86.03 -39.2 12.33
3.3 -39.31 4.52 -0.5812 77.52 -0.5812 77.52 -39.31 4.52
3.4 -39.62 -3.22 -0.5965 69.02 -0.5965 69.02 -39.62 -3.22
3.5 -40.15 -10.86 -0.6117 60.51 -0.6117 60.51 -40.15 -10.86
3.6 -40.94 -18.34 -0.627 52.01 -0.627 52.01 -40.94 -18.34
3.7 -42.04 -25.54 -0.6421 43.51 -0.6421 43.51 -42.04 -25.54
3.8 -43.54 -32.26 -0.6572 35.00 -0.6572 35.00 -43.54 -32.26
3.9 -45.61 -38.04 -0.6723 26.50 -0.6723 26.50 -45.61 -38.04
4 -48.6 -41.63 -0.6874 18.00 -0.6874 18.00 -48.6 -41.63
4.1 -53.33 -38.00 -0.7024 9.50 -0.7024 9.50 -53.33 -38.00
4.2 -60.03 5.81 -0.7174 1.00 -0.7174 1.00 -60.03 5.81
4.3 -54.69 66.77 -0.7324 -7.49 -0.7324 -7.49 -54.69 66.77
4.4 -49.26 74.24 -0.7474 -15.99 -0.7474 -15.99 -49.26 74.24
4.5 -45.88 71.57 -0.7624 -24.49 -0.7624 -24.49 -45.88 71.57
4.6 -43.54 66.16 -0.7774 -32.99 -0.7774 -32.99 -43.54 66.16
4.7 -41.83 59.65 -0.7924 -41.48 -0.7924 -41.48 -41.83 59.65
4.8 -40.54 52.61 -0.8074 -49.98 -0.8074 -49.98 -40.54 52.61
4.9 -39.58 45.28 -0.8224 -58.47 -0.8224 -58.47 -39.58 45.28
5 -38.88 37.79 -0.8374 -66.97 -0.8374 -66.97 -38.88 37.79
5.1 -38.41 30.20 -0.8523 -75.46 -0.8523 -75.46 -38.41 30.20
5.2 -38.14 22.58 -0.8672 -83.95 -0.8672 -83.95 -38.14 22.58
5.3 -38.06 14.96 -0.8821 -92.45 -0.8821 -92.45 -38.06 14.96
5.4 -38.17 7.38 -0.8969 -100.94 -0.8969 -100.94 -38.17 7.38
5.5 -38.48 -0.13 -0.9117 -109.43 -0.9117 -109.43 -38.48 -0.13
5.6 -39.01 -7.49 -0.9264 -117.92 -0.9264 -117.92 -39.01 -7.49
5.7 -39.77 -14.64 -0.9411 -126.41 -0.9411 -126.41 -39.77 -14.64
5.8 -40.82 -21.44 -0.9558 -134.90 -0.9558 -134.90 -40.82 -21.44
5.9 -42.24 -27.63 -0.9704 -143.39 -0.9704 -143.39 -42.24 -27.63
6 -44.16 -32.70 -0.9849 -151.88 -0.9849 -151.88 -44.16 -32.70
6.1 -46.84 -35.30 -0.9995 -160.38 -0.9995 -160.38 -46.84 -35.30
6.2 -50.74 -31.03 -1.014 -168.87 -1.014 -168.87 -50.74 -31.03
6.3 -55.69 -1.47 -1.029 -177.36 -1.029 -177.36 -55.69 -1.47
6.4 -53.81 52.03 -1.043 174.15 -1.043 174.15 -53.81 52.03
6.5 -48.92 67.59 -1.058 165.66 -1.058 165.66 -48.92 67.59
6.6 -45.52 68.20 -1.072 157.17 -1.072 157.17 -45.52 68.20
6.7 -43.13 64.42 -1.087 148.68 -1.087 148.68 -43.13 64.42
6.8 -41.38 58.89 -1.101 140.19 -1.101 140.19 -41.38 58.89
6.9 -40.06 52.52 -1.116 131.70 -1.116 131.70 -40.06 52.52
7 -39.07 45.68 -1.131 123.21 -1.131 123.21 -39.07 45.68
7.1 -38.35 38.58 -1.145 114.72 -1.145 114.72 -38.35 38.58
7.2 -37.85 31.34 -1.16 106.23 -1.16 106.23 -37.85 31.34
7.3 -37.56 24.01 -1.174 97.74 -1.174 97.74 -37.56 24.01
7.4 -37.46 16.67 -1.189 89.26 -1.189 89.26 -37.46 16.67
7.5 -37.55 9.37 -1.203 80.77 -1.203 80.77 -37.55 9.37
7.6 -37.84 2.14 -1.218 72.28 -1.218 72.28 -37.84 2.14
7.7 -38.32 -4.93 -1.232 63.79 -1.232 63.79 -38.32 -4.93
7.8 -39.04 -11.75 -1.247 55.30 -1.247 55.30 -39.04 -11.75
7.9 -40.03 -18.17 -1.261 46.81 -1.261 46.81 -40.03 -18.17
8 -41.35 -23.92 -1.275 38.32 -1.275 38.32 -41.35 -23.92
8.1 -43.11 -28.45 -1.289 29.84 -1.289 29.84 -43.11 -28.45
8.2 -45.5 -30.48 -1.304 21.35 -1.304 21.35 -45.5 -30.48
8.3 -48.78 -26.42 -1.318 12.86 -1.318 12.86 -48.78 -26.42
8.4 -52.68 -4.98 -1.332 4.37 -1.332 4.37 -52.68 -4.98
8.5 -52.68 38.30 -1.346 -4.12 -1.346 -4.12 -52.68 38.30
8.6 -48.75 59.91 -1.361 -12.61 -1.361 -12.61 -48.75 59.91
8.7 -45.44 64.06 -1.375 -21.11 -1.375 -21.11 -45.44 64.06
8.8 -43.01 62.09 -1.389 -29.60 -1.389 -29.60 -43.01 62.09
8.9 -41.22 57.65 -1.404 -38.09 -1.404 -38.09 -41.22 57.65
9 -39.86 52.00 -1.418 -46.58 -1.418 -46.58 -39.86 52.00
9.1 -38.84 45.70 -1.432 -55.07 -1.432 -55.07 -38.84 45.70
9.2 -38.08 39.03 -1.447 -63.56 -1.447 -63.56 -38.08 39.03
9.3 -37.56 32.13 -1.461 -72.05 -1.461 -72.05 -37.56 32.13
9.4 -37.24 25.12 -1.475 -80.54 -1.475 -80.54 -37.24 25.12
9.5 -37.12 18.07 -1.49 -89.03 -1.49 -89.03 -37.12 18.07
9.6 -37.17 11.03 -1.504 -97.52 -1.504 -97.52 -37.17 11.03
9.7 -37.42 4.08 -1.518 -106.01 -1.518 -106.01 -37.42 4.08
9.8 -37.87 -2.71 -1.532 -114.50 -1.532 -114.50 -37.87 -2.71
9.9 -38.54 -9.23 -1.546 -123.00 -1.546 -123.00 -38.54 -9.23
10 -39.46 -15.32 -1.56 -131.49 -1.56 -131.49 -39.46 -15.32
10.1 -40.68 -20.70 -1.574 -139.98 -1.574 -139.98 -40.68 -20.70
10.2 -42.3 -24.82 -1.588 -148.47 -1.588 -148.47 -42.3 -24.82
10.3 -44.43 -26.53 -1.602 -156.97 -1.602 -156.97 -44.43 -26.53
10.4 -47.24 -22.90 -1.616 -165.46 -1.616 -165.46 -47.24 -22.90
10.5 -50.45 -6.47 -1.63 -173.95 -1.63 -173.95 -50.45 -6.47
10.6 -51.33 27.63 -1.644 177.55 -1.644 177.55 -51.33 27.63
10.7 -48.5 51.96 -1.658 169.06 -1.658 169.06 -48.5 51.96
10.8 -45.42 59.43 -1.672 160.56 -1.672 160.56 -45.42 59.43
10.9 -43.01 59.37 -1.686 152.07 -1.686 152.07 -43.01 59.37
11 -41.19 56.08 -1.701 143.57 -1.701 143.57 -41.19 56.08
11.1 -39.8 51.20 -1.715 135.07 -1.715 135.07 -39.8 51.20
11.2 -38.74 45.46 -1.729 126.58 -1.729 126.58 -38.74 45.46
11.3 -37.96 39.22 -1.743 118.08 -1.743 118.08 -37.96 39.22
11.4 -37.41 32.69 -1.757 109.59 -1.757 109.59 -37.41 32.69
11.5 -37.06 25.99 -1.771 101.09 -1.771 101.09 -37.06 25.99
11.6 -36.9 19.22 -1.785 92.59 -1.785 92.59 -36.9 19.22
11.7 -36.93 12.45 -1.799 84.10 -1.799 84.10 -36.93 12.45
11.8 -37.14 5.76 -1.813 75.60 -1.813 75.60 -37.14 5.76
11.9 -37.55 -0.76 -1.827 67.10 -1.827 67.10 -37.55 -0.76
12 -38.17 -7.01 -1.841 58.60 -1.841 58.60 -38.17 -7.01
12.1 -39.02 -12.80 -1.855 50.11 -1.855 50.11 -39.02 -12.80
12.2 -40.16 -17.86 -1.869 41.61 -1.869 41.61 -40.16 -17.86
12.3 -41.65 -21.67 -1.883 33.11 -1.883 33.11 -41.65 -21.67
12.4 -43.58 -23.16 -1.897 24.61 -1.897 24.61 -43.58 -23.16
12.5 -46.02 -19.95 -1.91 16.11 -1.91 16.11 -46.02 -19.95
12.6 -48.74 -6.81 -1.924 7.61 -1.924 7.61 -48.74 -6.81
12.7 -49.96 20.25 -1.938 -0.89 -1.938 -0.89 -49.96 20.25
12.8 -48.1 44.50 -1.952 -9.40 -1.952 -9.40 -48.1 44.50
12.9 -45.36 54.60 -1.966 -17.90 -1.966 -17.90 -45.36 54.60
13 -43.03 56.37 -1.98 -26.40 -1.98 -26.40 -43.03 56.37
13.1 -41.2 54.23 -1.994 -34.91 -1.994 -34.91 -41.2 54.23
13.2 -39.79 50.14 -2.008 -43.41 -2.008 -43.41 -39.79 50.14
13.3 -38.72 44.97 -2.022 -51.91 -2.022 -51.91 -38.72 44.97
13.4 -37.91 39.18 -2.035 -60.42 -2.035 -60.42 -37.91 39.18
13.5 -37.33 33.01 -2.049 -68.92 -2.049 -68.92 -37.33 33.01
13.6 -36.96 26.62 -2.063 -77.43 -2.063 -77.43 -36.96 26.62
13.7 -36.77 20.13 -2.077 -85.93 -2.077 -85.93 -36.77 20.13
13.8 -36.77 13.62 -2.091 -94.44 -2.091 -94.44 -36.77 13.62
13.9 -36.95 7.19 -2.105 -102.94 -2.105 -102.94 -36.95 7.19
14 -37.32 0.92 -2.119 -111.45 -2.119 -111.45 -37.32 0.92
14.1 -37.89 -5.07 -2.133 -119.95 -2.133 -119.95 -37.89 -5.07
14.2 -38.69 -10.59 -2.146 -128.46 -2.146 -128.46 -38.69 -10.59
14.3 -39.75 -15.36 -2.16 -136.97 -2.16 -136.97 -39.75 -15.36
14.4 -41.13 -18.89 -2.174 -145.48 -2.174 -145.48 -41.13 -18.89
14.5 -42.88 -20.21 -2.187 -153.99 -2.187 -153.99 -42.88 -20.21
14.6 -45.05 -17.35 -2.201 -162.50 -2.201 -162.50 -45.05 -17.35
14.7 -47.4 -6.44 -2.215 -171.01 -2.215 -171.01 -47.4 -6.44
14.8 -48.7 15.51 -2.228 -179.52 -2.228 -179.52 -48.7 15.51
14.9 -47.55 38.10 -2.242 171.97 -2.242 171.97 -47.55 38.10
15 -45.22 49.85 -2.256 163.46 -2.256 163.46 -45.22 49.85
15.1 -43.01 53.21 -2.269 154.95 -2.269 154.95 -43.01 53.21
15.2 -41.22 52.19 -2.283 146.43 -2.283 146.43 -41.22 52.19
15.3 -39.81 48.86 -2.297 137.92 -2.297 137.92 -39.81 48.86
15.4 -38.72 44.26 -2.311 129.40 -2.311 129.40 -38.72 44.26
15.5 -37.89 38.91 -2.325 120.89 -2.325 120.89 -37.89 38.91
15.6 -37.3 33.10 -2.339 112.38 -2.339 112.38 -37.3 33.10
15.7 -36.9 27.02 -2.352 103.86 -2.352 103.86 -36.9 27.02
15.8 -36.7 20.81 -2.366 95.35 -2.366 95.35 -36.7 20.81
15.9 -36.67 14.56 -2.38 86.83 -2.38 86.83 -36.67 14.56
16 -36.82 8.37 -2.394 78.31 -2.394 78.31 -36.82 8.37
16.1 -37.16 2.34 -2.407 69.80 -2.407 69.80 -37.16 2.34
16.2 -37.69 -3.39 -2.421 61.28 -2.421 61.28 -37.69 -3.39
16.3 -38.44 -8.66 -2.435 52.76 -2.435 52.76 -38.44 -8.66
16.4 -39.44 -13.17 -2.448 44.24 -2.448 44.24 -39.44 -13.17
16.5 -40.71 -16.44 -2.462 35.73 -2.462 35.73 -40.71 -16.44
16.6 -42.32 -17.60 -2.475 27.21 -2.475 27.21 -42.32 -17.60
16.7 -44.27 -14.97 -2.489 18.68 -2.489 18.68 -44.27 -14.97
16.8 -46.32 -5.61 -2.502 10.16 -2.502 10.16 -46.32 -5.61
16.9 -47.59 12.65 -2.516 1.64 -2.516 1.64 -47.59 12.65
17 -46.92 33.01 -2.529 -6.88 -2.529 -6.88 -46.92 33.01
17.1 -44.98 45.46 -2.543 -15.41 -2.543 -15.41 -44.98 45.46
17.2 -42.95 50.06 -2.557 -23.93 -2.557 -23.93 -42.95 50.06
17.3 -41.22 50.01 -2.57 -32.46 -2.57 -32.46 -41.22 50.01
17.4 -39.82 47.40 -2.584 -40.98 -2.584 -40.98 -39.82 47.40
17.5 -38.73 43.35 -2.598 -49.51 -2.598 -49.51 -38.73 43.35
17.6 -37.9 38.42 -2.611 -58.03 -2.611 -58.03 -37.9 38.42
17.7 -37.29 32.96 -2.625 -66.56 -2.625 -66.56 -37.29 32.96
17.8 -36.88 27.19 -2.639 -75.09 -2.639 -75.09 -36.88 27.19
17.9 -36.65 21.25 -2.652 -83.61 -2.652 -83.61 -36.65 21.25
18 -36.61 15.25 -2.666 -92.14 -2.666 -92.14 -36.61 15.25
