! yapnr rf: line-osh-w-w3p00-l60-w-nom, footprint re-simulated (optimization grid)
! spec sha256 28bb9f17b3e5b3aa64583b31e161a109e9189072f3f3cb0fa6c41ea1d7ed3470
! 2 ports renormalized to 50 ohm, e^(+jwt) convention
# GHz S RI R 50
3.000000000  9.763432276e-04  3.230531929e-03  9.144821928e-01 -1.841356915e-01  9.144821928e-01 -1.841356915e-01  9.763432275e-04  3.230531929e-03
3.025000000  1.385440424e-03  3.953937731e-03  9.030472212e-01 -2.337453997e-01  9.030472212e-01 -2.337453997e-01  1.385440424e-03  3.953937731e-03
3.050000000  1.879091833e-03  4.651038912e-03  8.889202851e-01 -2.826627597e-01  8.889202851e-01 -2.826627597e-01  1.879091833e-03  4.651038912e-03
3.075000000  2.454914962e-03  5.312706555e-03  8.721406621e-01 -3.307464819e-01  8.721406621e-01 -3.307464819e-01  2.454914962e-03  5.312706555e-03
3.100000000  3.110424898e-03  5.928241330e-03  8.527598991e-01 -3.778450976e-01  8.527598991e-01 -3.778450976e-01  3.110424898e-03  5.928241330e-03
3.125000000  3.840114350e-03  6.489023763e-03  8.308318653e-01 -4.238246693e-01  8.308318653e-01 -4.238246693e-01  3.840114350e-03  6.489023763e-03
3.150000000  4.639482928e-03  6.985093587e-03  8.064234430e-01 -4.685419252e-01  8.064234430e-01 -4.685419252e-01  4.639482928e-03  6.985093587e-03
3.175000000  5.500533913e-03  7.409017382e-03  7.796038755e-01 -5.118675105e-01  7.796038755e-01 -5.118675105e-01  5.500533913e-03  7.409017382e-03
3.200000000  6.416363926e-03  7.752726520e-03  7.504538237e-01 -5.536684796e-01  7.504538237e-01 -5.536684796e-01  6.416363926e-03  7.752726520e-03
3.225000000  7.377494951e-03  8.010119241e-03  7.190575649e-01 -5.938216567e-01  7.190575649e-01 -5.938216567e-01  7.377494951e-03  8.010119241e-03
3.250000000  8.374963879e-03  8.175587355e-03  6.855093211e-01 -6.322042833e-01  6.855093211e-01 -6.322042833e-01  8.374963879e-03  8.175587355e-03
3.275000000  9.398249568e-03  8.244526541e-03  6.499070669e-01 -6.687022446e-01  6.499070669e-01 -6.687022446e-01  9.398249568e-03  8.244526541e-03
3.300000000  1.043682128e-02  8.213510470e-03  6.123582998e-01 -7.032035204e-01  6.123582998e-01 -7.032035204e-01  1.043682128e-02  8.213510470e-03
3.325000000  1.147927478e-02  8.080047304e-03  5.729732876e-01 -7.356052128e-01  5.729732876e-01 -7.356052128e-01  1.147927478e-02  8.080047304e-03
3.350000000  1.251401619e-02  7.842966376e-03  5.318708962e-01 -7.658080866e-01  5.318708962e-01 -7.658080866e-01  1.251401619e-02  7.842966376e-03
3.375000000  1.352910173e-02  7.502432763e-03  4.891727923e-01 -7.937215025e-01  4.891727923e-01 -7.937215025e-01  1.352910173e-02  7.502432763e-03
3.400000000  1.451272886e-02  7.060085328e-03  4.450064207e-01 -8.192608909e-01  4.450064207e-01 -8.192608909e-01  1.451272886e-02  7.060085328e-03
3.425000000  1.545314478e-02  6.518992972e-03  3.995037820e-01 -8.423487679e-01  3.995037820e-01 -8.423487679e-01  1.545314478e-02  6.518992972e-03
3.450000000  1.633905529e-02  5.883587778e-03  3.527991938e-01 -8.629157406e-01  3.527991938e-01 -8.629157406e-01  1.633905529e-02  5.883587778e-03
3.475000000  1.715999137e-02  5.159860487e-03  3.050331786e-01 -8.808986698e-01  3.050331786e-01 -8.808986698e-01  1.715999137e-02  5.159860487e-03
3.500000000  1.790462034e-02  4.354252931e-03  2.563457874e-01 -8.962434870e-01  2.563457874e-01 -8.962434870e-01  1.790462034e-02  4.354252931e-03
3.525000000  1.856590041e-02  3.475767499e-03  2.068859012e-01 -9.089019330e-01  2.068859012e-01 -9.089019330e-01  1.856590041e-02  3.475767499e-03
3.550000000  1.913258733e-02  2.532686503e-03  1.567982994e-01 -9.188357545e-01  1.567982994e-01 -9.188357545e-01  1.913258733e-02  2.532686503e-03
3.575000000  1.959852947e-02  1.535619332e-03  1.062356064e-01 -9.260133550e-01  1.062356064e-01 -9.260133550e-01  1.959852947e-02  1.535619332e-03
3.600000000  1.995494523e-02  4.953695248e-04  5.534623631e-02 -9.304123898e-01  5.534623631e-02 -9.304123898e-01  1.995494523e-02  4.953695248e-04
3.625000000  2.019805603e-02 -5.756059673e-04  4.287703542e-03 -9.320180332e-01  4.287703542e-03 -9.320180332e-01  2.019805603e-02 -5.756059673e-04
3.650000000  2.032172122e-02 -1.664882382e-03 -4.679262737e-02 -9.308244388e-01 -4.679262737e-02 -9.308244388e-01  2.032172122e-02 -1.664882382e-03
3.675000000  2.032521708e-02 -2.758314908e-03 -9.773479901e-02 -9.268340878e-01 -9.773479901e-02 -9.268340878e-01  2.032521708e-02 -2.758314908e-03
3.700000000  2.020516306e-02 -3.842949083e-03 -1.483933286e-01 -9.200571052e-01 -1.483933286e-01 -9.200571052e-01  2.020516306e-02 -3.842949083e-03
3.725000000  1.996555975e-02 -4.903903085e-03 -1.986091164e-01 -9.105132763e-01 -1.986091164e-01 -9.105132763e-01  1.996555975e-02 -4.903903085e-03
3.750000000  1.960480908e-02 -5.928175815e-03 -2.482380766e-01 -8.982285760e-01 -2.482380766e-01 -8.982285760e-01  1.960480908e-02 -5.928175815e-03
3.775000000  1.913092402e-02 -6.901967257e-03 -2.971257049e-01 -8.832394331e-01 -2.971257049e-01 -8.832394331e-01  1.913092402e-02 -6.901967257e-03
3.800000000  1.854497899e-02 -7.812003948e-03 -3.451292690e-01 -8.655879384e-01 -3.451292690e-01 -8.655879384e-01  1.854497899e-02 -7.812003948e-03
3.825000000  1.785706554e-02 -8.646198324e-03 -3.920997728e-01 -8.453269048e-01 -3.920997728e-01 -8.453269048e-01  1.785706554e-02 -8.646198324e-03
3.850000000  1.707216265e-02 -9.391815062e-03 -4.378988983e-01 -8.225141151e-01 -4.378988983e-01 -8.225141151e-01  1.707216265e-02 -9.391815062e-03
3.875000000  1.620158942e-02 -1.003809063e-02 -4.823840689e-01 -7.972185225e-01 -4.823840689e-01 -7.972185225e-01  1.620158942e-02 -1.003809063e-02
3.900000000  1.525447060e-02 -1.057423815e-02 -5.254237000e-01 -7.695129257e-01 -5.254237000e-01 -7.695129257e-01  1.525447060e-02 -1.057423815e-02
3.925000000  1.424397608e-02 -1.099112824e-02 -5.668839713e-01 -7.394812503e-01 -5.668839713e-01 -7.394812503e-01  1.424397608e-02 -1.099112824e-02
3.950000000  1.318235245e-02 -1.128085673e-02 -6.066412176e-01 -7.072108594e-01 -6.066412176e-01 -7.072108594e-01  1.318235245e-02 -1.128085673e-02
3.975000000  1.208460366e-02 -1.143714863e-02 -6.445730957e-01 -6.727984942e-01 -6.445730957e-01 -6.727984942e-01  1.208460366e-02 -1.143714863e-02
4.000000000  1.096509987e-02 -1.145527699e-02 -6.805647907e-01 -6.363456413e-01 -6.805647907e-01 -6.363456413e-01  1.096509987e-02 -1.145527699e-02
4.025000000  9.841217765e-03 -1.133309288e-02 -7.145043282e-01 -5.979629180e-01 -7.145043282e-01 -5.979629180e-01  9.841217765e-03 -1.133309288e-02
4.050000000  8.726865445e-03 -1.106885281e-02 -7.462899985e-01 -5.577623713e-01 -7.462899985e-01 -5.577623713e-01  8.726865445e-03 -1.106885281e-02
4.075000000  7.638430492e-03 -1.066350064e-02 -7.758233618e-01 -5.158648383e-01 -7.758233618e-01 -5.158648383e-01  7.638430492e-03 -1.066350064e-02
4.100000000  6.592173397e-03 -1.011963977e-02 -8.030128160e-01 -4.723965283e-01 -8.030128160e-01 -4.723965283e-01  6.592173397e-03 -1.011963977e-02
4.125000000  5.603021244e-03 -9.440864635e-03 -8.277745987e-01 -4.274873091e-01 -8.277745987e-01 -4.274873091e-01  5.603021244e-03 -9.440864635e-03
4.150000000  4.686859092e-03 -8.633635001e-03 -8.500308666e-01 -3.812740367e-01 -8.500308666e-01 -3.812740367e-01  4.686859092e-03 -8.633635001e-03
4.175000000  3.857743286e-03 -7.704748063e-03 -8.697130886e-01 -3.338942569e-01 -8.697130886e-01 -3.338942569e-01  3.857743286e-03 -7.704748063e-03
4.200000000  3.130261141e-03 -6.664175924e-03 -8.867583300e-01 -2.854943661e-01 -8.867583300e-01 -2.854943661e-01  3.130261141e-03 -6.664175924e-03
4.225000000  2.516701125e-03 -5.522239458e-03 -9.011143428e-01 -2.362167921e-01 -9.011143428e-01 -2.362167921e-01  2.516701125e-03 -5.522239458e-03
4.250000000  2.029480444e-03 -4.291985463e-03 -9.127344381e-01 -1.862146206e-01 -9.127344381e-01 -1.862146206e-01  2.029480444e-03 -4.291985463e-03
4.275000000  1.678936183e-03 -2.987392459e-03 -9.215817459e-01 -1.356390614e-01 -9.215817459e-01 -1.356390614e-01  1.678936183e-03 -2.987392459e-03
4.300000000  1.473811867e-03 -1.623712218e-03 -9.276276487e-01 -8.464383973e-02 -9.276276487e-01 -8.464383973e-02  1.473811867e-03 -1.623712218e-03
4.325000000  1.420455112e-03 -2.164575428e-04 -9.308522277e-01 -3.338034839e-02 -9.308522277e-01 -3.338034839e-02  1.420455112e-03 -2.164575428e-04
4.350000000  1.524958814e-03  1.216444668e-03 -9.312434997e-01  1.798949572e-02 -9.312434997e-01  1.798949572e-02  1.524958814e-03  1.216444668e-03
4.375000000  1.789866193e-03  2.658400236e-03 -9.287986214e-01  6.931460019e-02 -9.287986214e-01  6.931460019e-02  1.789866193e-03  2.658400236e-03
4.400000000  2.217048766e-03  4.090759230e-03 -9.235237276e-01  1.204319740e-01 -9.235237276e-01  1.204319740e-01  2.217048766e-03  4.090759230e-03
4.425000000  2.805507181e-03  5.495870296e-03 -9.154328680e-01  1.711909331e-01 -9.154328680e-01  1.711909331e-01  2.805507181e-03  5.495870296e-03
4.450000000  3.552782994e-03  6.855270260e-03 -9.045504111e-01  2.214297836e-01 -9.045504111e-01  2.214297836e-01  3.552782994e-03  6.855270260e-03
4.475000000  4.453955264e-03  8.151126483e-03 -8.909072743e-01  2.710000232e-01 -8.909072743e-01  2.710000232e-01  4.453955264e-03  8.151126483e-03
4.500000000  5.502274757e-03  9.365888148e-03 -8.745449030e-01  3.197461145e-01 -8.745449030e-01  3.197461145e-01  5.502274757e-03  9.365888148e-03
4.525000000  6.688894161e-03  1.048289687e-02 -8.555127759e-01  3.675179236e-01 -8.555127759e-01  3.675179236e-01  6.688894161e-03  1.048289687e-02
4.550000000  8.003075967e-03  1.148654823e-02 -8.338681208e-01  4.141696569e-01 -8.338681208e-01  4.141696569e-01  8.003075967e-03  1.148654823e-02
4.575000000  9.432197711e-03  1.236207327e-02 -8.096752447e-01  4.595603639e-01 -8.096752447e-01  4.595603639e-01  9.432197711e-03  1.236207327e-02
4.600000000  1.096227610e-02  1.309681082e-02 -7.830085484e-01  5.035484639e-01 -7.830085484e-01  5.035484639e-01  1.096227610e-02  1.309681082e-02
4.625000000  1.257753094e-02  1.367894219e-02 -7.539481096e-01  5.460003378e-01 -7.539481096e-01  5.460003378e-01  1.257753094e-02  1.367894219e-02
4.650000000  1.426118600e-02  1.409893058e-02 -7.225829117e-01  5.867845987e-01 -7.225829117e-01  5.867845987e-01  1.426118600e-02  1.409893058e-02
4.675000000  1.599508382e-02  1.434872234e-02 -6.890080106e-01  6.257765229e-01 -6.890080106e-01  6.257765229e-01  1.599508382e-02  1.434872234e-02
4.700000000  1.776010892e-02  1.442230154e-02 -6.533261433e-01  6.628558190e-01 -6.533261433e-01  6.628558190e-01  1.776010892e-02  1.442230154e-02
4.725000000  1.953656875e-02  1.431596570e-02 -6.156463421e-01  6.979084323e-01 -6.156463421e-01  6.979084323e-01  1.953656875e-02  1.431596570e-02
4.750000000  2.130385715e-02  1.402769747e-02 -5.760822124e-01  7.308278659e-01 -5.760822124e-01  7.308278659e-01  2.130385715e-02  1.402769747e-02
4.775000000  2.304176503e-02  1.355909054e-02 -5.347583457e-01  7.615100051e-01 -5.347583457e-01  7.615100051e-01  2.304176503e-02  1.355909054e-02
4.800000000  2.472961254e-02  1.291256217e-02 -4.917972927e-01  7.898635196e-01 -4.917972927e-01  7.898635196e-01  2.472961254e-02  1.291256217e-02
4.825000000  2.634752895e-02  1.209409379e-02 -4.473321891e-01  8.157999694e-01 -4.473321891e-01  8.157999694e-01  2.634752895e-02  1.209409379e-02
4.850000000  2.787592102e-02  1.111075721e-02 -4.014959682e-01  8.392412039e-01 -4.014959682e-01  8.392412039e-01  2.787592102e-02  1.111075721e-02
4.875000000  2.929696617e-02  9.973548654e-03 -3.544314758e-01  8.601135261e-01 -3.544314758e-01  8.601135261e-01  2.929696617e-02  9.973548654e-03
4.900000000  3.059234540e-02  8.693074424e-03 -3.062784489e-01  8.783543040e-01 -3.062784489e-01  8.783543040e-01  3.059234540e-02  8.693074424e-03
4.925000000  3.174744908e-02  7.284594939e-03 -2.571874597e-01  8.939056884e-01 -2.571874597e-01  8.939056884e-01  3.174744908e-02  7.284594939e-03
4.950000000  3.274583917e-02  5.762275502e-03 -2.073038192e-01  9.067208738e-01 -2.073038192e-01  9.067208738e-01  3.274583917e-02  5.762275502e-03
4.975000000  3.357646590e-02  4.144722621e-03 -1.567848306e-01  9.167585397e-01 -1.567848306e-01  9.167585397e-01  3.357646590e-02  4.144722621e-03
5.000000000  3.422627246e-02  2.449496186e-03 -1.057786276e-01  9.239883701e-01 -1.057786276e-01  9.239883701e-01  3.422627246e-02  2.449496186e-03
5.025000000  3.468791153e-02  6.979987419e-04 -5.444813654e-02  9.283862796e-01 -5.444813654e-02  9.283862796e-01  3.468791153e-02  6.979987419e-04
5.050000000  3.495321804e-02 -1.089790432e-03 -2.942409372e-03  9.299385219e-01 -2.942409372e-03  9.299385219e-01  3.495321804e-02 -1.089790432e-03
5.075000000  3.501921219e-02 -2.890525154e-03  4.857423997e-02  9.286389131e-01  4.857423997e-02  9.286389131e-01  3.501921219e-02 -2.890525154e-03
5.100000000  3.488302164e-02 -4.682977116e-03  9.995113629e-02  9.244900407e-01  9.995113629e-02  9.244900407e-01  3.488302164e-02 -4.682977116e-03
5.125000000  3.454704134e-02 -6.443323595e-03  1.510260466e-01  9.175034426e-01  1.510260466e-01  9.175034426e-01  3.454704134e-02 -6.443323595e-03
5.150000000  3.401322571e-02 -8.150035306e-03  2.016475539e-01  9.076982757e-01  2.016475539e-01  9.076982757e-01  3.401322571e-02 -8.150035306e-03
5.175000000  3.328917242e-02 -9.780411125e-03  2.516571923e-01  8.951032991e-01  2.516571923e-01  8.951032991e-01  3.328917242e-02 -9.780411125e-03
5.200000000  3.238179845e-02 -1.131342712e-02  3.009047220e-01  8.797543970e-01  3.009047220e-01  8.797543970e-01  3.238179845e-02 -1.131342712e-02
5.225000000  3.130278924e-02 -1.272841905e-02  3.492366922e-01  8.616970995e-01  3.492366922e-01  8.616970995e-01  3.130278924e-02 -1.272841905e-02
5.250000000  3.006437816e-02 -1.400604733e-02  3.965062303e-01  8.409838909e-01  3.965062303e-01  8.409838909e-01  3.006437816e-02 -1.400604733e-02
5.275000000  2.868268501e-02 -1.512820131e-02  4.425637847e-01  8.176778573e-01  4.425637847e-01  8.176778573e-01  2.868268501e-02 -1.512820131e-02
5.300000000  2.717385796e-02 -1.607863666e-02  4.872708356e-01  7.918465231e-01  4.872708356e-01  7.918465231e-01  2.717385796e-02 -1.607863666e-02
5.325000000  2.555745198e-02 -1.684274661e-02  5.304868664e-01  7.635680542e-01  5.304868664e-01  7.635680542e-01  2.555745198e-02 -1.684274661e-02
5.350000000  2.385427911e-02 -1.740836768e-02  5.720779462e-01  7.329270507e-01  5.720779462e-01  7.329270507e-01  2.385427911e-02 -1.740836768e-02
5.375000000  2.208664121e-02 -1.776562247e-02  6.119149074e-01  7.000153187e-01  6.119149074e-01  7.000153187e-01  2.208664121e-02 -1.776562247e-02
5.400000000  2.027804598e-02 -1.790717044e-02  6.498726032e-01  6.649326908e-01  6.498726032e-01  6.649326908e-01  2.027804598e-02 -1.790717044e-02
5.425000000  1.845249932e-02 -1.782845627e-02  6.858333705e-01  6.277840067e-01  6.858333705e-01  6.277840067e-01  1.845249932e-02 -1.782845627e-02
5.450000000  1.663507489e-02 -1.752754113e-02  7.196827919e-01  5.886832395e-01  7.196827919e-01  5.886832395e-01  1.663507489e-02 -1.752754113e-02
5.475000000  1.485009807e-02 -1.700512831e-02  7.513156900e-01  5.477472855e-01  7.513156900e-01  5.477472855e-01  1.485009807e-02 -1.700512831e-02
5.500000000  1.312285805e-02 -1.626492328e-02  7.806303598e-01  5.051026801e-01  7.806303598e-01  5.051026801e-01  1.312285805e-02 -1.626492328e-02
5.525000000  1.147770020e-02 -1.531325133e-02  8.075331967e-01  4.608805537e-01  8.075331967e-01  4.608805537e-01  1.147770020e-02 -1.531325133e-02
5.550000000  9.938234177e-03 -1.415909267e-02  8.319383634e-01  4.152166301e-01  8.319383634e-01  4.152166301e-01  9.938234177e-03 -1.415909267e-02
5.575000000  8.527039901e-03 -1.281405332e-02  8.537686369e-01  3.682490407e-01  8.537686369e-01  3.682490407e-01  8.527039901e-03 -1.281405332e-02
5.600000000  7.265886544e-03 -1.129272281e-02  8.729511644e-01  3.201281216e-01  8.729511644e-01  3.201281216e-01  7.265886544e-03 -1.129272281e-02
5.625000000  6.174404834e-03 -9.611730962e-03  8.894259900e-01  2.709971259e-01  8.894259900e-01  2.709971259e-01  6.174404834e-03 -9.611730962e-03
5.650000000  5.270637101e-03 -7.790394185e-03  9.031370881e-01  2.210153068e-01  9.031370881e-01  2.210153068e-01  5.270637101e-03 -7.790394185e-03
5.675000000  4.570345594e-03 -5.849613722e-03  9.140412106e-01  1.703312817e-01  9.140412106e-01  1.703312817e-01  4.570345594e-03 -5.849613722e-03
5.700000000  4.086764584e-03 -3.812424051e-03  9.221006311e-01  1.191093819e-01  9.221006311e-01  1.191093819e-01  4.086764584e-03 -3.812424051e-03
5.725000000  3.830917224e-03 -1.703044720e-03  9.272889061e-01  6.750376466e-02  9.272889061e-01  6.750376466e-02  3.830917224e-03 -1.703044720e-03
5.750000000  3.810728301e-03  4.529728067e-04  9.295872351e-01  1.567934140e-02  9.295872351e-01  1.567934140e-02  3.810728301e-03  4.529728067e-04
5.775000000  4.031440349e-03  2.629241031e-03  9.289866295e-01 -3.620165538e-02  9.289866295e-01 -3.620165538e-02  4.031440349e-03  2.629241031e-03
5.800000000  4.495318804e-03  4.798688215e-03  9.254873909e-01 -8.797573936e-02  9.254873909e-01 -8.797573936e-02  4.495318804e-03  4.798688215e-03
5.825000000  5.201746395e-03  6.933888255e-03  9.190987307e-01 -1.394829475e-01  9.190987307e-01 -1.394829475e-01  5.201746395e-03  6.933888255e-03
5.850000000  6.146523828e-03  9.007505384e-03  9.098399641e-01 -1.905571478e-01  9.098399641e-01 -1.905571478e-01  6.146523828e-03  9.007505384e-03
5.875000000  7.322894007e-03  1.099271482e-02  8.977386587e-01 -2.410405866e-01  8.977386587e-01 -2.410405866e-01  7.322894007e-03  1.099271482e-02
5.900000000  8.720358375e-03  1.286341759e-02  8.828327584e-01 -2.907715063e-01  8.828327584e-01 -2.907715063e-01  8.720358375e-03  1.286341759e-02
5.925000000  1.032619472e-02  1.459476691e-02  8.651679783e-01 -3.395953842e-01  8.651679783e-01 -3.395953842e-01  1.032619472e-02  1.459476691e-02
5.950000000  1.212431320e-02  1.616361989e-02  8.447998109e-01 -3.873575148e-01  8.447998109e-01 -3.873575148e-01  1.212431320e-02  1.616361989e-02
5.975000000  1.409646766e-02  1.754840035e-02  8.217917100e-01 -4.339084213e-01  8.217917100e-01 -4.339084213e-01  1.409646766e-02  1.754840035e-02
6.000000000  1.622213712e-02  1.872966699e-02  7.962151470e-01 -4.791028641e-01  7.962151470e-01 -4.791028641e-01  1.622213712e-02  1.872966699e-02
6.025000000  1.847803783e-02  1.969102395e-02  7.681518018e-01 -5.227965334e-01  7.681518018e-01 -5.227965334e-01  1.847803783e-02  1.969102395e-02
6.050000000  2.083987417e-02  2.041731126e-02  7.376884662e-01 -5.648545478e-01  7.376884662e-01 -5.648545478e-01  2.083987417e-02  2.041731126e-02
6.075000000  2.328114667e-02  2.089699814e-02  7.049213406e-01 -6.051443209e-01  7.049213406e-01 -6.051443209e-01  2.328114667e-02  2.089699814e-02
6.100000000  2.577408142e-02  2.112085661e-02  6.699528032e-01 -6.435403697e-01  6.699528032e-01 -6.435403697e-01  2.577408142e-02  2.112085661e-02
6.125000000  2.828970067e-02  2.108350901e-02  6.328941987e-01 -6.799211140e-01  6.328941987e-01 -6.799211140e-01  2.828970067e-02  2.108350901e-02
6.150000000  3.079872674e-02  2.078218498e-02  5.938600070e-01 -7.141748572e-01  5.938600070e-01 -7.141748572e-01  3.079872674e-02  2.078218498e-02
6.175000000  3.327081383e-02  2.021810574e-02  5.529754927e-01 -7.461925490e-01  5.529754927e-01 -7.461925490e-01  3.327081383e-02  2.021810574e-02
6.200000000  3.567726260e-02  1.939530721e-02  5.103651367e-01 -7.758774180e-01  5.103651367e-01 -7.758774180e-01  3.567726260e-02  1.939530721e-02
6.225000000  3.798808383e-02  1.832210696e-02  4.661661068e-01 -8.031346799e-01  4.661661068e-01 -8.031346799e-01  3.798808383e-02  1.832210696e-02
6.250000000  4.017643711e-02  1.700855980e-02  4.205116528e-01 -8.278826921e-01  4.205116528e-01 -8.278826921e-01  4.017643711e-02  1.700855980e-02
6.275000000  4.221493638e-02  1.546992980e-02  3.735482309e-01 -8.500425001e-01  3.735482309e-01 -8.500425001e-01  4.221493638e-02  1.546992980e-02
6.300000000  4.407901628e-02  1.372163795e-02  3.254171889e-01 -8.695476454e-01  3.254171889e-01 -8.695476454e-01  4.407901628e-02  1.372163795e-02
6.325000000  4.574546409e-02  1.178478392e-02  2.762724866e-01 -8.863357984e-01  2.762724866e-01 -8.863357984e-01  4.574546409e-02  1.178478392e-02
6.350000000  4.719306919e-02  9.680207042e-03  2.262620952e-01 -9.003563527e-01  2.262620952e-01 -9.003563527e-01  4.719306919e-02  9.680207042e-03
6.375000000  4.840309181e-02  7.433362497e-03  1.755458406e-01 -9.115642686e-01  1.755458406e-01 -9.115642686e-01  4.840309181e-02  7.433362497e-03
6.400000000  4.935978901e-02  5.070225950e-03  1.242763923e-01 -9.199254253e-01  1.242763923e-01 -9.199254253e-01  4.935978901e-02  5.070225950e-03
6.425000000  5.004950171e-02  2.619892793e-03  7.261769138e-02 -9.254125937e-01  7.261769138e-02 -9.254125937e-01  5.004950171e-02  2.619892793e-03
6.450000000  5.046329539e-02  1.117770436e-04  2.072503289e-02 -9.280085504e-01  2.072503289e-02 -9.280085504e-01  5.046329539e-02  1.117770436e-04
6.475000000  5.059420133e-02 -2.422499413e-03 -3.123698948e-02 -9.277041065e-01 -3.123698948e-02 -9.277041065e-01  5.059420133e-02 -2.422499413e-03
6.500000000  5.044007616e-02 -4.951809353e-03 -8.311098063e-02 -9.244989580e-01 -8.311098063e-02 -9.244989580e-01  5.044007616e-02 -4.951809353e-03
6.525000000  5.000146307e-02 -7.443459496e-03 -1.347323528e-01 -9.184018631e-01 -1.347323528e-01 -9.184018631e-01  5.000146307e-02 -7.443459496e-03
6.550000000  4.928315358e-02 -9.866540393e-03 -1.859454639e-01 -9.094294343e-01 -1.859454639e-01 -9.094294343e-01  4.928315358e-02 -9.866540393e-03
6.575000000  4.829316041e-02 -1.218952688e-02 -2.365895504e-01 -8.976075634e-01 -2.365895504e-01 -8.976075634e-01  4.829316041e-02 -1.218952688e-02
6.600000000  4.704274215e-02 -1.438224062e-02 -2.865078831e-01 -8.829703436e-01 -2.865078831e-01 -8.829703436e-01  4.704274215e-02 -1.438224062e-02
6.625000000  4.554658869e-02 -1.641560465e-02 -3.355442435e-01 -8.655607487e-01 -3.355442435e-01 -8.655607487e-01  4.554658869e-02 -1.641560465e-02
6.650000000  4.382264735e-02 -1.826218193e-02 -3.835454426e-01 -8.454300439e-01 -3.835454426e-01 -8.454300439e-01  4.382264735e-02 -1.826218193e-02
6.675000000  4.189173804e-02 -1.989643808e-02 -4.303604898e-01 -8.226381379e-01 -4.303604898e-01 -8.226381379e-01  4.189173804e-02 -1.989643808e-02
6.700000000  3.977780517e-02 -2.129523951e-02 -4.758414413e-01 -7.972534003e-01 -4.758414413e-01 -7.972534003e-01  3.977780517e-02 -2.129523951e-02
6.725000000  3.750732936e-02 -2.243821351e-02 -5.198453457e-01 -7.693516068e-01 -5.198453457e-01 -7.693516068e-01  3.750732936e-02 -2.243821351e-02
6.750000000  3.510905396e-02 -2.330790332e-02 -5.622310442e-01 -7.390180248e-01 -5.622310442e-01 -7.390180248e-01  3.510905396e-02 -2.330790332e-02
6.775000000  3.261391122e-02 -2.389037610e-02 -6.028658231e-01 -7.063429188e-01 -6.028658231e-01 -7.063429188e-01  3.261391122e-02 -2.389037610e-02
6.800000000  3.005401593e-02 -2.417500595e-02 -6.416175052e-01 -6.714275354e-01 -6.416175052e-01 -6.714275354e-01  3.005401593e-02 -2.417500595e-02
6.825000000  2.746307503e-02 -2.415479724e-02 -6.783642461e-01 -6.343760672e-01 -6.783642461e-01 -6.343760672e-01  2.746307503e-02 -2.415479724e-02
6.850000000  2.487504536e-02 -2.382665151e-02 -7.129853087e-01 -5.953041920e-01 -7.129853087e-01 -5.953041920e-01  2.487504536e-02 -2.382665151e-02
6.875000000  2.232478772e-02 -2.319082828e-02 -7.453701924e-01 -5.543299780e-01 -7.453701924e-01 -5.543299780e-01  2.232478772e-02 -2.319082828e-02
6.900000000  1.984660862e-02 -2.225194114e-02 -7.754112272e-01 -5.115825433e-01 -7.754112272e-01 -5.115825433e-01  1.984660862e-02 -2.225194114e-02
6.925000000  1.747480625e-02 -2.101795928e-02 -8.030112023e-01 -4.671924727e-01 -8.030112023e-01 -4.671924727e-01  1.747480625e-02 -2.101795928e-02
6.950000000  1.524247238e-02 -1.950135382e-02 -8.280764023e-01 -4.213024707e-01 -8.280764023e-01 -4.213024707e-01  1.524247238e-02 -1.950135382e-02
6.975000000  1.318145912e-02 -1.771764422e-02 -8.505255169e-01 -3.740526538e-01 -8.505255169e-01 -3.740526538e-01  1.318145912e-02 -1.771764422e-02
7.000000000  1.132167851e-02 -1.568690368e-02 -8.702812255e-01 -3.255963525e-01 -8.702812255e-01 -3.255963525e-01  1.132167851e-02 -1.568690368e-02
