! yapnr rf: filterbank3-x7x10x13, binary design on the optimization grid
! spec sha256 13de688406c8ea8aa5a2983c7d9dfbef6bc7c31cd2b218bfb1531cd97a05cd76
! renormalized to 50 ohm, e^(+jwt) convention
# GHz S RI R 50
5.970000000  5.392556154e-01 -3.220868266e-01 -2.793866263e-02  7.005801676e-01 -1.902495560e-01  1.138245829e-01  7.586258111e-02 -6.108796811e-02
            -2.610137447e-02  7.025438372e-01  3.850500261e-01  3.855007260e-01  2.341559194e-01  2.976848004e-01 -4.977785232e-02  3.705010776e-02
            -1.915034867e-01  1.117968143e-01  2.306990708e-01  2.920909302e-01 -1.509786806e-01 -8.636210169e-01 -4.614712639e-03 -3.023476365e-02
             7.499131861e-02 -6.331288152e-02 -5.699856414e-02  3.524764921e-02 -8.988038221e-03 -2.414165131e-02 -8.655455439e-01  3.962578255e-01
6.050600000  5.060288246e-01 -3.528857108e-01  3.400256650e-02  7.102666837e-01 -1.897767910e-01  1.250105538e-01  6.038517431e-02 -5.511283067e-02
             3.634265644e-02  7.120254878e-01  4.146871845e-01  3.367242605e-01  2.582192561e-01  2.753440460e-01 -3.233225750e-02  3.632886551e-02
            -1.912254297e-01  1.228449563e-01  2.541950649e-01  2.700321646e-01 -1.900312183e-01 -8.552719245e-01 -5.253543844e-03 -2.473500513e-02
             5.933505601e-02 -5.733555793e-02 -3.982601622e-02  3.538484127e-02 -9.139336361e-03 -1.781062514e-02 -8.155866657e-01  4.979395418e-01
6.131200000  4.713114521e-01 -3.801149829e-01  9.746193048e-02  7.137343435e-01 -1.884055803e-01  1.364916320e-01  4.783529321e-02 -4.823592881e-02
             1.003050488e-01  7.151695188e-01  4.383169645e-01  2.862206652e-01  2.800540999e-01  2.509029615e-01 -1.767474632e-02  3.290586808e-02
            -1.900880337e-01  1.342060168e-01  2.755465741e-01  2.459801394e-01 -2.281352060e-01 -8.452703704e-01 -5.063489051e-03 -2.053235314e-02
             4.652358605e-02 -5.040681844e-02 -2.534783727e-02  3.283954263e-02 -8.344683189e-03 -1.285486604e-02 -7.554832718e-01  5.892673493e-01
6.211800000  4.354944973e-01 -4.037532705e-01  1.618183673e-01  7.108811895e-01 -1.861422288e-01  1.482199513e-01  3.784318893e-02 -4.101922562e-02
             1.651108274e-01  7.118680235e-01  4.561096115e-01  2.345076813e-01  2.995328234e-01  2.246336399e-01 -5.767657561e-03  2.760637365e-02
            -1.880960426e-01  1.458370039e-01  2.946640522e-01  2.201519971e-01 -2.652846774e-01 -8.336633989e-01 -4.365849147e-03 -1.755201219e-02
             3.625477116e-02 -4.302226243e-02 -1.352668881e-02  2.843131837e-02 -6.962361303e-03 -9.221048772e-03 -6.870449780e-01  6.702932465e-01
6.292400000  3.989801892e-01 -4.238304425e-01  2.264641706e-01  7.016283657e-01 -1.829567228e-01  1.601345155e-01  2.999229088e-02 -3.381604564e-02
             2.301091921e-01  7.020729023e-01  4.681826895e-01  1.820063443e-01  3.165812768e-01  1.967929221e-01  3.539795060e-03  2.109947107e-02
            -1.852182441e-01  1.576820483e-01  3.114634950e-01  1.927428831e-01 -3.014675132e-01 -8.204993800e-01 -3.413187626e-03 -1.570963996e-02
             2.820339460e-02 -3.554842521e-02 -4.211289256e-03  2.282372605e-02 -5.279907486e-03 -6.815237327e-03 -6.116893059e-01  7.412127263e-01
6.373000000  3.621566653e-01 -4.404382869e-01  2.907866741e-01  6.859224200e-01 -1.788146608e-01  1.721392651e-01  2.392618134e-02 -2.680507575e-02
             2.946768424e-01  6.857748989e-01  4.745721212e-01  1.291156299e-01  3.311605655e-01  1.675967512e-01  1.045403725e-02  1.390879170e-02
            -1.814188638e-01  1.696510712e-01  3.258622953e-01  1.639369697e-01 -3.366743173e-01 -8.058269387e-01 -2.420205750e-03 -1.492401207e-02
             2.205873420e-02 -2.823979510e-02  2.806360649e-03  1.653482093e-02 -3.522151542e-03 -5.531345835e-03 -5.304950090e-01  8.022191337e-01
6.453600000  3.253747045e-01 -4.537204022e-01  3.541590486e-01  6.637458695e-01 -1.737112048e-01  1.841119611e-01  1.939797185e-02 -2.008613808e-02
             3.582034874e-01  6.629851112e-01  4.752652296e-01  7.628384454e-02  3.432336721e-01  1.372147131e-01  1.519518015e-02  6.443860566e-03
            -1.766906417e-01  1.816286903e-01  3.377808767e-01  1.339137657e-01 -3.709025276e-01 -7.896881517e-01 -1.584979131e-03 -1.510889837e-02
             1.754750312e-02 -2.127385627e-02  7.749190391e-03  9.967782182e-03 -1.872302191e-03 -5.268987803e-03 -4.443121561e-01  8.534079390e-01
6.534200000  2.889393035e-01 -4.638511622e-01  4.159407056e-01  6.351271318e-01 -1.676850868e-01  1.959337925e-01  1.623891017e-02 -1.376987922e-02
             4.200675322e-01  6.337328445e-01  4.702692129e-01  2.403155874e-02  3.527373238e-01  1.057889872e-01  1.798067629e-02 -9.627978467e-04
            -1.710681878e-01  1.935031804e-01  3.471441002e-01  1.028486606e-01 -4.041534224e-01 -7.721112833e-01 -1.091966164e-03 -1.615965500e-02
             1.443244429e-02 -1.478708957e-02  1.083828965e-02  3.447129239e-03 -4.946597131e-04 -5.934269468e-03 -3.538800880e-01  8.947549835e-01
6.614800000  2.531175861e-01 -4.710185081e-01  4.754811532e-01  6.001448981e-01 -1.608057349e-01  2.075177778e-01  1.428364537e-02 -8.005913250e-03
             4.796171007e-01  5.980820927e-01  4.596662199e-01 -2.707960455e-02  3.595747623e-01  7.346570814e-02  1.902949601e-02 -8.029212764e-03
            -1.646151269e-01  2.051939573e-01  3.538783152e-01  7.091165396e-02 -4.364243199e-01 -7.531083350e-01 -1.103166390e-03 -1.794903192e-02
             1.249418633e-02 -8.895067503e-03  1.229614319e-02 -2.755281588e-03  4.527707698e-04 -7.428379055e-03 -2.599077378e-01  9.261471281e-01
6.695400000  2.181537332e-01 -4.754209571e-01  5.321209286e-01  5.589292826e-01 -1.531447293e-01  2.188171630e-01  1.331413586e-02 -2.945256753e-03
             5.361675031e-01  5.561570282e-01  4.436230934e-01 -7.649968079e-02  3.636307427e-01  4.042000082e-02  1.857288439e-02 -1.451468032e-02
            -1.573962014e-01  2.166594012e-01  3.579049983e-01  3.826956028e-02 -4.677013809e-01 -7.326791632e-01 -1.750950659e-03 -2.033503456e-02
             1.151299659e-02 -3.692283281e-03  1.235650295e-02 -8.410749846e-03  8.193381909e-04 -9.635327140e-03 -1.631043040e-01  9.474222689e-01
6.776000000  1.842774780e-01 -4.772788596e-01  5.851888465e-01  5.116658282e-01 -1.447521434e-01  2.298100301e-01  1.306038898e-02  1.320329372e-03
             5.890153032e-01  5.081626134e-01  4.223615990e-01 -1.237229826e-01  3.647963307e-01  6.861851678e-03  1.685974830e-02 -2.022280767e-02
            -1.494543794e-01  2.278815842e-01  3.591357953e-01  5.093691777e-03 -4.979578343e-01 -7.108192436e-01 -3.141211084e-03 -2.317236013e-02
             1.126311365e-02  7.593094966e-04  1.126943825e-02 -1.333626984e-02  4.706316542e-04 -1.241798955e-02 -6.418105062e-02  9.583867468e-01
6.856600000  1.516972311e-01 -4.768501447e-01  6.340005488e-01  4.586057810e-01 -1.356534953e-01  2.404726243e-01  1.324862387e-02  4.790521772e-03
             6.374594209e-01  4.543916773e-01  3.961227178e-01 -1.682818768e-01  3.629865505e-01 -2.697652946e-02  1.415320504e-02 -2.500730222e-02
            -1.408081052e-01  2.388402224e-01  3.574732971e-01 -2.842988953e-02 -5.271585463e-01 -6.875255134e-01 -5.364621906e-03 -2.631672267e-02
             1.152070411e-02  4.439404044e-03  9.298004065e-03 -1.740015772e-02 -7.045276707e-04 -1.562353161e-02  3.614421363e-02  9.588059073e-01
6.937200000  1.205788758e-01 -4.744374374e-01  6.778640306e-01  4.000800101e-01 -1.258681946e-01  2.507608140e-01  1.365410397e-02  7.538308454e-03
             6.808175079e-01  3.952199402e-01  3.651572202e-01 -2.097162837e-01  3.581406628e-01 -6.085941760e-02  1.072226681e-02 -2.877389556e-02
            -1.314693676e-01  2.494947006e-01  3.528176344e-01 -6.209280577e-02 -5.552672830e-01 -6.627959100e-01 -8.506604538e-03 -2.961833800e-02
             1.207672294e-02  7.368018674e-03  6.709895343e-03 -2.052439844e-02 -2.795145689e-03 -1.909180645e-02  1.371203777e-01  9.483858015e-01
7.017800000  9.102038125e-02 -4.703782841e-01  7.160931997e-01  3.365102514e-01 -1.154358915e-01  2.606127741e-01  1.411892288e-02  9.660872467e-03
             7.184317906e-01  3.310982111e-01  3.297492263e-01 -2.475510865e-01  3.502075390e-01 -9.455722431e-02  6.834403930e-03 -3.147804496e-02
            -1.214692976e-01  2.597867447e-01  3.450746702e-01 -9.566262013e-02 -5.822508793e-01 -6.366224448e-01 -1.264809740e-02 -3.290982366e-02
             1.274448603e-02  9.595607861e-03  3.769290397e-03 -2.268294656e-02 -5.875814352e-03 -2.265854796e-02  2.379150711e-01  9.267685885e-01
7.098400000  6.303504627e-02 -4.650199927e-01  7.480250269e-01  2.684131682e-01 -1.044324529e-01  2.699714513e-01  1.452702855e-02  1.123969082e-02
             7.496677953e-01  2.625513551e-01  2.902519707e-01 -2.813044415e-01  3.391285855e-01 -1.278393487e-01  2.751452306e-03 -3.312218566e-02
            -1.108736072e-01  2.696622250e-01  3.341608019e-01 -1.288853338e-01 -6.080762823e-01 -6.089820657e-01 -1.785676563e-02 -3.599731532e-02
             1.335802206e-02  1.119293486e-02  7.314030955e-04 -2.389906334e-02 -1.001411872e-02 -2.614964204e-02  3.375606813e-01  8.935536784e-01
7.179000000  3.655098197e-02 -4.586890203e-01  7.730343396e-01  1.963981746e-01 -9.296481718e-02  2.788126797e-01  1.476224283e-02  1.233811320e-02
             7.739152307e-01  1.901870757e-01  2.471064331e-01 -3.105241318e-01  3.248316865e-01 -1.604543513e-01 -1.273028775e-03 -3.375600530e-02
            -9.977754168e-02  2.790983489e-01  3.200027586e-01 -1.614871591e-01 -6.327009208e-01 -5.798311715e-01 -2.417489347e-02 -3.865980836e-02
             1.376533936e-02  1.224803251e-02 -2.161552607e-03 -2.424482984e-02 -1.527055906e-02 -2.936961497e-02  4.349105057e-01  8.483421837e-01
7.259600000  1.142497832e-02 -4.516666779e-01  7.905439069e-01  1.211641351e-01 -8.114799634e-02  2.871621515e-01  1.468503994e-02  1.303303908e-02
             7.905990056e-01  1.147092320e-01  2.008281307e-01 -3.348280377e-01  3.072416997e-01 -1.921098255e-01 -4.998742027e-03 -3.348001434e-02
            -8.828358140e-02  2.881200169e-01  3.025354902e-01 -1.931713203e-01 -6.560610256e-01 -5.491073341e-01 -3.161082045e-02 -4.065479153e-02
             1.382441074e-02  1.287111814e-02 -4.686217171e-03 -2.384341397e-02 -2.168888581e-02 -3.209163809e-02  5.286126203e-01  7.907940025e-01
7.340200000 -1.253859209e-02 -4.441772952e-01  8.000327770e-01  4.349939805e-02 -6.907836664e-02  2.950929389e-01  1.414588790e-02  1.345190704e-02
             7.992013426e-01  3.692626589e-02  1.519715868e-01 -3.539238785e-01  2.863020121e-01 -2.224637869e-01 -8.208544622e-03 -3.244975078e-02
            -7.647558972e-02  2.967973647e-01  2.817034666e-01 -2.236098236e-01 -6.780635408e-01 -5.167371068e-01 -4.013587691e-02 -4.172413843e-02
             1.340690522e-02  1.320205255e-02 -6.648320811e-03 -2.287200578e-02 -2.928085307e-02 -3.405511370e-02  6.170992936e-01  7.206881291e-01
7.420800000 -3.557390721e-02 -4.363858893e-01  8.010481744e-01 -3.571505561e-02 -5.681812774e-02  3.027086030e-01  1.302372672e-02  1.378519782e-02
             7.992885019e-01 -4.225197952e-02  1.010964085e-01 -3.676011673e-01  2.619950911e-01 -2.511309725e-01 -1.072329885e-02 -3.087721803e-02
            -6.440376260e-02  3.052294101e-01  2.574686885e-01 -2.524343752e-01 -6.985843663e-01 -4.826449447e-01 -4.968307099e-02 -4.159578772e-02
             1.240846224e-02  1.341352798e-02 -7.897852441e-03 -2.156222826e-02 -3.801213300e-02 -3.497161409e-02  6.985855937e-01  6.379841810e-01
7.501400000 -5.794865951e-02 -4.283959697e-01  7.932237038e-01 -1.155040557e-01 -4.439647670e-02  3.101259940e-01  1.126071069e-02  1.426598993e-02
             7.905330190e-01 -1.218284905e-01  4.875355334e-02 -3.757093189e-01  2.343520171e-01 -2.776972338e-01 -1.242009785e-02 -2.902718566e-02
            -5.208567690e-02  3.135274430e-01  2.298241653e-01 -2.792314929e-01 -7.174707941e-01 -4.467579229e-01 -6.014190593e-02 -3.998193920e-02
             1.075977602e-02  1.370708593e-02 -8.347992173e-03 -2.019521914e-02 -4.779376579e-02 -3.453472450e-02  7.710740853e-01  5.428904122e-01
7.582000000 -7.996271785e-02 -4.202386575e-01  7.763014926e-01 -1.948033344e-01 -3.182034508e-02  3.174707658e-01  8.870384369e-03  1.513343678e-02
             7.727262029e-01 -2.007372713e-01 -4.508735296e-03 -3.781435640e-01  2.034498780e-01 -3.017301951e-01 -1.325209780e-02 -2.720705577e-02
            -3.951646132e-02  3.218107023e-01  1.988083155e-01 -3.035437040e-01 -7.345424435e-01 -4.090044845e-01 -7.134660515e-02 -3.657878496e-02
             8.433211426e-03  1.430469789e-02 -7.995814663e-03 -1.908938691e-02 -5.847807032e-02 -3.242804466e-02  8.323704866e-01  4.359456906e-01
7.662600000 -1.019398385e-01 -4.118514242e-01  7.501527526e-01 -2.724722673e-01 -1.908009814e-02  3.248885107e-01  5.919018933e-03  1.660703826e-02
             7.457829811e-01 -2.778571708e-01 -5.813660942e-02 -3.748498715e-01  1.694054122e-01 -3.227777374e-01 -1.326833356e-02 -2.574903693e-02
            -2.667394856e-02  3.302170560e-01  1.645164535e-01 -3.248742109e-01 -7.495853039e-01 -3.693106131e-01 -8.305982278e-02 -3.107307569e-02
             5.444270160e-03  1.544146078e-02 -6.942311615e-03 -1.857928734e-02 -6.985357553e-02 -2.832912547e-02  8.801231112e-01  3.181183616e-01
7.743200000 -1.242034035e-01 -4.030537213e-01  7.147928655e-01 -3.473103135e-01 -6.138192578e-03  3.325622554e-01  2.500412861e-03  1.888732184e-02
             7.097467616e-01 -3.520177527e-01 -1.115785727e-01 -3.658409250e-01  1.323769976e-01 -3.403551398e-01 -1.263104319e-02 -2.498293245e-02
            -1.350723493e-02  3.389196265e-01  1.271097580e-01 -3.426903836e-01 -7.623376232e-01 -3.276001685e-01 -9.495680433e-02 -2.315758012e-02
             1.852057131e-03  1.736299487e-02 -5.408398548e-03 -1.898435983e-02 -8.163356888e-02 -2.191287210e-02  9.119024785e-01  1.909151572e-01
7.823800000 -1.470348824e-01 -3.935316834e-01  6.703922188e-01 -4.180716888e-01  7.100572732e-03  3.407209138e-01 -1.272100581e-03  2.217646894e-02
             6.648020335e-01 -4.220007840e-01 -1.643140419e-01 -3.512029163e-01  9.258272958e-02 -3.539305753e-01 -1.162613143e-02 -2.519840695e-02
             9.258389545e-05  3.481343789e-01  8.682644260e-02 -3.564238441e-01 -7.724717311e-01 -2.838053643e-01 -1.066143151e-01 -1.255380214e-02
            -2.235783564e-03  2.032622260e-02 -3.742183043e-03 -2.056725188e-02 -9.343746295e-02 -1.286177223e-02  9.253341878e-01  5.648206419e-02
7.904400000 -1.706224518e-01 -3.828418524e-01  6.172884093e-01 -4.834761762e-01  2.082710729e-02  3.496269299e-01 -5.247328019e-03  2.669696396e-02
             6.112971866e-01 -4.865454984e-01 -2.158886001e-01 -3.310768027e-01  5.033306129e-02 -3.629213353e-01 -1.066078871e-02 -2.659794445e-02
             1.432960749e-02  3.581072549e-01  4.400060833e-02 -3.654701407e-01 -7.795789581e-01 -2.378889396e-01 -1.175059021e-01  9.610500028e-04
            -6.651129995e-03  2.459825017e-02 -2.411672872e-03 -2.348369839e-02 -1.047703201e-01 -8.894035734e-04  9.182882449e-01 -8.232932364e-02
7.985000000 -1.950113439e-01 -3.704362594e-01  5.560054439e-01 -5.422196794e-01  3.535942546e-02  3.595419009e-01 -9.202565433e-03  3.268830802e-02
             5.497734676e-01 -5.443648260e-01 -2.659339056e-01 -3.056140915e-01  6.068589400e-03 -3.667083072e-01 -1.024238225e-02 -2.924516979e-02
             2.953366540e-02  3.690796762e-01 -9.094881791e-04 -3.691951459e-01 -7.831636116e-01 -1.898744811e-01 -1.270029890e-01  1.752453905e-02
            -1.114854126e-02  3.044784390e-02 -1.977293673e-03 -2.772907820e-02 -1.150094795e-01  1.422148255e-02  8.891141678e-01 -2.219586419e-01
8.065600000 -2.200646863e-01 -3.557035892e-01  4.872811767e-01 -5.929917529e-01  5.115691948e-02  3.706790497e-01 -1.281573074e-02  4.037795770e-02
             4.809928367e-01 -5.941744328e-01 -3.141575730e-01 -2.749232465e-01 -3.960788539e-02 -3.646676288e-01 -1.093481504e-02 -3.301629800e-02
             4.617393559e-02  3.812410195e-01 -4.728767363e-02 -3.669552225e-01 -7.826474870e-01 -1.398791348e-01 -1.343816106e-01  3.715652426e-02
            -1.538838765e-02  3.812703342e-02 -3.040483917e-03 -3.308989500e-02 -1.234060473e-01  3.257103190e-02  8.368973498e-01 -3.582203945e-01
8.146200000 -2.454364050e-01 -3.380188915e-01  4.120989488e-01 -6.345064071e-01  6.881706290e-02  3.831541493e-01 -1.565804715e-02  4.993925896e-02
             4.059598469e-01 -6.347311329e-01 -3.603042466e-01 -2.390268761e-01 -8.591050698e-02 -3.562123971e-01 -1.329172793e-02 -3.756432853e-02
             6.485505572e-02  3.946793178e-01 -9.432802718e-02 -3.581341456e-01 -7.773821134e-01 -8.814522829e-02 -1.388367344e-01  5.972270308e-02
            -1.892420256e-02  4.784361253e-02 -6.167926344e-03 -3.911071258e-02 -1.291041880e-01  5.409226521e-02  7.617017692e-01 -4.864870501e-01
8.226800000 -2.705520889e-01 -3.167989963e-01  3.317172010e-01 -6.655485527e-01  8.906188500e-02  3.969402585e-01 -1.720600336e-02  6.145332582e-02
             3.259383274e-01 -6.648765919e-01 -4.041005617e-01 -1.978408352e-01 -1.318585623e-01 -3.408382226e-01 -1.776943606e-02 -4.230650880e-02
             8.630261518e-02  4.093354736e-01 -1.410116299e-01 -3.421952638e-01 -7.666655977e-01 -3.507243474e-02 -1.395081891e-01  8.489471878e-02
            -2.119625035e-02  5.972585303e-02 -1.179522328e-02 -4.508828542e-02 -1.311764268e-01  7.850516291e-02  6.647588092e-01 -6.019698960e-01
8.307400000 -2.945949439e-01 -2.915688408e-01  2.476924234e-01 -6.850357085e-01  1.127205813e-01  4.118213830e-01 -1.685963777e-02  7.488125795e-02
             2.424673607e-01 -6.835875152e-01 -4.451955849e-01 -1.511739676e-01 -1.762682250e-01 -3.181736797e-01 -2.462676009e-02 -4.644604051e-02
             1.113439424e-01  4.249564796e-01 -1.860953325e-01 -3.187462242e-01 -7.497658674e-01  1.874424455e-02 -1.355227069e-01  1.121102763e-01
            -2.153293812e-02  7.377861839e-02 -2.011911535e-02 -5.010466190e-02 -1.286722064e-01  1.052769303e-01  5.485617399e-01 -7.000800354e-01
8.388000000 -3.165031055e-01 -2.620484455e-01  1.618926849e-01 -6.920959825e-01  1.407042678e-01  4.273345738e-01 -1.395712132e-02  9.003760020e-02
             1.573779850e-01 -6.900412547e-01 -4.830980880e-01 -9.874361576e-02 -2.177473757e-01 -2.880446452e-01 -3.382500532e-02 -4.903811344e-02
             1.408801319e-01  4.410379032e-01 -2.281148589e-01 -2.876163072e-01 -7.259598286e-01  7.246752923e-02 -1.260553449e-01  1.405395064e-01
            -1.916527141e-02  8.982859044e-02 -3.099405406e-02 -5.310898238e-02 -1.206804594e-01  1.335881828e-01  4.168305664e-01 -7.768350325e-01
8.468600000 -3.349969424e-01 -2.282651929e-01  7.649621493e-02 -6.861670176e-01  1.739555818e-01  4.426957951e-01 -7.791563662e-03  1.065498236e-01
             7.280141831e-02 -6.837093760e-01 -5.171050512e-01 -4.021121944e-02 -2.547049269e-01 -2.505627211e-01 -4.494901657e-02 -4.910558072e-02
             1.758325423e-01  4.567516898e-01 -2.654088511e-01 -2.489489944e-01 -6.946029990e-01  1.249681114e-01 -1.104113107e-01  1.690659318e-01
            -1.326525731e-02  1.074596671e-01 -4.385643328e-02 -5.305152313e-02 -1.064117255e-01  1.623078909e-01  2.743243260e-01 -8.292597552e-01
8.549200000 -3.486620791e-01 -1.906802378e-01 -6.039398709e-03 -6.671203602e-01  2.133498280e-01  4.567221862e-01  2.347696711e-03  1.237997453e-01
            -8.853872576e-03 -6.644852703e-01 -5.462231342e-01  2.474417520e-02 -2.853977873e-01 -2.062379306e-01 -5.717636328e-02 -4.579858761e-02
             2.170414397e-01  4.708721818e-01 -2.961785760e-01 -2.033088059e-01 -6.552409364e-01  1.747916464e-01 -8.812629391e-02  1.962921675e-01
            -3.021800253e-03  1.259491671e-01 -5.770508407e-02 -4.906138259e-02 -8.530581301e-02  1.899883327e-01  1.265000072e-01 -8.557166155e-01
8.629800000 -3.561078013e-01 -1.502968016e-01 -8.306177489e-02 -6.354053385e-01  2.595337327e-01  4.677841511e-01  1.708519959e-02  1.408662431e-01
            -8.498664924e-02 -6.328342214e-01 -5.691061000e-01  9.629424800e-02 -3.080410183e-01 -1.560965144e-01 -6.932096200e-02 -3.857592156e-02
             2.651038685e-01  4.817334170e-01 -3.186030000e-01 -1.517886121e-01 -6.077599507e-01  2.201724982e-01 -5.907897857e-02  2.205820986e-01
             1.223814947e-02  1.442278526e-01 -7.116466876e-02 -4.064182764e-02 -5.716297508e-02  2.149001439e-01 -2.095134018e-02 -8.560977332e-01
8.710400000 -3.561987078e-01 -1.087023067e-01 -1.518873886e-01 -5.921858137e-01  3.127130684e-01  4.738324744e-01  3.681573908e-02  1.565090000e-01
            -1.529730391e-01 -5.899310245e-01 -5.840525042e-01  1.742702825e-01 -3.209937575e-01 -1.017644163e-01 -7.996538043e-02 -2.736899211e-02
             3.201626783e-01  4.872620361e-01 -3.310223402e-01 -9.608535915e-02 -5.525532904e-01  2.591241207e-01 -2.360227101e-02  2.401512897e-01
             3.289125082e-02  1.608946697e-01 -8.264482055e-02 -2.783992957e-02 -2.228069814e-02  2.351293815e-01 -1.626265304e-01 -8.318267815e-01
8.791000000 -3.483252518e-01 -6.799673790e-02 -2.100528988e-01 -5.394209626e-01  3.724324526e-01  4.725377048e-01  6.153421193e-02  1.692343072e-01
            -2.104232121e-01 -5.377323336e-01 -5.891104587e-01  2.579473270e-01 -3.230062565e-01 -4.546754580e-02 -8.767275731e-02 -1.268051133e-02
             3.816901892e-01  4.851219974e-01 -3.321812612e-01 -3.849901402e-02 -4.906585882e-01  2.896207369e-01  1.742964971e-02  2.532126138e-01
             5.885179568e-02  1.743130597e-01 -9.058212691e-02 -1.133856173e-02  1.843891297e-02  2.487476219e-01 -2.939005684e-01 -7.856533555e-01
8.871600000 -3.326486429e-01 -3.058207747e-02 -2.556286120e-01 -4.798325554e-01  4.374142810e-01  4.615490358e-01  9.069401666e-02  1.774602039e-01
            -2.554907311e-01 -4.789301882e-01 -5.823092477e-01  3.458725949e-01 -3.134813029e-01  1.008975966e-02 -9.124103587e-02  4.423392597e-03
             4.483332420e-01  4.729773236e-01 -3.214911483e-01  1.818637592e-02 -4.238133580e-01  3.098566523e-01  6.256922157e-02  2.581715557e-01
             8.944551619e-02  1.827965174e-01 -9.372118451e-02  7.572518383e-03  6.345451034e-02  2.540429257e-01 -4.112928151e-01 -7.212702762e-01
8.952200000 -3.102423711e-01  1.171488310e-03 -2.875295505e-01 -4.167184852e-01  5.055246479e-01  4.388367936e-01  1.231549046e-01  1.797583751e-01
            -2.871677647e-01 -4.167560939e-01 -5.619879582e-01  4.358164996e-01 -2.926809145e-01  6.197545397e-02 -8.994007819e-02  2.244464287e-02
             5.178869600e-01  4.488360113e-01 -2.992437925e-01  7.095345614e-02 -3.543856312e-01  3.185372581e-01  1.098486362e-01  2.538460344e-01
             1.233743061e-01  1.848608129e-01 -9.136750590e-02  2.716153780e-02  1.106584542e-01  2.497719364e-01 -5.126412294e-01 -6.428289370e-01
9.032800000 -2.830668685e-01  2.532114378e-02 -3.057361765e-01 -3.536160779e-01  5.739066109e-01  4.030439076e-01  1.572584540e-01  1.751136646e-01
            -3.054843779e-01 -3.546476964e-01 -5.271421237e-01  5.248971270e-01 -2.618095539e-01  1.073744097e-01 -8.366736017e-02  3.968937361e-02
             5.874365555e-01  4.113995609e-01 -2.667030267e-01  1.169041899e-01 -2.851668810e-01  3.151329570e-01  1.569339035e-01  2.396656897e-01
             1.588063355e-01  1.794899783e-01 -8.354179366e-02  4.552989598e-02  1.575658174e-01  2.353740911e-01 -5.970638595e-01 -5.544526566e-01
9.113400000 -2.537552730e-01  4.071551413e-02 -3.113461346e-01 -2.938736190e-01  6.392727006e-01  3.537556532e-01  1.910270608e-01  1.631276885e-01
            -3.115441856e-01 -2.958376884e-01 -4.776873923e-01  6.098723016e-01 -2.229325589e-01  1.439545281e-01 -7.297582416e-02  5.455521939e-02
             6.536573830e-01  3.603269462e-01 -2.260254014e-01  1.536414509e-01 -2.190553879e-01  3.000256792e-01  2.013672570e-01  2.157965542e-01
             1.935914815e-01  1.663467069e-01 -7.098771504e-02  6.093422855e-02  2.015921280e-01  2.110889431e-01 -6.647400722e-01 -4.598428421e-01
9.194000000 -2.252438633e-01  4.723165766e-02 -3.064227143e-01 -2.402294799e-01  6.982976074e-01  2.916132209e-01  2.224400991e-01  1.441082990e-01
            -3.073705907e-01 -2.429570328e-01 -4.145586264e-01  6.875331448e-01 -1.787348658e-01  1.701671170e-01 -5.896383255e-02  6.579731138e-02
             7.132120902e-01  2.963392067e-01 -1.800100371e-01  1.795858417e-01 -1.586947917e-01  2.745012117e-01  2.408530277e-01  1.831481246e-01
             2.255613816e-01  1.458652538e-01 -5.502776907e-02  7.207355609e-02  2.403617673e-01  1.779400217e-01 -7.165846488e-01 -3.620395467e-01
9.274600000 -2.003293048e-01  4.582072411e-02 -2.936686879e-01 -1.945039421e-01  7.480195411e-01  2.182406332e-01  2.497176164e-01  1.190236953e-01
            -2.955928535e-01 -1.977464703e-01 -3.396159752e-01  7.550978570e-01 -1.321725675e-01  1.854097698e-01 -4.305866874e-02  7.270650598e-02
             7.631518394e-01  2.211361724e-01 -1.317317424e-01  1.941474811e-01 -1.061497161e-01  2.405821492e-01  2.735210749e-01  1.432511425e-01
             2.528434254e-01  1.191962878e-01 -3.730792167e-02  7.826997578e-02  2.719767569e-01  1.375860410e-01 -7.539022588e-01 -2.633501693e-01
9.355200000 -1.812568424e-01  3.835222934e-02 -2.760083951e-01 -1.574746991e-01  7.861580773e-01  1.360088680e-01  2.715455954e-01  8.934102560e-02
            -2.790474727e-01 -1.609394772e-01 -2.553911782e-01  8.105095670e-01 -8.609942089e-02  1.900199871e-01 -2.675516012e-02  7.516234568e-02
             8.012294144e-01  1.371518653e-01 -8.414689670e-02  1.977160966e-01 -6.269075108e-02  2.007406009e-01  2.981043186e-01  9.803440558e-02
             2.741119627e-01  8.801716717e-02 -1.950274627e-02  7.950644959e-02  2.951875956e-01  9.207787131e-02 -7.780960116e-01 -1.654160290e-01
9.435800000 -1.694307357e-01  2.730321090e-02 -2.561831368e-01 -1.289482237e-01  8.112862939e-01  4.770428804e-02  2.872015941e-01  5.679742711e-02
            -2.603898789e-01 -1.323289448e-01 -1.647502479e-01  8.525812562e-01 -4.295153284e-02  1.851160230e-01 -1.137829422e-02  7.356320249e-02
             8.260636771e-01  4.721777937e-02 -3.976398019e-02  1.914876711e-01 -2.872866417e-02  1.575605058e-01  3.139939536e-01  4.955990038e-02
             2.887208807e-01  5.426024597e-02 -3.057249908e-03  7.633032938e-02  3.094385316e-01  4.358286502e-02 -7.904713770e-01 -6.936095115e-02
9.516400000 -1.652971101e-01  1.537613185e-02 -2.364482933e-01 -1.079817929e-01  8.228415762e-01 -4.381446812e-02  2.965715143e-01  2.315917290e-02
            -2.417988311e-01 -1.109792497e-01 -7.055840645e-02  8.809824269e-01 -4.548344406e-03  1.723395213e-01  2.077803115e-03  6.867083259e-02
             8.371421805e-01 -4.578122178e-02 -4.416180273e-04  1.771893190e-01 -3.895222225e-03  1.134265186e-01  3.211759017e-01 -2.166193028e-04
             2.967004967e-01  1.983083883e-02  1.097986094e-02  6.966821005e-02  3.147961851e-01 -5.860633807e-03 -7.921411041e-01  2.403656855e-02
9.597000000 -1.683972565e-01  5.136697586e-03 -2.184167058e-01 -9.317753749e-02  8.210035464e-01 -1.358984849e-01  3.000745406e-01 -9.984712271e-03
            -2.248193456e-01 -9.551309263e-02  2.458647500e-02  8.961036991e-01  2.797092817e-02  1.535705513e-01  1.301336744e-02  6.142382380e-02
             8.346923777e-01 -1.391866260e-01  3.266824623e-02  1.567808982e-01  1.276924800e-02  7.029972538e-02  3.200868747e-01 -4.961012767e-02
             2.986423247e-01 -1.362042788e-02  2.201258814e-02  6.061391381e-02  3.117988671e-01 -5.451407656e-02 -7.840107954e-01  1.141911688e-01
9.677600000 -1.775456228e-01 -1.258962559e-03 -2.030433874e-01 -8.296896642e-02  8.064943635e-01 -2.262875659e-01  2.985281778e-01 -4.136570372e-02
            -2.103455516e-01 -8.439686825e-02  1.185192690e-01  8.988549253e-01  5.409363358e-02  1.306781365e-01  2.119991992e-02  5.277060684e-02
             8.194775536e-01 -2.307412487e-01  5.905644466e-02  1.322005253e-01  2.258187594e-02  2.960823802e-02  3.114436396e-01 -9.727925292e-02
             2.955222248e-01 -4.483359329e-02  2.985968995e-02  5.024453284e-02  3.012757816e-01 -1.010184324e-01 -7.668138954e-01  2.006003768e-01
9.758200000 -1.910649400e-01 -2.217291062e-03 -1.907112727e-01 -7.584512903e-02  7.803611125e-01 -3.131796806e-01  2.929896416e-01 -7.010597564e-02
            -1.987088040e-01 -7.616662681e-02  2.095708998e-01  8.904507453e-01  7.380514512e-02  1.053454806e-01  2.670267999e-02  4.355325303e-02
             7.925771155e-01 -3.186542611e-01  7.872075202e-02  1.051916877e-01  2.699647308e-02 -7.754505786e-03  2.960913101e-01 -1.422224518e-01
             2.885175744e-01 -7.298125548e-02  3.465988511e-02  3.949657156e-02  2.841800105e-01 -1.443928958e-01 -7.411666652e-01  2.827795339e-01
9.838800000 -2.070148481e-01  3.249928341e-03 -1.813657378e-01 -7.049209004e-02  7.437866028e-01 -3.952115639e-01  2.846065689e-01 -9.572200368e-02
            -1.898190398e-01 -6.956821256e-02  2.965497803e-01  8.722232684e-01  8.743395922e-02  7.898003924e-02  2.978531888e-02  3.444880082e-02
             7.551970362e-01 -4.015777805e-01  9.200945545e-02  7.721690369e-02  2.743716057e-02 -4.135725501e-02  2.748940729e-01 -1.837289229e-01
             2.788590510e-01 -9.764186218e-02  3.676123055e-02  2.910719840e-02  2.614626873e-01 -1.839789423e-01 -7.076221150e-01  3.602336104e-01
9.919400000 -2.233738765e-01  1.555654637e-02 -1.746543075e-01 -6.586006207e-02  6.979532495e-01 -4.713841032e-01  2.745009460e-01 -1.180807243e-01
            -1.833106480e-01 -6.361645786e-02  3.786709485e-01  8.454836261e-01  9.550965451e-02  5.269477173e-02  3.082466065e-02  2.595583112e-02
             7.085345498e-01 -4.785290379e-01  9.948154453e-02  4.943937884e-02  2.520042225e-02 -7.112790113e-02  2.486687744e-01 -2.213141258e-01
             2.677321183e-01 -1.187412669e-01  3.662443560e-02  1.960544363e-02  2.339966457e-01 -2.193597127e-01 -6.667113991e-01  4.324529953e-01
10.000000000 -2.381650530e-01  3.460374539e-02 -1.700468721e-01 -6.117873163e-02  6.439643443e-01 -5.409655561e-01  2.636964166e-01 -1.373344779e-01
             -1.786620608e-01 -5.759847455e-02  4.554628702e-01  8.114378121e-01  9.865524117e-02  2.733453222e-02  3.024728009e-02  1.840636873e-02
              6.537009199e-01 -5.487913051e-01  1.018003825e-01  2.274537882e-02  2.141478191e-02 -9.725674104e-02  2.181494238e-01 -2.546566619e-01
              2.562200358e-01 -1.364932576e-01  3.475237982e-02  1.133064708e-02  2.025432843e-01 -2.502784056e-01 -6.189692329e-01  4.989201559e-01
10.080600000 -2.495392335e-01  5.984113358e-02 -1.669295118e-01 -5.594337114e-02  5.828137515e-01 -6.033967944e-01  2.530835878e-01 -1.538597785e-01
             -1.752804238e-01 -5.105054292e-02  5.266763792e-01  7.711496580e-01  9.751761815e-02  3.521370691e-03  2.848647763e-02  1.198644806e-02
              5.916928671e-01 -6.118177736e-01  9.966100328e-02 -2.216012845e-03  1.703360394e-02 -1.201251707e-01  1.839712955e-01 -2.835400517e-01
              2.452687539e-01 -1.513530729e-01  3.164348547e-02  4.459581721e-03  1.677497619e-01 -2.765688041e-01 -5.649460573e-01  5.591164498e-01
10.161200000 -2.558390390e-01  9.031616502e-02 -1.646749928e-01 -4.988674815e-02  5.153899593e-01 -6.582118138e-01  2.434060586e-01 -1.682149459e-01
             -1.725590380e-01 -4.372965117e-02  5.922109823e-01  7.255359678e-01  9.272811326e-02 -1.829935043e-02  2.595214403e-02  6.757398150e-03
              5.233982017e-01 -6.671514526e-01  9.374322635e-02 -2.498928332e-02  1.283693186e-02 -1.402598317e-01  1.466708078e-01 -3.077977774e-01
              2.356565703e-01 -1.639815157e-01  2.776027811e-02 -9.665768466e-04  1.301641083e-01 -2.981016931e-01 -5.052138971e-01  6.125226777e-01
10.241800000 -2.556602669e-01  1.247176238e-01 -1.626949362e-01 -4.294409911e-02  4.425012560e-01 -7.049779234e-01  2.352471043e-01 -1.811167869e-01
             -1.699205672e-01 -3.558723467e-02  6.520629113e-01  6.753767669e-01  8.488156213e-02 -3.781962053e-02  2.300754870e-02  2.677417967e-03
              4.496222021e-01 -7.143651624e-01  8.468286804e-02 -4.526996329e-02  9.429051913e-03 -1.583005201e-01  1.067027758e-01 -3.272631257e-01
              2.279623858e-01 -1.752097400e-01  2.350621735e-02 -5.015996029e-03  9.026002040e-02 -3.147456877e-01 -4.403743508e-01  6.586126356e-01
10.322400000 -2.479147692e-01  1.614244334e-01 -1.604767307e-01 -3.521465714e-02  3.649124600e-01 -7.432547832e-01  2.290044384e-01 -1.934243950e-01
             -1.668545827e-01 -2.674247581e-02  7.062899995e-01  6.213275795e-01  7.452526029e-02 -5.483609509e-02  1.995188386e-02 -3.746415248e-04
              3.711252014e-01 -7.530204071e-01  7.305697914e-02 -6.286438818e-02  7.231445924e-03 -1.749695534e-01  6.447515777e-02 -3.417306569e-01
              2.225364892e-01 -1.859979774e-01  1.920911816e-02 -7.838553183e-03  4.846747885e-02 -3.263398756e-01 -3.710751328e-01  6.968443521e-01
10.403000000 -2.318894688e-01  1.985656781e-01 -1.576069169e-01 -2.692299454e-02  2.833878663e-01 -7.725694217e-01  2.248531569e-01 -2.061152531e-01
             -1.629499739e-01 -1.745015220e-02  7.549841248e-01  5.639287105e-01  6.215438141e-02 -6.922125575e-02  1.701045901e-02 -2.573697096e-03
              2.886663280e-01 -7.826420268e-01  5.938168625e-02 -7.765343309e-02  6.478048177e-03 -1.910379598e-01  2.039527454e-02 -3.509367735e-01
              2.194798642e-01 -1.973900304e-01  1.511287817e-02 -9.637099028e-03  5.207944105e-03 -3.326768505e-01 -2.980367446e-01  7.266565050e-01
10.483600000 -2.072965696e-01  2.340891796e-01 -1.537837533e-01 -1.838375055e-02  1.987388093e-01 -7.924048483e-01  2.227062170e-01 -2.202456167e-01
             -1.579177422e-01 -8.062274795e-03  7.982441507e-01  5.036143805e-01  4.821430282e-02 -8.089715073e-02  1.433334499e-02 -4.124709153e-03
              2.030521630e-01 -8.027062990e-01  4.412092452e-02 -8.956346105e-02  7.217940910e-03 -2.072925518e-01 -2.508277184e-02 -3.545612811e-01
              2.186315126e-01 -2.104707079e-01  1.137822427e-02 -1.064130177e-02 -3.906630014e-02 -3.334963856e-01 -2.220858037e-01  7.474763558e-01
10.564200000 -1.743179383e-01  2.658336742e-01 -1.488235481e-01 -9.971710690e-03  1.118766522e-01 -8.022024974e-01  2.221816918e-01 -2.368970139e-01
             -1.516008994e-01  1.011608117e-03  8.361489190e-01  4.407276960e-01  3.311090511e-02 -8.981350651e-02  1.199945449e-02 -5.244810656e-03
              1.151913337e-01 -8.126430550e-01  2.770226366e-02 -9.854760586e-02  9.322797924e-03 -2.245106576e-01 -7.141739582e-02 -3.522447349e-01
              2.195544931e-01 -2.263296572e-01  8.089301007e-03 -1.108817526e-02 -8.382935486e-02 -3.284914086e-01 -1.441893275e-01  7.587417087e-01
10.644800000 -1.336530617e-01  2.916076640e-01 -1.426655522e-01 -2.095767371e-03  2.387180099e-02 -8.013829092e-01  2.225783112e-01 -2.571146432e-01
             -1.439737139e-01  9.338903138e-03  8.687358611e-01  3.755441921e-01  1.722782211e-02 -9.593390459e-02  1.002029467e-02 -6.151713110e-03
              2.615555870e-02 -8.118566216e-01  1.053459371e-02 -1.045782571e-01  1.248963428e-02 -2.434436363e-01 -1.179460272e-01 -3.436144506e-01
              2.215091197e-01 -2.460234333e-01  5.260088602e-03 -1.120975539e-02 -1.284371805e-01 -3.173291901e-01 -6.548569329e-02  7.599363051e-01
10.725400000 -8.657556917e-02  3.092913377e-01 -1.353775019e-01  4.827730905e-03 -6.398473691e-02 -7.893928722e-01  2.228541768e-01 -2.818374347e-01
             -1.351372645e-01  1.649078710e-02  8.959914635e-01  3.082998958e-01  9.467233743e-04 -9.923318676e-02  8.338968232e-03 -7.053784778e-03
             -6.275668263e-02 -7.997740628e-01 -6.976861469e-03 -1.076488615e-01  1.623021980e-02 -2.648002035e-01 -1.638536548e-01 -3.283178692e-01
              2.234111317e-01 -2.705161635e-01  2.836007235e-03 -1.122324275e-02 -1.720852178e-01 -2.996916119e-01  1.268947133e-02  7.506385906e-01
10.806000000 -3.498589187e-02  3.169850723e-01 -1.271594668e-01  1.040697150e-02 -1.501284120e-01 -7.657875907e-01  2.216070537e-01 -3.118087223e-01
             -1.253176555e-01  2.206573073e-02  9.178542851e-01  2.392152350e-01 -1.533506482e-02 -9.970669904e-02  6.825298185e-03 -8.134712130e-03
             -1.499653994e-01 -7.759292662e-01 -2.442046966e-02 -1.077818772e-01  1.984822751e-02 -2.892136694e-01 -2.081408954e-01 -3.060709356e-01
              2.237907819e-01 -3.005776859e-01  6.914836379e-04 -1.131640979e-02 -2.137756471e-01 -2.753379962e-01  8.878485652e-02  7.305872707e-01
10.886600000  1.857461007e-02  3.132187215e-01 -1.183401321e-01  1.431363463e-02 -2.326962836e-01 -7.303505141e-01  2.170696226e-01 -3.474522554e-01
             -1.148668072e-01  2.571831155e-02  9.342236538e-01  1.685080496e-01 -3.119503659e-02 -9.738883204e-02  5.273872714e-03 -9.528186114e-03
             -2.335829503e-01 -7.400853324e-01 -4.137339269e-02 -1.050404570e-01  2.241879215e-02 -3.171798598e-01 -2.496001414e-01 -2.767326192e-01
              2.207857022e-01 -3.366315492e-01 -1.369731557e-03 -1.162370438e-02 -2.523059163e-01 -2.441907031e-01  1.610308713e-01  6.997689789e-01
10.967200000  7.099534974e-02  2.972092888e-01 -1.093591502e-01  1.632562291e-02 -3.095537524e-01 -6.832412133e-01  2.071503657e-01 -3.887097060e-01
             -1.042574585e-01  2.719940371e-02  9.449638769e-01  9.639678214e-02 -4.618753553e-02 -9.237599865e-02  3.414187937e-03 -1.128457064e-02
             -3.114400614e-01 -6.923855791e-01 -5.740228465e-02 -9.954292211e-02  2.279416630e-02 -3.489653673e-01 -2.868204786e-01 -2.404087198e-01
              2.122048092e-01 -3.785697090e-01 -3.602392260e-03 -1.219516515e-02 -2.862924667e-01 -2.064369709e-01  2.274697778e-01  6.585283703e-01
11.047800000  1.187928405e-01  2.691213039e-01 -1.007319202e-01  1.636637006e-02 -3.783918765e-01 -6.251469158e-01  1.895561045e-01 -4.348614730e-01
             -9.405982501e-02  2.640506788e-02  9.498983297e-01  2.310288957e-02 -5.985812752e-02 -8.484840165e-02  9.389573866e-04 -1.333808730e-02
             -3.811831671e-01 -6.335089101e-01 -7.207113056e-02 -9.147933481e-02  1.965704396e-02 -3.845029589e-01 -3.182452357e-01 -1.975707950e-01
              1.956871369e-01 -4.255746712e-01 -6.289989426e-03 -1.296691290e-02 -3.142414415e-01 -1.626317581e-01  2.860395064e-01  6.076876365e-01
11.128400000  1.584402610e-01  2.302607067e-01 -9.299753464e-02  1.453198243e-02 -4.369006713e-01 -5.574021317e-01  1.620164526e-01 -4.843797748e-01
             -8.489101534e-02  2.342126240e-02  9.487975277e-01 -5.113717224e-02 -7.176881429e-02 -7.508547003e-02 -2.450220810e-03 -1.548564623e-02
             -4.404490761e-01 -5.647941040e-01 -8.495898686e-02 -8.112755458e-02  1.162959272e-02 -4.233034313e-01 -3.422950483e-01 -1.491589187e-01
              1.689528426e-01 -4.760011509e-01 -9.698858846e-03 -1.374439796e-02 -3.346704997e-01 -1.137788715e-01  3.347250367e-01  5.486457972e-01
11.209000000  1.867980950e-01  1.831314508e-01 -8.665485648e-02  1.109829349e-02 -4.830047319e-01 -4.820382943e-01  1.225967556e-01 -5.348754790e-01
             -7.733889807e-02  1.854606882e-02  9.413727069e-01 -1.260475687e-01 -8.153108918e-02 -6.347090980e-02 -6.987194580e-03 -1.738580144e-02
             -4.871042894e-01 -4.882944728e-01 -9.568917737e-02 -6.886304938e-02 -2.572550443e-03 -4.644145299e-01 -3.575479043e-01 -9.663051968e-02
              1.301152047e-01 -5.273628473e-01 -1.402437895e-02 -1.420643727e-02 -3.462740088e-01 -6.136474743e-02  3.717718891e-01  4.834174021e-01
11.289600000  2.015777379e-01  1.313055756e-01 -8.209501929e-02  6.502106429e-03 -5.151286296e-01 -4.017330049e-01  7.004849885e-02 -5.831883882e-01
             -7.187451207e-02  1.227418495e-02  9.272846455e-01 -2.012848650e-01 -8.884279533e-02 -5.048427598e-02 -1.278577329e-02 -1.858065344e-02
             -5.195171520e-01 -4.067310187e-01 -1.039673891e-01 -5.515482472e-02 -2.396764513e-02 -5.064475581e-01 -3.629458189e-01 -4.192611466e-02
              7.800301028e-02 -5.764498753e-01 -1.934009405e-02 -1.393172967e-02 -3.481107684e-01 -7.322700218e-03  3.959306363e-01  4.145736708e-01
11.370200000  2.017495763e-01  7.909422984e-02 -7.954147232e-02  1.294034471e-03 -5.324454498e-01 -3.196446688e-01  4.121050533e-03 -6.256373847e-01
             -6.877519592e-02  5.239148835e-03  9.061661400e-01 -2.764204104e-01 -9.352345656e-02 -3.667692226e-02 -1.979348397e-02 -1.853854873e-02
             -5.368157327e-01 -3.233277379e-01 -1.096206290e-01 -4.054138857e-02 -5.314976134e-02 -5.476762583e-01 -3.579850542e-01  1.265750040e-02
              1.243599958e-02 -6.195776947e-01 -2.555868120e-02 -1.244403993e-02 -3.397821217e-01  4.608460294e-02  4.066799113e-01  3.450689497e-01
11.450800000  1.878051883e-01  3.104935733e-02 -7.901100559e-02 -3.934799083e-03 -5.350553120e-01 -2.391405362e-01 -7.424388510e-02 -6.584037219e-01
             -6.808051606e-02 -1.877452679e-03  8.776435576e-01 -3.509416123e-01 -9.554102851e-02 -2.263202726e-02 -2.776107950e-02 -1.671311505e-02
             -5.390761705e-01 -2.415354461e-01 -1.126251028e-01 -2.558623023e-02 -9.017635861e-02 -5.861967940e-01 -3.428467671e-01  6.467324935e-02
             -6.560108958e-02 -6.529452224e-01 -3.240995557e-02 -9.270080087e-03 -3.215616131e-01  9.646098397e-02  4.043681301e-01  2.779668053e-01
11.531400000  1.617994636e-01 -8.632885445e-03 -8.030931804e-02 -8.642594587e-03 -5.240443450e-01 -1.634521449e-01 -1.628925396e-01 -6.779819010e-01
             -6.959481156e-02 -8.449321680e-03  8.413392335e-01 -4.242644207e-01 -9.502187318e-02 -8.912034203e-03 -3.623288071e-02 -1.261340612e-02
             -5.273889538e-01 -1.646782055e-01 -1.131115180e-01 -1.082005184e-02 -1.345248133e-01 -6.201256687e-01 -3.184356125e-01  1.117765573e-01
             -1.539312901e-01 -6.730582690e-01 -3.943877103e-02 -4.004438463e-03 -2.944383915e-01  1.415274883e-01  3.902264943e-01  2.161129512e-01
11.612000000  1.271337475e-01 -3.670089717e-02 -8.306982099e-02 -1.242517818e-02 -5.013919722e-01 -9.531773857e-02 -2.586323540e-01 -6.816093489e-01
             -7.293702276e-02 -1.399641660e-02  7.968478176e-01 -4.957346025e-01 -9.223709710e-02  3.998080811e-03 -4.456259515e-02 -5.878197037e-03
             -5.037686180e-01 -9.558397912e-02 -1.113419720e-01  3.316531501e-03 -1.851302297e-01 -6.478043432e-01 -2.863113811e-01  1.519802786e-01
             -2.493330219e-01 -6.771529342e-01 -4.602537415e-02  3.624238957e-03 -2.600489420e-01  1.793841034e-01  3.662364592e-01  1.618244447e-01
11.692600000  8.809644582e-02 -5.130439906e-02 -8.683325727e-02 -1.507945881e-02 -4.697274670e-01 -3.668762851e-02 -3.575692288e-01 -6.675860184e-01
             -7.762530451e-02 -1.824234503e-02  7.437004282e-01 -5.645942406e-01 -8.756353211e-02  1.573901366e-02 -5.195719234e-02  3.655948312e-03
             -4.709072379e-01 -3.627845994e-02 -1.076616676e-01  1.651434613e-02 -2.405030586e-01 -6.679749424e-01 -2.485205490e-01  1.838631868e-01
             -3.478590485e-01 -6.635369233e-01 -5.143003624e-02  1.369400131e-02 -2.204970798e-01  2.087251507e-01  3.348752329e-01  1.166660766e-01
11.773200000  4.924453859e-02 -5.220957453e-02 -9.115140930e-02 -1.662176808e-02 -4.319799454e-01  1.143631048e-02 -4.555374901e-01 -6.354207119e-01
             -8.317545231e-02 -2.112722371e-02  6.813462697e-01 -6.299060368e-01 -8.142561856e-02  2.610377358e-02 -5.754560061e-02  1.590573303e-02
             -4.318170420e-01  1.218426725e-02 -1.024372879e-01  2.861001308e-02 -2.989082274e-01 -6.798930042e-01 -2.073578871e-01  2.066900416e-01
             -4.452777636e-01 -6.317683971e-01 -5.485959479e-02  2.604833060e-02 -1.780956890e-01  2.289544992e-01  2.987986186e-01  8.136185783e-02
11.853800000  1.476430871e-02 -4.071965703e-02 -9.568784703e-02 -1.725364753e-02 -3.910030103e-01  4.898881676e-02 -5.485291108e-01 -5.857870874e-01
             -8.919132291e-02 -2.277764192e-02  6.091793328e-01 -6.904515168e-01 -7.423170534e-02  3.503506234e-02 -6.046082173e-02  3.052181037e-02
             -3.894452817e-01  4.971480132e-02 -9.599781520e-02  3.957121104e-02 -3.585708581e-01 -6.833543541e-01 -1.651072631e-01  2.204203493e-01
             -5.375431862e-01 -5.826248406e-01 -5.554600333e-02  4.028290936e-02 -1.350922570e-01  2.401725336e-01  2.605361503e-01  5.584871655e-02
11.934400000 -1.203856694e-02 -1.933460173e-02 -1.002893393e-01 -1.728517885e-02 -3.492653883e-01  7.667231852e-02 -6.330368422e-01 -5.203233837e-01
             -9.543186370e-02 -2.344490576e-02  5.266180526e-01 -7.446322178e-01 -6.632056001e-02  4.259503136e-02 -5.991850596e-02  4.690073645e-02
             -3.463545621e-01  7.702025400e-02 -8.859084903e-02  4.945996044e-02 -4.178645904e-01 -6.786342383e-01 -1.238170662e-01  2.256117679e-01
             -6.211818651e-01 -5.178756450e-01 -5.282071576e-02  5.576270105e-02 -9.344737267e-02  2.430484790e-01  2.222609189e-01  3.943803732e-02
12.015000000 -2.901624483e-02  8.736734589e-03 -1.050140905e-01 -1.703834264e-02 -3.086716109e-01  9.569619957e-02 -7.062614689e-01 -4.413452627e-01
             -1.018488827e-01 -2.342518966e-02  4.332245927e-01 -7.903935410e-01 -5.792942039e-02  4.891767608e-02 -5.527730698e-02  6.421780010e-02
             -3.045342655e-01  9.534052968e-02 -8.035973390e-02  5.838568196e-02 -4.754439198e-01 -6.663612025e-01 -8.515367725e-02  2.232530135e-01
             -6.935113638e-01 -4.399366762e-01 -4.616993062e-02  7.165943298e-02 -5.471290114e-02  2.386301757e-01  1.856624124e-01  3.102795709e-02
12.095600000 -3.520786126e-02  4.006661832e-02 -1.101196380e-01 -1.675242196e-02 -2.705233544e-01  1.075096102e-01 -7.661790315e-01 -3.515474840e-01
             -1.085959915e-01 -2.297081268e-02  3.288499829e-01 -8.251662924e-01 -4.918624505e-02  5.415731029e-02 -4.607777191e-02  8.146206462e-02
             -2.653549549e-01  1.061753579e-01 -7.133896658e-02  6.645765617e-02 -5.303016561e-01 -6.473647021e-01 -5.034908415e-02  2.145775085e-01
             -7.526693201e-01 -3.515188555e-01 -3.526705405e-02  8.699036963e-02 -2.001381780e-02  2.281575284e-01  1.519147407e-01  2.931410724e-02
12.176200000 -3.068953084e-02  7.138769556e-02 -1.160222491e-01 -1.650142431e-02 -2.355813287e-01  1.135930964e-01 -8.114985342e-01 -2.537509486e-01
             -1.160078977e-01 -2.219595682e-02  2.138208446e-01 -8.458074895e-01 -4.012131339e-02  5.844314775e-02 -3.207281325e-02  9.745709165e-02
             -2.296262962e-01  1.110687816e-01 -6.146259732e-02  7.373991475e-02 -5.817576681e-01 -6.225360166e-01 -2.022778233e-02  2.009055197e-01
             -7.975025516e-01 -2.553663588e-01 -1.999598612e-02  1.006411844e-01  9.901981292e-03  2.129277467e-01  1.217141827e-01  3.296937983e-02
12.256800000 -1.635203505e-02  9.982299325e-02 -1.232341728e-01 -1.612082378e-02 -2.041667274e-01  1.153290570e-01 -8.415544821e-01 -1.507232808e-01
             -1.245419108e-01 -2.098031087e-02  8.922439371e-02 -8.485493521e-01 -3.069132673e-02  6.184343567e-02 -1.327546309e-02  1.108658746e-01
             -1.976972064e-01  1.114724982e-01 -5.058443475e-02  8.020630451e-02 -6.294034026e-01 -5.927277775e-01  4.722947480e-03  1.835419605e-01
             -8.274060195e-01 -1.541234592e-01 -4.919958243e-04  1.113720313e-01  3.459625013e-02  1.942226282e-01  9.536325437e-02  4.078387488e-02
12.337400000  6.308125255e-03  1.229996466e-01 -1.322699597e-01 -1.514096925e-02 -1.762566996e-01  1.139301451e-01 -8.561770487e-01 -4.507793827e-02
             -1.346678599e-01 -1.888464630e-02 -4.264305660e-02 -8.290405032e-01 -2.081270345e-02  6.433836039e-02  9.950822097e-03  1.202028751e-01
             -1.695517798e-01  1.086677181e-01 -3.851631111e-02  8.569495827e-02 -6.730311084e-01 -5.586974166e-01  2.427877942e-02  1.637301801e-01
             -8.421942276e-01 -5.030464426e-02  2.277501377e-02  1.178316856e-01  5.389034853e-02  1.732749171e-01  7.288970556e-02  5.176030451e-02
12.418000000  3.535573215e-02  1.391098153e-01 -1.435033756e-01 -1.274260175e-02 -1.515628888e-01  1.103912546e-01 -8.555762762e-01  6.075916004e-02
             -1.466983686e-01 -1.511000394e-02 -1.776682254e-01 -7.826515782e-01 -1.040547625e-02  6.580257206e-02  3.675430394e-02  1.238997209e-01
             -1.448895958e-01  1.037107108e-01 -2.509443228e-02  8.987081204e-02 -7.125687320e-01 -5.210844727e-01  3.842677691e-02  1.426411220e-01
             -8.420430276e-01  5.369642865e-02  4.887341368e-02  1.186272624e-01  6.783680119e-02  1.512413451e-01  5.418968254e-02  6.515197768e-02
12.498600000  6.856573437e-02  1.469631626e-01 -1.569684993e-01 -7.776979187e-03 -1.296089733e-01  1.054464119e-01 -8.402679002e-01  1.645411925e-01
             -1.605743169e-01 -8.546229313e-03 -3.093159998e-01 -7.052452320e-01  5.506176067e-04  6.600438669e-02  6.564460265e-02  1.204788807e-01
             -1.232072870e-01  9.738291665e-02 -1.027753110e-02  9.221731003e-02 -7.480284378e-01 -4.804064015e-01  4.734236912e-02  1.213699126e-01
             -8.274859723e-01  1.556220019e-01  7.627900110e-02  1.125000114e-01  7.669329313e-02  1.291656180e-01  3.916941350e-02  8.042791563e-02
12.579200000  1.035936309e-01  1.460285137e-01 -1.721381003e-01  1.092600618e-03 -1.098250673e-01  9.953866277e-02 -8.110504261e-01  2.641896693e-01
             -1.756572336e-01  2.048499510e-03 -4.283827566e-01 -5.944970131e-01  1.195361034e-02  6.463385652e-02  9.441317604e-02  1.088648901e-01
             -1.039010143e-01  9.015501391e-02  5.737393832e-03  9.208487963e-02 -7.794663107e-01 -4.370611530e-01  5.138202827e-02  1.009191802e-01
             -7.994145002e-01  2.534174510e-01  1.028246505e-01  9.862688819e-02  8.087878329e-02  1.079396479e-01  2.784255242e-02  9.716687775e-02
12.659800000  1.381800771e-01  1.364240218e-01 -1.877655626e-01  1.509395149e-02 -9.165654707e-02  9.282563143e-02 -7.690126367e-01  3.578219413e-01
             -1.906167431e-01  1.773009854e-02 -5.235644189e-01 -4.515659833e-01  2.352847073e-02  6.136898693e-02  1.202379088e-01  8.879653632e-02
             -8.638778781e-02  8.219132337e-02  2.241966213e-02  8.881452492e-02 -8.069468277e-01 -3.913322170e-01  5.107041471e-02  8.216496348e-02
             -7.590297348e-01  3.453328883e-01  1.258343808e-01  7.700020046e-02  8.091003357e-02  8.828548009e-02  2.034177801e-02  1.149152686e-01
12.740400000  1.703539138e-01  1.188142154e-01 -2.019087720e-01  3.493059746e-02 -7.466120956e-02  8.523383179e-02 -7.155209109e-01  4.438319707e-01
             -2.035110475e-01  3.897199001e-02 -5.831485569e-01 -2.825341606e-01  3.481527263e-02  5.597478965e-02  1.400593951e-01  6.121013910e-02
             -7.021603817e-02  7.341184916e-02  3.888348224e-02  8.192552588e-02 -8.305075182e-01 -3.433979842e-01  4.706588852e-02  6.581811221e-02
             -7.077228981e-01  4.300077722e-01  1.425095150e-01  4.875367854e-02  7.733875334e-02  7.077316343e-02  1.683384699e-02  1.330715273e-01
12.821000000  1.985636254e-01  9.421395224e-02 -2.122225880e-01  6.038090614e-02 -5.856241922e-02  7.654789631e-02 -6.521335249e-01  5.209903976e-01
             -2.121133337e-01  6.532309100e-02 -5.976667785e-01 -9.879254143e-02  4.521927156e-02  4.840792235e-02  1.512105882e-01  2.839489626e-02
             -5.512573965e-02  6.359882959e-02  5.398458386e-02  7.131457361e-02 -8.501236950e-01 -2.933495505e-01  4.010400100e-02  5.240242438e-02
             -6.469061717e-01  5.064820361e-01  1.505286336e-01  1.625253830e-02  7.071685373e-02  5.586725440e-02  1.737555578e-02  1.508570738e-01
12.901600000  2.216779927e-01  6.376000521e-02 -2.164932650e-01  9.010462086e-02 -4.324499003e-02  6.649722112e-02 -5.804322837e-01  5.884888096e-01
             -2.144318383e-01  9.528629649e-02 -5.627006298e-01  8.426066529e-02  5.412301634e-02  3.888373257e-02  1.521239230e-01 -6.250447418e-03
             -4.103761222e-02  5.250436650e-02  6.653514267e-02  5.738355820e-02 -8.656770406e-01 -2.412196945e-01  3.093611715e-02  4.226475315e-02
             -5.778545900e-01  5.741053949e-01  1.486827139e-01 -1.719148067e-02  6.160334890e-02  4.397401497e-02  2.178391559e-02  1.673929407e-01
12.982200000  2.388565106e-01  2.854842962e-02 -2.132405254e-01  1.218030242e-01 -2.871385795e-02  5.480199110e-02 -5.018322521e-01  6.458613194e-01
             -2.092526965e-01  1.265237897e-01 -4.806437871e-01  2.501349305e-01  6.102814532e-02  2.786784781e-02  1.428296566e-01 -3.887134924e-02
             -2.799041366e-02  3.990998614e-02  7.557464341e-02  4.102380796e-02 -8.769334569e-01 -1.870224525e-01  2.028791040e-02  3.561394817e-02
             -5.016291823e-01  6.323680762e-01  1.372832851e-01 -4.796414713e-02  5.060017736e-02  3.545892155e-02  2.958746912e-02  1.818423212e-01
13.062800000  2.493669042e-01 -1.038481544e-02 -2.021356072e-01  1.527191378e-01 -1.505949802e-02  4.116760602e-02 -4.174743271e-01  6.927857199e-01
             -1.964880031e-01  1.563515560e-01 -3.604996528e-01  3.848147643e-01  6.567284953e-02  1.598437730e-02  1.250036920e-01 -6.601661976e-02
             -1.607843517e-02  2.561746775e-02  8.059302697e-02  2.344343135e-02 -8.835347723e-01 -1.307993143e-01  8.852297641e-03  3.256657846e-02
             -4.191186460e-01  6.807241515e-01  1.181414552e-01 -7.294490435e-02  3.838420022e-02  3.062389385e-02  4.007419167e-02  1.935443761e-01
13.143400000  2.524686316e-01 -5.193975499e-02 -1.840543798e-01  1.802861584e-01 -2.468689532e-03  2.525484052e-02 -3.282758217e-01  7.288533674e-01
             -1.771883108e-01  1.823430649e-01 -2.156972383e-01  4.795837194e-01  6.807707898e-02  3.871486725e-03  1.015261857e-01 -8.537456443e-02
             -5.441449917e-03  9.397274562e-03  8.161712824e-02  5.899743829e-03 -8.850062166e-01 -7.266563339e-02 -2.691355780e-03  3.317404228e-02
             -3.311734877e-01  7.184880391e-01  9.410820415e-02 -9.015418415e-02  2.570520304e-02  2.966402362e-02  5.239193564e-02  2.020846861e-01
13.224000000  2.474521041e-01 -9.477487874e-02 -1.607663585e-01  2.026640493e-01  8.715468713e-03  6.675071671e-03 -2.351206428e-01  7.534304539e-01
             -1.532345936e-01  2.028198750e-01 -6.085619741e-02  5.320814575e-01  6.849896019e-02 -7.961409823e-03  7.574197486e-02 -9.612285837e-02
              3.678448065e-03 -9.046695683e-03  7.913598875e-02 -1.055946055e-02 -8.807773824e-01 -1.285013781e-02 -1.365599590e-02  3.742379451e-02
             -2.387538235e-01  7.448394377e-01  6.836782521e-02 -9.902625993e-02  1.334762507e-02  3.264269977e-02  6.564195810e-02  2.073068627e-01
13.304600000  2.338325087e-01 -1.372115995e-01 -1.344250514e-01  2.189870322e-01  1.792172350e-02 -1.495329872e-02 -1.390820433e-01  7.656775730e-01
             -1.268537575e-01  2.170834601e-01  9.120514695e-02  5.454719199e-01  6.732287313e-02 -1.922450425e-02  5.071882561e-02 -9.882779273e-02
              1.085004296e-02 -3.004598837e-02  7.391138308e-02 -2.525755863e-02 -8.702093460e-01  4.827711762e-02 -2.333929769e-02  4.523159562e-02
             -1.430141529e-01  7.588970601e-01  4.375793114e-02 -1.002676211e-01  2.090837261e-03  3.951283592e-02  7.894946572e-02  2.093096898e-01
13.385200000  2.115943059e-01 -1.773216111e-01 -1.070735839e-01  2.293020036e-01  2.432134333e-02 -3.989359265e-02 -4.156118270e-02  7.646864559e-01
             -1.001358335e-01  2.253682808e-01  2.312741191e-01  5.264044543e-01  6.492284595e-02 -2.986071302e-02  2.874142097e-02 -9.501965074e-02
              1.539994988e-02 -5.386713847e-02  6.675600832e-02 -3.791890331e-02 -8.526174276e-01  1.101858050e-01 -3.101694339e-02  5.644463475e-02
             -4.531433374e-02  7.597736018e-01  2.232646240e-02 -9.542989468e-02 -7.279887489e-03  5.016942246e-02  9.154972208e-02  2.084488175e-01
13.465800000  1.813298601e-01 -2.131938879e-01 -8.031576580e-02  2.343021289e-01  2.687184044e-02 -6.817323014e-02  5.569055377e-02  7.496183444e-01
             -7.468390515e-02  2.285916371e-01  3.541105120e-01  4.827441277e-01  6.154789976e-02 -3.998508620e-02  1.113319021e-02 -8.665770856e-02
              1.643594272e-02 -8.059132760e-02  5.835501189e-02 -4.858671177e-02 -8.272828165e-01  1.721621775e-01 -3.590577962e-02  7.084526752e-02
              5.276648640e-02  7.465506935e-01  5.200245987e-03 -8.639808126e-02 -1.388561494e-02  6.446936002e-02  1.029238606e-01  2.052920898e-01
13.546400000  1.441545471e-01 -2.432570885e-01 -5.519580702e-02  2.350003627e-01  2.441317873e-02 -9.951602368e-02  1.505804622e-01  7.197572104e-01
             -5.145288955e-02  2.280129027e-01  4.577251069e-01  4.218484851e-01  5.726309188e-02 -4.977778948e-02 -1.641233677e-03 -7.567672216e-02
              1.293178781e-02 -1.100396859e-01  4.917375526e-02 -5.748151645e-02 -7.934607189e-01  2.332613396e-01 -3.708896481e-02  8.810472740e-02
              1.492972073e-01  7.182120163e-01 -7.286186142e-03 -7.497044146e-02 -1.662983957e-02  8.213833875e-02  1.129344177e-01  2.004428771e-01
13.627000000  1.014048097e-01 -2.664688086e-01 -3.224268575e-02  2.324571225e-01  1.575499918e-02 -1.333417593e-01  2.405816532e-01  6.745175347e-01
             -3.076823890e-02  2.249072688e-01  5.421995886e-01  3.497248925e-01  5.195871187e-02 -5.936955151e-02 -9.721959614e-03 -6.372186695e-02
              3.807400806e-03 -1.417702593e-01  3.945608342e-02 -6.485893515e-02 -7.504143669e-01  2.922212974e-01 -3.345793261e-02  1.076313958e-01
              2.416891667e-01  6.736864984e-01 -1.532619455e-02 -6.262715451e-02 -1.415024221e-02  1.025310256e-01  1.218105657e-01  1.942164798e-01
13.707600000  5.427310438e-02 -2.822301512e-01 -1.159581487e-02  2.276123087e-01 -2.999533849e-04 -1.687871698e-01  3.224936989e-01  6.135794847e-01
             -1.247229307e-02  2.203275086e-01  6.086320933e-01  2.709632032e-01  4.541699768e-02 -6.875720795e-02 -1.359059191e-02 -5.207868478e-02
             -1.206031702e-02 -1.750998787e-01  2.928640706e-02 -7.091085249e-02 -6.975198543e-01  3.473524415e-01 -2.378279214e-02  1.283202231e-01
              3.263185375e-01  6.121922180e-01 -1.937846683e-02 -5.049147521e-02 -4.978961815e-03  1.243137836e-01  1.298276319e-01  1.863184032e-01
13.788200000  3.611261148e-03 -2.900369879e-01  6.861996501e-03  2.212105699e-01 -2.498830962e-02 -2.046631902e-01  3.922063416e-01  5.373389994e-01
              3.873247734e-03  2.149846005e-01  6.585251210e-01  1.890679932e-01  3.740715867e-02 -7.777346949e-02 -1.389584404e-02 -4.172685249e-02
             -3.589157871e-02 -2.090549885e-01  1.867390106e-02 -7.572699872e-02 -6.344774960e-01  3.964577383e-01 -7.009985895e-03  1.483188557e-01
              3.983468306e-01  5.339671156e-01 -2.000316905e-02 -3.941155877e-02  1.202556355e-02  1.452477373e-01  1.366849442e-01  1.758174752e-01
13.868800000 -4.992718488e-02 -2.890576017e-01  2.339753589e-02  2.137771121e-01 -5.958356202e-02 -2.392919708e-01  4.447837481e-01  4.476897424e-01
              1.879426441e-02  2.092362523e-01  6.936004533e-01  1.067882233e-01  2.777199542e-02 -8.611293214e-02 -1.139110204e-02 -3.341798831e-02
             -6.902190909e-02 -2.421849092e-01  7.621740601e-03 -7.930594774e-02 -5.616193703e-01  4.368713235e-01  1.722674797e-02  1.650071300e-01
              4.520678547e-01  4.412345861e-01 -1.782010569e-02 -3.005946834e-02  3.706444848e-02  1.622865739e-01  1.408604206e-01  1.616789510e-01
13.949400000 -1.054190094e-01 -2.779122804e-01  3.833697903e-02  2.056096404e-01 -1.052299185e-01 -2.702642832e-01  4.751710154e-01  3.488644602e-01
              3.275960422e-02  2.031453506e-01  7.157975637e-01  2.622748016e-02  1.647721830e-02 -9.339388054e-02 -6.939895175e-03 -2.770351271e-02
             -1.127390186e-01 -2.722823780e-01 -3.835839394e-03 -8.158844869e-02 -4.802316495e-01  4.656938942e-01  4.806277003e-02  1.753545196e-01
              4.819611997e-01  3.389966868e-01 -1.354055742e-02 -2.296759859e-02  6.885221726e-02  1.721100116e-01  1.394297979e-01  1.438491619e-01
14.030000000 -1.610872792e-01 -2.548547766e-01  5.196849133e-02  1.967866859e-01 -1.625388681e-01 -2.942656662e-01  4.795679759e-01  2.478394549e-01
              4.609125233e-02  1.965675648e-01  7.271932631e-01 -5.122191974e-02  3.615258709e-03 -9.922317482e-02 -1.518521356e-03 -2.489650935e-02
             -1.678585017e-01 -2.961792247e-01 -1.562369204e-02 -8.248826840e-02 -3.927548691e-01  4.802363332e-01  8.311610790e-02  1.766537733e-01
              4.843034448e-01  2.351504974e-01 -7.992239446e-03 -1.848570388e-02  1.044494063e-01  1.720079122e-01  1.287774477e-01  1.244706267e-01
