! yapnr rf: filterbank3-x7x10x13, footprint re-simulated (refine 2)
! spec sha256 df5ab564e1c322b271f76ad80d9181197c19f513a32404bdb5ba9fe06625d552
! 4 ports renormalized to 50 ohm, e^(+jwt) convention
# GHz S RI R 50
6.800000000  1.691213021e-01 -5.674026104e-01  5.441370896e-01  4.638847637e-01 -3.585352397e-02  2.150482795e-01  1.466534817e-01 -9.452321830e-03
             5.510497914e-01  4.585209717e-01  4.594688593e-01 -1.536050161e-01  3.821015849e-01 -3.855708719e-03 -9.672932910e-02  4.989017733e-03
            -3.257404891e-02  2.119508162e-01  3.830530725e-01 -1.611333415e-03 -7.238557430e-01 -4.836199327e-01 -6.226171287e-02  1.629544256e-02
             1.527934603e-01 -1.455615060e-02 -9.503621480e-02  9.519724138e-03 -6.483893667e-02  1.928946345e-02 -1.032237961e-01 -9.310447337e-01
6.850000000  1.501225260e-01 -5.708017488e-01  5.747403546e-01  4.305419917e-01 -2.841188929e-02  2.147585017e-01  1.383496231e-01 -1.315044189e-02
             5.813785039e-01  4.246476740e-01  4.394623960e-01 -2.006539187e-01  3.777800257e-01 -2.610033846e-02 -8.958874212e-02  1.158669259e-02
            -2.530740481e-02  2.115536540e-01  3.789068747e-01 -2.389191264e-02 -7.352035845e-01 -4.688956274e-01 -6.299092133e-02  2.293593084e-02
             1.443036119e-01 -1.833967567e-02 -8.744229368e-02  1.618523503e-02 -6.540108118e-02  2.598195036e-02 -1.574336202e-01 -9.251229791e-01
6.900000000  1.315695304e-01 -5.739314678e-01  6.030995037e-01  3.945591307e-01 -2.115202764e-02  2.139500062e-01  1.301676281e-01 -1.607862950e-02
             6.093682954e-01  3.881766940e-01  4.149244757e-01 -2.463311562e-01  3.719142302e-01 -4.807475421e-02 -8.216885072e-02  1.712720359e-02
            -1.822266907e-02  2.106537894e-01  3.732411839e-01 -4.588672474e-02 -7.462843876e-01 -4.540405528e-01 -6.321396038e-02  2.949907074e-02
             1.359884864e-01 -2.135095401e-02 -7.955174922e-02  2.174447154e-02 -6.543638270e-02  3.261449300e-02 -2.108186190e-01 -9.159390477e-01
6.950000000  1.134388326e-01 -5.769035232e-01  6.289376296e-01  3.560694121e-01 -1.414492285e-02  2.126530844e-01  1.221473351e-01 -1.826113030e-02
             6.347731612e-01  3.492802498e-01  3.859220445e-01 -2.902115174e-01  3.644914231e-01 -6.962912548e-02 -7.460956908e-02  2.163518323e-02
            -1.138843169e-02  2.092799941e-01  3.660648048e-01 -6.747388903e-02 -7.571175657e-01 -4.390362369e-01 -6.296231347e-02  3.595285917e-02
             1.278704123e-01 -2.364794552e-02 -7.151005841e-02  2.622139142e-02 -6.495661150e-02  3.913064102e-02 -2.631656297e-01 -9.036183395e-01
7.000000000  9.567526522e-02 -5.798426961e-01  6.519620347e-01  3.152420704e-01 -7.448955001e-03  2.109069541e-01  1.143440671e-01 -1.972270536e-02
             6.573506714e-01  3.081358996e-01  3.525352667e-01 -3.318654777e-01  3.555331484e-01 -9.060786167e-02 -6.701984872e-02  2.515621164e-02
            -4.862392539e-03  2.074697994e-01  3.573930434e-01 -8.853441549e-02 -7.677179952e-01 -4.238565799e-01 -6.226637212e-02  4.227517977e-02
             1.199671611e-01 -2.526669865e-02 -6.343038118e-02  2.966013489e-02 -6.399706961e-02  4.547618073e-02 -3.142985501e-01 -8.883045686e-01
7.050000000  7.818643194e-02 -5.828705422e-01  6.718765755e-01  2.723070624e-01 -1.115259463e-03  2.087516824e-01  1.068207939e-01 -2.050565790e-02
             6.768455185e-01  2.649447009e-01  3.148758456e-01 -3.708328870e-01  3.450916456e-01 -1.108646044e-01 -5.948276264e-02  2.772938075e-02
             1.304169243e-03  2.052629557e-01  3.472468962e-01 -1.089438873e-01 -7.780897419e-01 -4.084778253e-01 -6.115201718e-02  4.844853153e-02
             1.123075191e-01 -2.622878814e-02 -5.540063706e-02  3.209691981e-02 -6.261074716e-02  5.161431990e-02 -3.640666109e-01 -8.701406689e-01
7.100000000  6.083171393e-02 -5.860822936e-01  6.884162882e-01  2.275481676e-01  4.810180891e-03  2.062262133e-01  9.962793403e-02 -2.067593485e-02
             6.929982710e-01  2.199424356e-01  2.731144597e-01 -4.066228761e-01  3.332332518e-01 -1.302761754e-01 -5.207778446e-02  2.937835520e-02
             7.066022557e-03  2.026994959e-01  3.356554587e-01 -1.285732202e-01 -7.882348433e-01 -3.928667696e-01 -5.964098610e-02  5.445608671e-02
             1.049350710e-01 -2.655968306e-02 -4.750730707e-02  3.355224241e-02 -6.085204123e-02  5.753361576e-02 -4.123467943e-01 -8.492498825e-01
7.150000000  4.345203366e-02 -5.895329332e-01  7.013594046e-01  1.812989449e-01  1.027420705e-02  2.033724005e-01  9.278930605e-02 -2.030622529e-02
             7.055538637e-01  1.734286644e-01  2.275166800e-01 -4.387390557e-01  3.200275589e-01 -1.487317030e-01 -4.490199691e-02  3.012218508e-02
             1.237285850e-02  1.998222862e-01  3.226671016e-01 -1.472829521e-01 -7.981450327e-01 -3.770017966e-01 -5.775684602e-02  6.027855866e-02
             9.790126273e-02 -2.629926306e-02 -3.985681360e-02  3.404379251e-02 -5.876327196e-02  6.324057520e-02 -4.590013142e-01 -8.257524787e-01
7.200000000  2.587748726e-02 -5.932309862e-01  7.105368606e-01  1.339100786e-01  1.522108096e-02  2.002430583e-01  8.630334077e-02 -1.945810317e-02
             7.142940614e-01  1.257594391e-01  1.784359976e-01 -4.667208866e-01  3.055394996e-01 -1.661257312e-01 -3.807022547e-02  3.000068559e-02
             1.717319821e-02  1.966830431e-01  3.083521083e-01 -1.649358738e-01 -8.078124380e-01 -3.608579208e-01 -5.552757012e-02  6.589861790e-02
             9.124968321e-02 -2.550827844e-02 -3.257403718e-02  3.361308806e-02 -5.636737575e-02  6.874715553e-02 -5.038930033e-01 -7.997747310e-01
7.250000000  7.948758305e-03 -5.971466925e-01  7.158176519e-01  8.574057026e-02  1.959653889e-02  1.969082153e-01  8.015958883e-02 -1.817019667e-02
             7.190580973e-01  7.733815482e-02  1.262914025e-01 -4.901696603e-01  2.898365355e-01 -1.823448176e-01 -3.169598443e-02  2.908878348e-02
             2.141630830e-02  1.933477809e-01  2.928024641e-01 -1.814038061e-01 -8.172275423e-01 -3.444109013e-01 -5.298523308e-02  7.130538995e-02
             8.500253673e-02 -2.425982403e-02 -2.578141988e-02  3.233962878e-02 -5.367348546e-02  7.405707651e-02 -5.468894220e-01 -7.714642098e-01
7.300000000 -1.047314716e-02 -6.012260360e-01  7.170967129e-01  3.716491239e-02  2.335607938e-02  1.934561799e-01  7.435629006e-02 -1.646350378e-02
             7.197540519e-01  2.859570756e-02  7.153997495e-02 -5.087492860e-01  2.730030177e-01 -1.972641416e-01 -2.586781134e-02  2.749038422e-02
             2.505828143e-02  1.898991170e-01  2.761268099e-01 -1.965717885e-01 -8.263766990e-01 -3.276390489e-01 -5.016182424e-02  7.649689514e-02
             7.915556931e-02 -2.262390082e-02 -1.957429982e-02  3.033342657e-02 -5.068968964e-02  7.916067173e-02 -5.878758386e-01 -7.409901975e-01
7.350000000 -2.951564782e-02 -6.054011912e-01  7.142985296e-01 -1.141965599e-02  2.647494232e-02  1.899875737e-01  6.890534455e-02 -1.435806125e-02
             7.163577937e-01 -2.003798285e-02  1.466003371e-02 -5.221700216e-01  2.551503326e-01 -2.107580178e-01 -2.063864578e-02  2.531709314e-02
             2.807140057e-02  1.864329919e-01  2.584426641e-01 -2.103393998e-01 -8.352428989e-01 -3.105163355e-01 -4.708352222e-02  8.147858314e-02
             7.368360025e-02 -2.065326395e-02 -1.401053881e-02  2.771225303e-02 -4.743371554e-02  8.404072622e-02 -6.267708806e-01 -7.085232738e-01
7.400000000 -4.930379783e-02 -6.095932703e-01  7.073928069e-01 -5.958773080e-02  2.895057786e-02  1.866061393e-01  6.382278421e-02 -1.188505574e-02
             7.088991056e-01 -6.814877580e-02 -4.384013545e-02 -5.301754367e-01  2.364195941e-01 -2.227148056e-01 -1.603551154e-02  2.266791207e-02
             3.044833762e-02  1.830518928e-01  2.398743170e-01 -2.226167891e-01 -8.438032423e-01 -2.930138004e-01 -4.376876529e-02  8.625839983e-02
             6.855438473e-02 -1.837571976e-02 -9.121279391e-03  2.458077848e-02 -4.393637348e-02  8.868410160e-02 -6.635189629e-01 -6.742186162e-01
7.450000000 -6.996348241e-02 -6.137061262e-01  6.964138337e-01 -1.068923945e-01  3.079793611e-02  1.834114807e-01  5.911405287e-02 -9.084879528e-03
             6.974469005e-01 -1.153365629e-01 -1.034017761e-01 -5.325503794e-01  2.169752369e-01 -2.330495207e-01 -1.207962236e-02  1.962508166e-02
             3.220060331e-02  1.798579768e-01  2.205569737e-01 -2.333217276e-01 -8.520260616e-01 -2.751070033e-01 -4.023110421e-02  9.084253687e-02
             6.374373085e-02 -1.579651611e-02 -4.931954970e-03  2.102695015e-02 -4.023599775e-02  9.309204908e-02 -6.980693026e-01 -6.382155741e-01
7.500000000 -9.162316124e-02 -6.176140472e-01  6.814693645e-01 -1.528924370e-01  3.204432343e-02  1.804957226e-01  5.476688659e-02 -5.993979180e-03
             6.821019734e-01 -1.612122762e-01 -1.634136452e-01 -5.291474085e-01  1.969895150e-01 -2.417101899e-01 -8.799186085e-03  1.626725451e-02
             3.335593322e-02  1.769475468e-01  2.006391405e-01 -2.423835993e-01 -8.598738275e-01 -2.567747360e-01 -3.648270189e-02  9.523515750e-02
             5.924431877e-02 -1.290974674e-02 -1.475114843e-03  1.713608137e-02 -3.636605249e-02  9.728330481e-02 -7.303676792e-01 -6.006431375e-01
7.550000000 -1.143954772e-01 -6.211536061e-01  6.627338639e-01 -1.971688045e-01  3.272220568e-02  1.779468240e-01  5.075869618e-02 -2.630188484e-03
             6.630017697e-01 -2.053834296e-01 -2.232248531e-01 -5.199162328e-01  1.766321396e-01 -2.486722038e-01 -6.225518817e-03  1.268651736e-02
             3.395127075e-02  1.744108401e-01  1.802854046e-01 -2.497489195e-01 -8.673026510e-01 -2.380088411e-01 -3.253761163e-02  9.944123588e-02
             5.506555163e-02 -9.710771967e-03  1.214255924e-03  1.300857496e-02 -3.234578987e-02  1.012878086e-01 -7.603496038e-01 -5.616426014e-01
7.600000000 -1.383740163e-01 -6.241208562e-01  6.404271559e-01 -2.393497194e-01  3.287282847e-02  1.758509103e-01  4.707201288e-02  1.009251379e-03
             6.403281232e-01 -2.474678993e-01 -2.821915199e-01 -5.049104778e-01  1.560589335e-01 -2.539301036e-01 -4.375179651e-03  8.994481167e-03
             3.403369856e-02  1.723316778e-01  1.596654945e-01 -2.553895968e-01 -8.742709795e-01 -2.187973531e-01 -2.840794591e-02  1.034700293e-01
             5.122463021e-02 -6.205879711e-03  3.117679323e-03  8.765627922e-03 -2.817467064e-02  1.051353230e-01 -7.879657550e-01 -5.213581073e-01
7.650000000 -1.636011270e-01 -6.262840083e-01  6.148035147e-01 -2.790911259e-01  3.254522338e-02  1.742977590e-01  4.370727106e-02  4.938945984e-03
             6.143229075e-01 -2.870880080e-01 -3.396944324e-01 -4.842786808e-01  1.354214164e-01 -2.574859023e-01 -3.234972101e-03  5.310856504e-03
             3.365559671e-02  1.707930546e-01  1.389526920e-01 -2.593018435e-01 -8.807340543e-01 -1.991423594e-01 -2.410259169e-02  1.073355286e-01
             4.773621226e-02 -2.410861463e-03  4.248833441e-03  4.537104544e-03 -2.384049460e-02  1.088451895e-01 -8.131782748e-01 -4.799512049e-01
7.700000000 -1.900725605e-01 -6.273983267e-01  5.861452345e-01 -3.160807632e-01  3.180545543e-02  1.733770420e-01  4.068250160e-02  9.169316199e-03
             5.852881556e-01 -3.239016419e-01 -3.951625607e-01 -4.582359486e-01  1.148697282e-01 -2.593481564e-01 -2.760090572e-03  1.743779362e-03
             3.288103065e-02  1.698763993e-01  1.183122003e-01 -2.615041990e-01 -8.866488178e-01 -1.790437325e-01 -1.962199131e-02  1.110534859e-01
             4.460478931e-02  1.655563735e-03  4.655302842e-03  4.406144673e-04 -1.932761404e-02  1.124230265e-01 -8.359752481e-01 -4.375723220e-01
7.750000000 -2.177357972e-01 -6.272240558e-01  5.547703393e-01 -3.500329650e-01  3.073880573e-02  1.731728515e-01  3.802255195e-02  1.369857965e-02
             5.535790677e-01 -3.576183764e-01 -4.480639113e-01 -4.270467333e-01  9.456048874e-02 -2.595366030e-01 -2.888304573e-03 -1.624054074e-03
             3.178820115e-02  1.696604216e-01  9.790070118e-02 -2.620313280e-01 -8.919707630e-01 -1.585034405e-01 -1.495892829e-02  1.146368613e-01
             4.182544500e-02  5.982612330e-03  4.403689874e-03 -3.432987355e-03 -1.462654599e-02  1.158653821e-01 -8.563573565e-01 -3.943552235e-01
7.800000000 -2.464953024e-01 -6.255389302e-01  5.210410482e-01 -3.806967586e-01  2.944748024e-02  1.737567086e-01  3.574721076e-02  1.851690684e-02
             5.195887823e-01 -3.880104605e-01 -4.978924481e-01 -3.910264011e-01  7.465765472e-02 -2.580916423e-01 -3.558328462e-03 -4.733776565e-03
             3.047056604e-02  1.702170775e-01  7.786955900e-02 -2.609309339e-01 -8.966514773e-01 -1.375313665e-01 -1.010247042e-02  1.180932217e-01
             3.939202437e-02  1.057503734e-02  3.560462700e-03 -7.017986962e-03 -9.737125702e-03  1.191691200e-01 -8.743216557e-01 -3.504230026e-01
9.500000000 -3.447143242e-01  3.180533847e-01 -1.141755432e-01 -9.129934235e-02  5.703910182e-01  2.575280578e-01  3.961142822e-01 -9.508216144e-05
            -1.322537314e-01 -9.611262614e-02 -2.249922568e-03  9.381666755e-01 -1.297335795e-02  4.605389946e-02  1.583993506e-02  2.563114233e-02
             5.667636646e-01  2.501109048e-01 -7.472042222e-03  4.017587529e-02 -4.035286860e-01  4.456292873e-01  3.255617921e-01 -5.219164792e-02
             3.916993691e-01 -1.366298324e-02  2.366823806e-02  1.575243475e-02  3.273654303e-01 -5.631260868e-02 -2.804271526e-01  7.228665416e-01
9.550000000 -3.006824896e-01  3.143654338e-01 -1.042991595e-01 -8.446731790e-02  6.044578750e-01  2.241290313e-01  4.079143375e-01 -3.040047844e-02
            -1.233757269e-01 -8.781393631e-02  4.135045570e-02  9.399152934e-01 -3.312792519e-03  4.493884017e-02  1.910452534e-02  2.204842780e-02
             6.004011692e-01  2.166862598e-01  2.618043019e-03  3.812865015e-02 -3.728267386e-01  4.344425088e-01  3.294964893e-01 -7.958550009e-02
             4.026976858e-01 -4.435642171e-02  2.676480134e-02  1.109191543e-02  3.310543500e-01 -8.412971451e-02 -2.498132927e-01  7.227792455e-01
9.600000000 -2.583079507e-01  3.041429273e-01 -9.435009441e-02 -7.964147188e-02  6.361396050e-01  1.859472029e-01  4.164068705e-01 -6.295607049e-02
            -1.142766828e-01 -8.135576401e-02  8.446574243e-02  9.393668183e-01  6.024671247e-03  4.256710293e-02  2.179904572e-02  1.791206437e-02
             6.316491238e-01  1.785265220e-01  1.229801387e-02  3.472754083e-02 -3.435071314e-01  4.198796108e-01  3.306822441e-01 -1.084053810e-01
             4.102750908e-01 -7.722243502e-02  2.914089363e-02  5.839642040e-03  3.319283862e-01 -1.133309348e-01 -2.207554094e-01  7.212856218e-01
9.650000000 -2.187277851e-01  2.875801509e-01 -8.464310991e-02 -7.679218660e-02  6.646536909e-01  1.431634382e-01  4.211327254e-01 -9.729450157e-02
            -1.052522262e-01 -7.672442583e-02  1.269679342e-01  9.365879273e-01  1.485754122e-02  3.898129604e-02  2.381452204e-02  1.332109300e-02
             6.597382719e-01  1.358050097e-01  2.137924545e-02  3.001799265e-02 -3.160849998e-01  4.020539193e-01  3.287958826e-01 -1.383185988e-01
             4.139915510e-01 -1.117696405e-01  3.067563992e-02  1.199807718e-04  3.296800707e-01 -1.435751358e-01 -1.933655576e-01  7.187183770e-01
9.700000000 -1.830714664e-01  2.651122495e-01 -7.549816241e-02 -7.582802528e-02  6.892263967e-01  9.611293613e-02  4.217150111e-01 -1.328439317e-01
            -9.660038628e-02 -7.384241295e-02  1.687217934e-01  9.316598621e-01  2.301215131e-02  3.426088102e-02  2.506875710e-02  8.395757436e-03
             6.838991984e-01  8.884513636e-02  2.967201775e-02  2.407803431e-02 -2.910715526e-01  3.811836731e-01  3.235654066e-01 -1.689162680e-01
             4.134912555e-01 -1.474113334e-01  3.128080856e-02 -5.919015479e-03  3.240476287e-01 -1.744535528e-01 -1.676933990e-01  7.154391844e-01
9.750000000 -1.523982026e-01  2.374177699e-01 -6.721958195e-02 -7.658959732e-02  7.091300421e-01  4.528613711e-02  4.178821702e-01 -1.689472582e-01
            -8.859924988e-02 -7.256786892e-02  2.095968557e-01  9.246890888e-01  3.033242035e-02  2.851653153e-02  2.550565032e-02  3.265359891e-03
             7.033996612e-01  3.812891101e-02  3.699307408e-02  1.702305311e-02 -2.689476530e-01  3.575940139e-01  3.147908064e-01 -1.997252153e-01
             4.085219917e-01 -1.834812763e-01  3.089989018e-02 -1.211973677e-02  3.148320822e-01 -2.054931602e-01 -1.437126643e-01  7.118303301e-01
9.800000000 -1.276358733e-01  2.054014885e-01 -6.007297753e-02 -7.885590179e-02  7.237205291e-01 -8.672963325e-03  4.094872809e-01 -2.048792207e-01
            -8.148666413e-02 -7.270538252e-02  2.494795730e-01  9.158064846e-01  3.668458992e-02  2.188298017e-02  2.508898050e-02 -1.936194226e-03
             7.175877044e-01 -1.569948890e-02  4.317728319e-02  9.007816993e-03 -2.501387315e-01  3.317097234e-01  3.023610552e-01 -2.302230931e-01
             3.989544167e-01 -2.192476255e-01  2.950107439e-02 -1.832034412e-02  3.019186474e-01 -2.361633940e-01 -1.213103185e-01  7.082771440e-01
9.850000000 -1.095229284e-01  1.701603873e-01 -5.427025970e-02 -8.235917783e-02  7.324717640e-01 -6.499912602e-02  3.965231343e-01 -2.398771056e-01
            -7.544934275e-02 -7.402161483e-02  2.882919163e-01  9.051498890e-01  4.195804434e-02  1.451249808e-02  2.379933210e-02 -7.067392928e-03
             7.259337305e-01 -7.186614026e-02  4.809044719e-02  2.210337327e-04 -2.349843833e-01  3.040436760e-01  2.862626548e-01 -2.598644073e-01
             3.847980251e-01 -2.539421005e-01  2.707365013e-02 -2.435197006e-02  2.852947555e-01 -2.659001660e-01 -1.002724412e-01  7.051381333e-01
9.900000000 -9.856856370e-02  1.329345842e-01 -4.996316040e-02 -8.680397094e-02  7.350063021e-01 -1.228191421e-01  3.791394131e-01 -2.731633936e-01
            -7.061970916e-02 -7.626417437e-02  3.259778109e-01  8.928511529e-01  4.606540791e-02  6.573325751e-03  2.164017562e-02 -1.197465414e-02
             7.280667724e-01 -1.294867179e-01  5.163909791e-02 -9.124122377e-03 -2.237224624e-01  2.751729578e-01  2.665864551e-01 -2.880976842e-01
             3.662192693e-01 -2.867823778e-01  2.363472726e-02 -3.003425962e-02  2.650652152e-01 -2.941291817e-01 -8.029968312e-02  7.027142663e-01
9.950000000 -9.502343019e-02  9.505072550e-02 -4.724536380e-02 -9.188021111e-02  7.311183644e-01 -1.811953465e-01  3.576497969e-01 -3.039893569e-01
            -6.708096903e-02 -7.917360452e-02  3.624946999e-01  8.790283861e-01  4.894526488e-02 -1.751278744e-03  1.864946424e-02 -1.649651102e-02
             7.237970194e-01 -1.876183457e-01  5.377426842e-02 -1.880357963e-02 -2.164725068e-01  2.457138858e-01  2.435268931e-01 -3.143917078e-01
             3.435491656e-01 -3.170148351e-01  1.924161307e-02 -3.518077303e-02  2.414524266e-01 -3.203029432e-01 -6.102522683e-02  7.012233213e-01
10.000000000 -9.886772261e-02  5.786080636e-02 -4.615435178e-02 -9.727101396e-02  7.207869433e-01 -2.391678190e-01  3.325251487e-01 -3.316804844e-01
             -6.487294639e-02 -8.248949428e-02  3.978024979e-01  8.637927897e-01  5.056826389e-02 -1.026530630e-02  1.490762328e-02 -2.047842096e-02
              7.131224399e-01 -2.453077485e-01  5.448971052e-02 -2.859391582e-02 -2.132301123e-01  2.162925158e-01  2.173764072e-01 -3.382596696e-01
              3.172785688e-01 -3.439593025e-01  1.399987849e-02 -3.961592608e-02  2.147835392e-01 -3.439332820e-01 -4.204334484e-02  7.007883132e-01
10.050000000 -1.098118689e-01  2.268296793e-02 -4.666806758e-02 -1.026594867e-01  7.041811124e-01 -2.957917394e-01  3.043718635e-01 -3.556745158e-01
             -6.399344623e-02 -8.595264637e-02  4.318589798e-01  8.472642337e-01  5.094470472e-02 -1.876658838e-02  1.053391100e-02 -2.379190665e-02
              6.962250021e-01 -3.016284711e-01  5.381828850e-02 -3.827949442e-02 -2.138691642e-01  1.875157408e-01  1.885157824e-01 -3.592797368e-01
              2.880401258e-01 -3.670490123e-01  8.058532698e-03 -4.319626921e-02  1.854698073e-01 -3.646125951e-01 -2.293759698e-02  7.014399767e-01
10.100000000 -1.273146272e-01 -9.261231432e-03 -4.870208361e-02 -1.077405225e-01  6.816408109e-01 -3.501991136e-01  2.738867182e-01 -3.755582014e-01
             -6.439666966e-02 -8.930718290e-02  4.646422382e-01  8.295706561e-01  5.012795025e-02 -2.706063645e-02  5.669933039e-03 -2.634802725e-02
              6.734446340e-01 -3.557356386e-01  5.182777369e-02 -4.765920495e-02 -2.181499233e-01  1.599423882e-01  1.573886997e-01 -3.771202420e-01
              2.565647082e-01 -3.858727931e-01  1.590757263e-03 -4.582529923e-02  1.539730189e-01 -3.820317480e-01 -3.292224265e-03  7.031190371e-01
10.150000000 -1.506111104e-01 -3.689771673e-02 -5.210859100e-02 -1.122396787e-01  6.536569443e-01 -4.016231109e-01  2.418185325e-01 -3.910697730e-01
             -6.598680223e-02 -9.230953067e-02  4.961533451e-01  8.108450588e-01  4.821178999e-02 -3.497466680e-02  4.607114161e-04 -2.809670853e-02
              6.452593359e-01 -4.068808040e-01  4.861940278e-02 -5.655087040e-02 -2.257360543e-01  1.340597073e-01  1.244800904e-01 -3.915457260e-01
              2.236396045e-01 -4.001853845e-01 -5.227349860e-03 -4.745230890e-02  1.207838210e-01 -3.959759164e-01  1.728959077e-02  7.056828237e-01
10.200000000 -1.787588917e-01 -5.934705272e-02 -5.668906737e-02 -1.159328197e-01  6.208295614e-01 -4.494353026e-01  2.089267325e-01 -4.020975342e-01
             -6.861747649e-02 -9.474288966e-02  5.264232427e-01  7.912044639e-01  4.531898589e-02 -4.237048814e-02 -4.957519337e-03 -2.901572416e-02
              6.122499745e-01 -4.544419077e-01  4.432377667e-02 -6.479961857e-02 -2.362166649e-01  1.102637633e-01  9.028502457e-02 -4.024206965e-01
              1.900566190e-01 -4.099096142e-01 -1.223088462e-02 -4.806001664e-02  8.639746000e-02 -4.063218187e-01  3.917450987e-02  7.089044286e-01
10.250000000 -2.106951350e-01 -7.595463058e-02 -6.221623520e-02 -1.186576406e-01  5.838238374e-01 -4.931586682e-01  1.759536049e-01 -4.086665029e-01
             -7.209929035e-02 -9.643475088e-02  5.554993920e-01  7.707357334e-01  4.158541248e-02 -4.914919673e-02 -1.045694889e-02 -2.909849272e-02
              5.750660999e-01 -4.979358621e-01  3.909300765e-02 -7.228570607e-02 -2.491336682e-01  8.884810313e-02  5.528407661e-02 -4.097004076e-01
              1.565720522e-01 -4.151176066e-01 -1.926635560e-02 -4.765075678e-02  5.129795088e-02 -4.130294261e-01  6.267943294e-02  7.124767763e-01
10.300000000 -2.452939391e-01 -8.630090368e-02 -6.845607791e-02 -1.203118126e-01  5.433369716e-01 -5.324588763e-01  1.436103706e-01 -4.109231620e-01
             -7.621581721e-02 -9.727083596e-02  5.834200644e-01  7.495015480e-01  3.714627830e-02 -5.524658190e-02 -1.590997589e-02 -2.835071721e-02
              5.344001165e-01 -5.370166649e-01  3.308984769e-02 -7.892821487e-02 -2.640070168e-01  7.000155099e-02  1.993126853e-02 -4.134149652e-01
              1.238869969e-01 -4.160012950e-01 -2.618307492e-02 -4.624211649e-02  1.595071880e-02 -4.161330869e-01  8.804747888e-02  7.160282328e-01
10.350000000 -2.814340454e-01 -9.019355742e-02 -7.518584526e-02 -1.208396972e-01  5.000507500e-01 -5.671437925e-01  1.125506666e-01 -4.091299771e-01
             -8.074881324e-02 -9.719763529e-02  6.102133406e-01  7.275465816e-01  3.212639266e-02 -6.062423772e-02 -2.118587979e-02 -2.679738284e-02
              4.909400118e-01 -5.714844859e-01  2.647282771e-02 -8.468391345e-02 -2.803645123e-01  5.381331879e-02 -1.536382224e-02 -4.136574718e-01
              9.262744371e-02 -4.128504512e-01 -3.283012841e-02 -4.387359931e-02 -1.921774815e-02 -4.157373141e-01  1.154390591e-01  7.191432986e-01
10.400000000 -3.180392478e-01 -8.763932834e-02 -8.219446074e-02 -1.202187330e-01  4.546210820e-01 -5.971333737e-01  8.335982843e-02 -4.036481218e-01
             -8.549756164e-02 -9.621408314e-02  6.358909430e-01  7.049231968e-01  2.664107523e-02 -6.525885017e-02 -2.615654278e-02 -2.449215497e-02
              4.453519865e-01 -6.012629353e-01  1.938894516e-02 -8.953843322e-02 -2.977574530e-01  4.028554035e-02 -5.023394641e-02 -4.105684300e-01
              6.335137369e-02 -4.060289593e-01 -3.906203647e-02 -4.061585853e-02 -5.382490365e-02 -4.120045397e-01  1.449265686e-01  7.213929969e-01
10.450000000 -3.541148496e-01 -7.880759525e-02 -8.927952589e-02 -1.184528019e-01  4.076543782e-01 -6.224467259e-01  5.653163931e-02 -3.949192154e-01
             -9.029248082e-02 -9.435302067e-02  6.604693467e-01  6.816922266e-01  2.079989515e-02 -6.913777639e-02 -3.071208230e-02 -2.151830668e-02
              3.982466051e-01 -6.263858665e-01  1.196971638e-02 -9.349737735e-02 -3.157768913e-01  2.934821130e-02 -8.436332889e-02 -4.043250449e-01
              3.654359606e-02 -3.959651473e-01 -4.475525366e-02 -3.657104418e-02 -8.754855281e-02 -4.051412863e-01  1.765094199e-01  7.223530812e-01
10.500000000 -3.887622355e-01 -6.399136420e-02 -9.624521129e-02 -1.155747720e-01  3.596957415e-01 -6.431833757e-01  3.245858085e-02 -3.834364736e-01
             -9.499513587e-02 -9.166142914e-02  6.839828215e-01  6.579120586e-01  1.471068091e-02 -7.226047101e-02 -3.477394488e-02 -1.797662468e-02
              3.501597514e-01 -6.469710792e-01  4.332970786e-03 -9.657991139e-02 -3.340619131e-01  2.087506424e-02 -1.174915314e-01 -3.951271657e-01
              1.261192066e-02 -3.831434342e-01 -4.982165092e-02 -3.185955161e-02 -1.201334547e-01 -3.953770025e-01  2.101304191e-01  7.216103473e-01
12.200000000  5.513039370e-02  6.636515691e-02 -8.117994028e-02 -8.017500719e-02 -2.089022733e-01  4.279624685e-02 -6.302034883e-01 -5.158225960e-01
             -7.384223207e-02 -9.006337723e-02  8.725795666e-01 -3.707716978e-01 -3.840108422e-02  1.309881819e-02 -5.126061410e-02  8.011541821e-02
             -2.049788799e-01  7.023585106e-02 -6.140952158e-02  2.617037729e-02 -7.489102889e-01  3.454585788e-01  6.680868737e-02  2.060047224e-01
             -6.323063578e-01 -5.038112040e-01 -5.540742186e-02  8.352081259e-02  4.535458117e-02  1.749232183e-01  6.735237226e-02 -2.334855907e-01
12.250000000  2.469517597e-02  5.200686634e-02 -9.162378054e-02 -8.313173398e-02 -1.887606344e-01  4.270289353e-02 -6.788608253e-01 -4.626561810e-01
             -8.466204999e-02 -9.378752024e-02  8.541045590e-01 -4.024453014e-01 -3.520054866e-02  1.047782989e-02 -5.001962572e-02  9.279058253e-02
             -1.821623384e-01  6.905498484e-02 -5.698245855e-02  2.408820163e-02 -7.452248687e-01  3.714776869e-01  7.599249848e-02  1.865816880e-01
             -6.800787966e-01 -4.499592948e-01 -5.394050501e-02  9.661605137e-02  5.256834185e-02  1.572547998e-01  5.417392156e-02 -2.085581629e-01
12.300000000 -5.872875980e-03  4.354585037e-02 -1.027974648e-01 -8.489027887e-02 -1.708154112e-01  4.032535912e-02 -7.200244382e-01 -4.047492626e-01
             -9.655238501e-02 -9.628149431e-02  8.336488245e-01 -4.335200511e-01 -3.254814433e-02  7.071402044e-03 -4.679570675e-02  1.062635860e-01
             -1.617830719e-01  6.531083462e-02 -5.310788352e-02  2.125200678e-02 -7.395205370e-01  3.967237573e-01  8.179410451e-02  1.681819402e-01
             -7.199674498e-01 -3.914892795e-01 -5.032526716e-02  1.105514004e-01  5.668898903e-02  1.408507081e-01  4.633373891e-02 -1.865871262e-01
12.350000000 -3.567811892e-02  4.050456607e-02 -1.147063186e-01 -8.545271142e-02 -1.552010365e-01  3.617746557e-02 -7.534227415e-01 -3.433656465e-01
             -1.093849886e-01 -9.734030160e-02  8.109869654e-01 -4.639608786e-01 -3.063088395e-02  2.913710447e-03 -4.133258784e-02  1.203914098e-01
             -1.439739186e-01  5.958920538e-02 -4.986041282e-02  1.767588748e-02 -7.320232390e-01  4.209819264e-01  8.469196185e-02  1.512978676e-01
             -7.518133497e-01 -3.298771897e-01 -4.428511018e-02  1.251505926e-01  5.829693677e-02  1.261471253e-01  4.254858105e-02 -1.684643332e-01
12.400000000 -6.401327775e-02  4.228649516e-02 -1.274147412e-01 -8.471615184e-02 -1.419523405e-01  3.075045879e-02 -7.789411936e-01 -2.797311217e-01
             -1.229782799e-01 -9.683256727e-02  7.857798617e-01 -4.935797868e-01 -2.962775911e-02 -1.893198642e-03 -3.328137531e-02  1.349405531e-01
             -1.287436782e-01  5.242499402e-02 -4.736348808e-02  1.336003801e-02 -7.229806246e-01  4.440977632e-01  8.522479234e-02  1.363118972e-01
             -7.757353294e-01 -2.664181467e-01 -3.544954384e-02  1.401411018e-01  5.798877909e-02  1.133966598e-01  4.138986494e-02 -1.547203815e-01
12.450000000 -9.039859916e-02  4.823408407e-02 -1.409592196e-01 -8.245636735e-02 -1.310123682e-01  2.448030442e-02 -7.966367227e-01 -2.150346547e-01
             -1.371886483e-01 -9.472215770e-02  7.576837429e-01 -5.219755160e-01 -2.966743938e-02 -7.210061562e-03 -2.227534728e-02  1.495166052e-01
             -1.160090984e-01  4.426364263e-02 -4.579172226e-02  8.333710365e-03 -7.126356007e-01  4.659789278e-01  8.397328178e-02  1.234785781e-01
             -7.919944104e-01 -2.021714785e-01 -2.343237859e-02  1.550776972e-01  5.631030117e-02  1.027080405e-01  4.139815911e-02 -1.454849833e-01
12.500000000 -1.145959831e-01  5.772760714e-02 -1.552871091e-01 -7.837698592e-02 -1.222686386e-01  1.771535761e-02 -8.067439828e-01 -1.503838994e-01
             -1.520087934e-01 -9.100174248e-02  7.264633821e-01 -5.485771293e-01 -3.082875410e-02 -1.292024134e-02 -8.025510296e-03  1.635795090e-01
             -1.056522543e-01  3.544015923e-02 -4.534216353e-02  2.681200006e-03 -7.012014054e-01  4.865793857e-01  8.152157625e-02  1.129189321e-01
             -8.008449612e-01 -1.379967011e-01 -7.934470092e-03  1.693564249e-01  5.373212490e-02  9.412081653e-02  4.121529745e-02 -1.405257499e-01
12.550000000 -1.365637353e-01  7.030497743e-02 -1.702641893e-01 -7.217476576e-02 -1.156156434e-01  1.070991901e-02 -8.096257421e-01 -8.676894798e-02
             -1.675988288e-01 -8.554624671e-02  6.920294711e-01 -5.727263961e-01 -3.320075413e-02 -1.897603019e-02  9.645881977e-03  1.765236188e-01
             -9.759047672e-02  2.619450234e-02 -4.620461559e-02 -3.469990639e-03 -6.888616012e-01  5.058602235e-01  7.841793829e-02  1.046481550e-01
             -8.024354603e-01 -7.470152375e-02  1.121774196e-02  1.822984440e-01  5.068738611e-02  8.767750567e-02  3.965497991e-02 -1.393557029e-01
12.600000000 -1.563278650e-01  8.575379444e-02 -1.857366469e-01 -6.353572548e-02 -1.110171893e-01  3.669522169e-03 -8.056848566e-01 -2.505176588e-02
             -1.841985453e-01 -7.793485118e-02  6.543381385e-01 -5.937436066e-01 -3.698177339e-02 -2.537944616e-02  3.088556138e-02  1.877269641e-01
             -9.182944042e-02  1.673552655e-02 -4.856907522e-02 -9.979415898e-03 -6.757827149e-01  5.237668857e-01  7.517519251e-02  9.862102295e-02
             -7.968295550e-01 -1.320918506e-02  3.415295997e-02  1.932020029e-01  4.766504386e-02  8.343844641e-02  3.565524858e-02 -1.413343001e-01
12.650000000 -1.737990326e-01  1.041209829e-01 -2.015482001e-01 -5.204054955e-02 -1.085312608e-01 -3.160706118e-03 -7.952988624e-01  3.391381858e-02
             -2.018981546e-01 -6.734511974e-02  6.133112847e-01 -6.107870474e-01 -4.255914802e-02 -3.207409021e-02  5.591433973e-02  1.964582530e-01
             -8.846980517e-02  7.335764733e-03 -5.268133503e-02 -1.669623003e-02 -6.621667771e-01  5.402115367e-01  7.231779718e-02  9.476091508e-02
             -7.841625991e-01  4.527270194e-02  6.106024086e-02  2.012448425e-01  4.530078358e-02  8.141057829e-02  2.816753065e-02 -1.456357759e-01
12.700000000 -1.885845708e-01  1.256005736e-01 -2.174192167e-01 -3.703503138e-02 -1.082627700e-01 -9.390748049e-03 -7.788854232e-01  8.913008855e-02
             -2.203287002e-01 -5.260355769e-02  5.689168341e-01 -6.226027696e-01 -5.049922604e-02 -3.876704477e-02  8.501035636e-02  2.016308941e-01
             -8.764479281e-02 -1.572414561e-03 -5.890416364e-02 -2.338121070e-02 -6.482991105e-01  5.551062769e-01  7.045430205e-02  9.291594384e-02
             -7.649125061e-01  9.923191703e-02  9.216128313e-02  2.052282722e-01  4.440245473e-02  8.139269898e-02  1.612332819e-02 -1.510514911e-01
12.750000000 -1.998798609e-01  1.503033988e-01 -2.326643113e-01 -1.762276249e-02 -1.102379412e-01 -1.442038401e-02 -7.571362401e-01  1.393661858e-01
             -2.383781485e-01 -3.245052930e-02  5.215683676e-01 -6.273227889e-01 -6.139922357e-02 -4.475450716e-02  1.182122304e-01  2.015486507e-01
             -8.939280785e-02 -9.347611375e-03 -6.770097006e-02 -2.955043932e-02 -6.345774172e-01  5.684322498e-01  7.029913132e-02  9.273097440e-02
             -7.401912335e-01  1.470142340e-01  1.273847130e-01  2.033220124e-01  4.584874032e-02  8.279781444e-02 -1.351230059e-03 -1.557227100e-01
12.800000000 -2.065082750e-01  1.779611491e-01 -2.458741593e-01  7.077248347e-03 -1.142318365e-01 -1.746593607e-02 -7.313398429e-01  1.833009208e-01
             -2.540735897e-01 -5.992220045e-03  4.727511552e-01 -6.226290830e-01 -7.560958383e-02 -4.885044757e-02  1.547537471e-01  1.939050508e-01
             -9.349755755e-02 -1.517650656e-02 -7.946964668e-02 -3.431652370e-02 -6.214834227e-01  5.803343286e-01  7.256937882e-02  9.348490050e-02
             -7.119293585e-01  1.871950430e-01  1.657633468e-01  1.930912156e-01  5.035244690e-02  8.454429403e-02 -2.442770361e-02 -1.570496605e-01
12.850000000 -2.071482689e-01  2.076609648e-01 -2.547986163e-01  3.738466480e-02 -1.196157072e-01 -1.770855154e-02 -7.035932450e-01  2.199489175e-01
             -2.647453078e-01  2.676590627e-02  4.255581179e-01 -6.064636320e-01 -9.290420485e-02 -4.950632017e-02  1.924618601e-01  1.762659378e-01
             -9.935280118e-02 -1.821638967e-02 -9.423027603e-02 -3.636118958e-02 -6.094898576e-01  5.911967649e-01  7.773180632e-02  9.400696511e-02
             -6.828272239e-01  2.190754648e-01  2.048133317e-01  1.720438375e-01  5.814206586e-02  8.511026801e-02 -5.194250045e-02 -1.520289602e-01
12.900000000 -2.007244815e-01  2.377269056e-01 -2.566620153e-01  7.240731900e-02 -1.253062943e-01 -1.454532305e-02 -6.766733237e-01  2.492584244e-01
             -2.675207584e-01  6.448322500e-02  3.846774662e-01 -5.781782210e-01 -1.122320968e-01 -4.515094847e-02  2.275238626e-01  1.470420093e-01
             -1.059186352e-01 -1.782463846e-02 -1.112835304e-01 -3.415603425e-02 -5.989184801e-01  6.016534310e-01  8.567375030e-02  9.279313040e-02
             -6.559952623e-01  2.431513283e-01  2.403338618e-01  1.386883177e-01  6.867763027e-02  8.280150536e-02 -8.100715337e-02 -1.381030721e-01
12.950000000 -1.868608278e-01  2.658468709e-01 -2.489618707e-01  1.096469325e-01 -1.298821658e-01 -7.866467965e-03 -6.534501307e-01  2.726051468e-01
             -2.600780264e-01  1.043613321e-01  3.554974934e-01 -5.396566962e-01 -1.316978818e-01 -3.468229542e-02  2.549949293e-01  1.066137651e-01
             -1.118231192e-01 -1.381116596e-02 -1.290416989e-01 -2.643625613e-02 -5.897870978e-01  6.125058389e-01  9.546534368e-02  8.836796657e-02
             -6.342998356e-01  2.613644329e-01  2.670132381e-01  9.371972118e-02  8.054723153e-02  7.619764678e-02 -1.072633752e-01 -1.142921631e-01
13.000000000 -1.662327468e-01  2.894740104e-01 -2.305021904e-01  1.452100462e-01 -1.318735116e-01  1.757405900e-03 -6.359780030e-01  2.928314342e-01
             -2.414415698e-01  1.424882990e-01  3.424529330e-01 -4.957207013e-01 -1.488591898e-01 -1.794360569e-02  2.700887557e-01  5.801836143e-02
             -1.156170827e-01 -6.616819858e-03 -1.452134756e-01 -1.276801476e-02 -5.817162896e-01  6.245479507e-01  1.053958074e-01  7.979835129e-02
             -6.195769679e-01  2.769447004e-01  2.798592980e-01  4.069273303e-02  9.165396699e-02  6.464142305e-02 -1.259376515e-01 -8.207538388e-02
13.050000000 -1.406520194e-01  3.064150263e-01 -2.021743961e-01  1.747123066e-01 -1.301459086e-01  1.308477772e-02 -6.246612650e-01  3.136353958e-01
             -2.125118692e-01  1.746319363e-01  3.472774467e-01 -4.533270337e-01 -1.612975298e-01  4.027437012e-03  2.698127464e-01  6.673372141e-03
             -1.161191092e-01  2.675522175e-03 -1.573668498e-01  6.068173453e-03 -5.739672318e-01  6.383409237e-01  1.133616043e-01  6.713418855e-02
             -6.120049140e-01  2.937735877e-01  2.759528336e-01 -1.436629487e-02  9.969205900e-02  4.857058714e-02 -1.333955918e-01 -4.544583252e-02
13.100000000 -1.127845166e-01  3.153981738e-01 -1.670105144e-01  1.945846330e-01 -1.242310819e-01  2.445021518e-02 -6.179302967e-01  3.385089139e-01
             -1.760586590e-01  1.972669780e-01  3.680197828e-01 -4.197190611e-01 -1.672689833e-01  2.913564947e-02  2.541808207e-01 -4.097043308e-02
             -1.127284364e-01  1.253988734e-02 -1.636674504e-01  2.813180679e-02 -5.655920578e-01  6.540455311e-01  1.174951004e-01  5.152337938e-02
             -6.099052896e-01  3.154639225e-01  2.556860212e-01 -6.448422893e-02  1.027672021e-01  2.951433799e-02 -1.285116958e-01 -9.918406105e-03
13.150000000 -8.559133368e-02  3.164032274e-01 -1.293959272e-01  2.031658877e-01 -1.144621393e-01  3.416415180e-02 -6.126726062e-01  3.696437534e-01
             -1.361362905e-01  2.084374675e-01  3.994591959e-01 -4.002742790e-01 -1.661718217e-01  5.472218288e-02  2.263420111e-01 -7.929474395e-02
             -1.055787009e-01  2.135317745e-02 -1.634500854e-01  5.083667242e-02 -5.556812036e-01  6.713637019e-01  1.167527929e-01  3.490904809e-02
             -6.101141179e-01  3.444401860e-01  2.227971357e-01 -1.037704371e-01  9.991553241e-02  9.730246621e-03 -1.131443753e-01  1.916114976e-02
13.200000000 -6.168294412e-02  3.106272950e-01 -9.377757537e-02  2.010835730e-01 -1.018592141e-01  4.091733072e-02 -6.052237338e-01  4.073436865e-01
             -9.712753075e-02  2.081559288e-01  4.347306514e-01 -3.970763503e-01 -1.586474846e-01  7.823178861e-02  1.915380067e-01 -1.050650211e-01
             -9.547579747e-02  2.776657690e-02 -1.573515422e-01  7.170813058e-02 -5.435838981e-01  6.896327044e-01  1.111939113e-01  1.942975291e-02
             -6.087761252e-01  3.813881010e-01  1.831512777e-01 -1.290393741e-01  9.132234444e-02 -8.384027740e-03 -9.147475297e-02  3.823192657e-02
