! yapnr rf: filterbank3-x7x10x13, footprint re-simulated (refine 3)
! spec sha256 13de688406c8ea8aa5a2983c7d9dfbef6bc7c31cd2b218bfb1531cd97a05cd76
! 4 ports renormalized to 50 ohm, e^(+jwt) convention
# GHz S RI R 50
6.800000000  1.816907103e-01 -4.833137920e-01  5.710476003e-01  5.220982566e-01 -1.476862465e-01  2.291312141e-01  1.507370454e-02 -2.821196748e-03
             5.751018434e-01  5.188892618e-01  4.326490633e-01 -1.007193205e-01  3.672518479e-01  2.217875415e-02  1.644911493e-02 -1.777946601e-02
            -1.524101667e-01  2.271316632e-01  3.613757619e-01  2.036893136e-02 -4.795113088e-01 -7.217365846e-01  8.486034709e-04 -9.857463149e-03
             1.326409752e-02 -3.355964042e-03  1.029235759e-02 -1.119361570e-02  3.713723745e-03  1.248968814e-03 -1.466864705e-01  9.496321473e-01
6.850000000  1.607504306e-01 -4.832496597e-01  6.020906705e-01  4.912862911e-01 -1.421655881e-01  2.359438271e-01  1.495895530e-02 -2.874529881e-04
             6.059414787e-01  4.876528986e-01  4.187877526e-01 -1.286952924e-01  3.673076212e-01  1.372712489e-03  1.513468105e-02 -2.110302770e-02
            -1.471734563e-01  2.341933573e-01  3.614870392e-01 -1.936723271e-04 -4.980923163e-01 -7.079838458e-01  5.396509384e-04 -1.157065191e-02
             1.317283016e-02 -7.125515200e-04  9.372873080e-03 -1.402944784e-02  4.058894780e-03 -4.284892706e-04 -8.680245145e-02  9.564880303e-01
6.900000000  1.403409759e-01 -4.823054585e-01  6.314577202e-01  4.583551587e-01 -1.363690253e-01  2.426130586e-01  1.502866653e-02  1.959695594e-03
             6.350737205e-01  4.543238804e-01  4.031209133e-01 -1.556660085e-01  3.662272374e-01 -1.952938614e-02  1.345298625e-02 -2.407015765e-02
            -1.416169529e-01  2.411276112e-01  3.604958641e-01 -2.087454090e-02 -5.162765608e-01 -6.936731139e-01 -6.381928321e-05 -1.343471827e-02
             1.328157942e-02  1.651546203e-03  8.127702710e-03 -1.653079026e-02  4.114993665e-03 -2.299610050e-03 -2.632766208e-02  9.595093490e-01
6.950000000  1.205061143e-01 -4.805527650e-01  6.589923216e-01  4.233826566e-01 -1.303065672e-01  2.491309119e-01  1.523173837e-02  3.924575865e-03
             6.623484872e-01  4.189762323e-01  3.857049701e-01 -1.815314076e-01  3.639945835e-01 -4.047036586e-02  1.146544639e-02 -2.665791698e-02
            -1.357600173e-01  2.479080307e-01  3.583794294e-01 -4.162555481e-02 -5.340520248e-01 -6.788047893e-01 -9.828147242e-04 -1.541789213e-02
             1.354597576e-02  3.734567644e-03  6.618097225e-03 -1.867835527e-02  3.859945865e-03 -4.331075071e-03  3.458071496e-02  9.586258256e-01
7.000000000  1.012779152e-01 -4.780693125e-01  6.845396129e-01  3.864573449e-01 -1.239870910e-01  2.554891724e-01  1.552095391e-02  5.617978338e-03
             6.876132336e-01  3.816930013e-01  3.665978160e-01 -2.061900819e-01  3.605966416e-01 -6.139438772e-02  9.233180652e-03 -2.885006425e-02
            -1.296281004e-01  2.545160994e-01  3.551151344e-01 -6.239627319e-02 -5.514105446e-01 -6.633778345e-01 -2.237837642e-03 -1.748682419e-02
             1.392170299e-02  5.538288477e-03  4.904792612e-03 -2.045973618e-02  3.273678219e-03 -6.489310769e-03  9.575380985e-02  9.537579170e-01
7.050000000  8.267867340e-02 -4.749370038e-01  7.079448574e-01  3.476822813e-01 -1.174214950e-01  2.616780602e-01  1.585399080e-02  7.055471330e-03
             7.107111774e-01  3.425721689e-01  3.458636972e-01 -2.295375797e-01  3.560222537e-01 -8.224549111e-02  6.816855995e-03 -3.063660043e-02
            -1.232509569e-01  2.609420085e-01  3.506815683e-01 -8.313179630e-02 -5.683430025e-01 -6.473921137e-01 -3.848658829e-03 -1.960572496e-02
             1.436468506e-02  7.068716931e-03  3.047810074e-03 -2.186902200e-02  2.337250819e-03 -8.740283831e-03  1.570056993e-01  9.448200967e-01
7.100000000  6.471602006e-02 -4.712387274e-01  7.290577824e-01  3.071722485e-01 -1.106221391e-01  2.676881095e-01  1.619349631e-02  8.255427826e-03
             7.314862816e-01  3.017259993e-01  3.235746611e-01 -2.514679597e-01  3.502599089e-01 -1.029694564e-01  4.276559488e-03 -3.201356995e-02
            -1.166568565e-01  2.671861348e-01  3.450584370e-01 -1.037751246e-01 -5.848440045e-01 -6.308431543e-01 -5.833843790e-03 -2.173565495e-02
             1.483165921e-02  8.336515647e-03  1.106294937e-03 -2.290662995e-02  1.032137349e-03 -1.104882425e-02  2.181337315e-01  9.317238184e-01
7.150000000  4.738877313e-02 -4.670562027e-01  7.477303239e-01  2.650592389e-01 -1.036068133e-01  2.735099576e-01  1.650608394e-02  9.237665972e-03
             7.497826703e-01  2.592882090e-01  2.998161479e-01 -2.718754643e-01  3.432975656e-01 -1.235092292e-01  1.672003056e-03 -3.298308844e-02
            -1.098722789e-01  2.732559546e-01  3.382278877e-01 -1.242641202e-01 -6.009031174e-01 -6.137272355e-01 -8.209818693e-03 -2.383417506e-02
             1.528082648e-02  9.357335352e-03 -8.614409799e-04 -2.357939306e-02 -6.599504608e-04 -1.337756216e-02  2.789139745e-01  9.143812368e-01
7.166666667  4.175083913e-02 -4.655677142e-01  7.533883400e-01  2.506885385e-01 -1.012230945e-01  2.754078779e-01  1.659896287e-02  9.520190770e-03
             7.553054006e-01  2.448127805e-01  2.915858194e-01 -2.783220738e-01  3.407073969e-01 -1.303055404e-01  7.997293175e-04 -3.321700532e-02
            -1.075712832e-01  2.752430158e-01  3.356794904e-01 -1.310491620e-01 -6.061579079e-01 -6.078930761e-01 -9.091138078e-03 -2.451883553e-02
             1.541970910e-02  9.646100881e-03 -1.513292903e-03 -2.372471257e-02 -1.313103883e-03 -1.415137989e-02  2.990560388e-01  9.076415704e-01
7.200000000  3.067966753e-02 -4.624661273e-01  7.638231869e-01  2.214840089e-01 -9.639420560e-02  2.791382398e-01  1.676106740e-02  1.002263023e-02
             7.654533965e-01  2.154062296e-01  2.746834972e-01 -2.906595195e-01  3.351203278e-01 -1.438077362e-01 -9.378318381e-04 -3.355373116e-02
            -1.029150760e-01  2.791655991e-01  3.301726069e-01 -1.445362299e-01 -6.165141950e-01 -5.960318738e-01 -1.099027075e-02 -2.585524140e-02
             1.567275961e-02  1.015157644e-02 -2.798331192e-03 -2.390088665e-02 -2.756880466e-03 -1.568580988e-02  3.391049437e-01  8.927060617e-01
7.250000000  1.456258231e-02 -4.575390275e-01  7.772030166e-01  1.766008873e-01 -8.900616027e-02  2.845716222e-01  1.692896061e-02  1.063183744e-02
             7.783601098e-01  1.702456490e-01  2.482839389e-01 -3.077275468e-01  3.257119546e-01 -1.638026379e-01 -3.494894075e-03 -3.374103531e-02
            -9.579680911e-02  2.849309866e-01  3.208767036e-01 -1.645250915e-01 -6.316663303e-01 -5.777419140e-01 -1.418530717e-02 -2.774944263e-02
             1.597101503e-02  1.074415035e-02 -4.648934629e-03 -2.389189104e-02 -5.275198662e-03 -1.792857695e-02  3.984430224e-01  8.666161811e-01
7.300000000 -9.951563704e-04 -4.523383406e-01  7.877432144e-01  1.305786095e-01 -8.146680894e-02  2.898140114e-01  1.698059942e-02  1.108902376e-02
             7.883759418e-01  1.239895070e-01  2.207345850e-01 -3.229977377e-01  3.150567088e-01 -1.834244032e-01 -5.942735953e-03 -3.356809000e-02
            -8.852423226e-02  2.905669143e-01  3.103260996e-01 -1.841597550e-01 -6.463418270e-01 -5.588412587e-01 -1.780090837e-02 -2.946436159e-02
             1.614261000e-02  1.116398479e-02 -6.360223535e-03 -2.358087003e-02 -8.228888504e-03 -2.005602651e-02  4.566400831e-01  8.360361633e-01
7.350000000 -1.603628270e-02 -4.469189369e-01  7.953268222e-01  8.359373994e-02 -7.379736034e-02  2.948759262e-01  1.688728072e-02  1.142147838e-02
             7.953894750e-01  7.682931892e-02  1.921557725e-01 -3.364011679e-01  3.031393177e-01 -2.025982118e-01 -8.227769757e-03 -3.306598321e-02
            -8.109801042e-02  2.960860809e-01  2.985066775e-01 -2.033667164e-01 -6.605220992e-01 -5.393075573e-01 -2.183882973e-02 -3.094475862e-02
             1.615838570e-02  1.144332454e-02 -7.882838853e-03 -2.300427150e-02 -1.162818982e-02 -2.201336067e-02  5.133837626e-01  8.008980788e-01
7.400000000 -3.060519261e-02 -4.413287172e-01  7.998443123e-01  3.584024791e-02 -6.601938864e-02  2.997730313e-01  1.662151733e-02  1.166158132e-02
             7.993025298e-01  2.897195422e-02  1.626724920e-01 -3.478804476e-01  2.899500292e-01 -2.212399546e-01 -1.030026816e-02 -3.227405167e-02
            -7.352049790e-02  3.014973183e-01  2.854077936e-01 -2.220651678e-01 -6.741778981e-01 -5.191228873e-01 -2.629606566e-02 -3.213289226e-02
             1.599289289e-02  1.161743031e-02 -9.172218938e-03 -2.220668070e-02 -1.547816538e-02 -2.374127525e-02  5.683302699e-01  7.611481957e-01
7.433333333 -4.008186002e-02 -4.375266886e-01  8.011036379e-01  3.675965267e-03 -6.078120080e-02  3.029564790e-01  1.633628831e-02  1.178883570e-02
             8.001474352e-01 -3.217482183e-03  1.425745311e-01 -3.544411237e-01  2.804472123e-01 -2.333288654e-01 -1.154183937e-02 -3.160820056e-02
            -6.838498452e-02  3.050484859e-01  2.759592637e-01 -2.342068447e-01 -6.829764535e-01 -5.052930966e-01 -2.949694605e-02 -3.273283901e-02
             1.577101428e-02  1.169357322e-02 -9.883140424e-03 -2.157778369e-02 -1.829508678e-02 -2.473465667e-02  6.037799401e-01  7.320665380e-01
7.450000000 -4.475440877e-02 -4.356072038e-01  8.011972648e-01 -1.247957124e-02 -5.814858131e-02  3.045263698e-01  1.615882455e-02  1.184730060e-02
             8.000323781e-01 -1.937185846e-02  1.324072059e-01 -3.573891708e-01  2.754833462e-01 -2.392607747e-01 -1.211612892e-02 -3.123978392e-02
            -6.579340982e-02  3.068078268e-01  2.710200951e-01 -2.401699896e-01 -6.872788623e-01 -4.982655769e-01 -3.116490024e-02 -3.296830033e-02
             1.562443703e-02  1.172408457e-02 -1.019029132e-02 -2.124059834e-02 -1.977801348e-02 -2.517653811e-02  6.211056699e-01  7.167494360e-01
7.500000000 -5.853962117e-02 -4.297864765e-01  7.992982555e-01 -6.114815917e-02 -5.019752512e-02  3.091606780e-01  1.547945458e-02  1.202219705e-02
             7.975093284e-01 -6.798209366e-02  1.014820472e-01 -3.648891386e-01  2.597414476e-01 -2.565657584e-01 -1.363819129e-02 -3.001849247e-02
            -5.792307198e-02  3.120249106e-01  2.553389866e-01 -2.575887567e-01 -6.997877724e-01 -4.767174331e-01 -3.643222371e-02 -3.338779161e-02
             1.503484186e-02  1.180365158e-02 -1.090689323e-02 -2.016603260e-02 -2.452033199e-02 -2.625280167e-02  6.713012509e-01  6.676903961e-01
7.550000000 -7.202047128e-02 -4.238902788e-01  7.940734796e-01 -1.099333772e-01 -4.217517165e-02  3.137037506e-01  1.457003041e-02  1.223442478e-02
             7.916765255e-01 -1.166303331e-01  7.001867572e-02 -3.703486628e-01  2.427345435e-01 -2.730558035e-01 -1.483781098e-02 -2.867270042e-02
            -4.992035146e-02  3.171594758e-01  2.383658865e-01 -2.742221563e-01 -7.116621780e-01 -4.544631785e-01 -4.207882599e-02 -3.332530521e-02
             1.420943679e-02  1.189921205e-02 -1.130140375e-02 -1.904977327e-02 -2.969082967e-02 -2.690122040e-02  7.184734806e-01  6.139935219e-01
7.600000000 -8.526497844e-02 -4.179316216e-01  7.854644197e-01 -1.585960679e-01 -3.408344448e-02  3.181858824e-01  1.342466265e-02  1.253504669e-02
             7.824889697e-01 -1.650861505e-01  3.813556865e-02 -3.737420045e-01  2.244777136e-01 -2.886304319e-01 -1.569666093e-02 -2.727118205e-02
            -4.179568123e-02  3.222292792e-01  2.201065282e-01 -2.899659765e-01 -7.228602465e-01 -4.314831799e-01 -4.807865755e-02 -3.271156732e-02
             1.313736229e-02  1.205674261e-02 -1.136455325e-02 -1.796429901e-02 -3.526833637e-02 -2.705053553e-02  7.621476175e-01  5.557204499e-01
7.650000000 -9.834233430e-02 -4.119122833e-01  7.734299698e-01 -2.068807196e-01 -2.592269219e-02  3.226398809e-01  1.204498748e-02  1.297659460e-02
             7.699140438e-01 -2.131055603e-01  5.954400372e-03 -3.750489169e-01  2.049944764e-01 -3.031853346e-01 -1.620800431e-02 -2.588790451e-02
            -3.356145502e-02  3.272613070e-01  2.005762082e-01 -3.047087808e-01 -7.333322691e-01 -4.077627309e-01 -5.439717967e-02 -3.147469921e-02
             1.181189237e-02  1.232564559e-02 -1.109989710e-02 -1.698649991e-02 -4.122411808e-02 -2.662734517e-02  8.018172264e-01  4.929858119e-01
7.700000000 -1.113260495e-01 -4.058195358e-01  7.579479029e-01 -2.545239769e-01 -1.768790200e-02  3.271015799e-01  1.043981493e-02  1.361157721e-02
             7.539325284e-01 -2.604367402e-01 -2.640324479e-02 -3.742562202e-01  1.843133589e-01 -3.166138221e-01 -1.637856316e-02 -2.460043119e-02
            -2.522439604e-02  3.322929967e-01  1.797976748e-01 -3.183341548e-01 -7.430254042e-01 -3.832844279e-01 -6.099022460e-02 -2.954047063e-02
             1.023132641e-02  1.275886785e-02 -1.052566362e-02 -1.619580615e-02 -4.752133620e-02 -2.555571176e-02  8.369514182e-01  4.259628532e-01
7.750000000 -1.242887268e-01 -3.996245992e-01  7.390169211e-01 -3.012518339e-01 -9.370151143e-03  3.316108067e-01  8.624211772e-03  1.449185282e-02
             7.345417205e-01 -3.068146751e-01 -5.881420071e-02 -3.713592326e-01  1.624698301e-01 -3.288048585e-01 -1.622999480e-02 -2.348799338e-02
            -1.678345348e-02  3.373719049e-01  1.578037960e-01 -3.307200990e-01 -7.518788674e-01 -3.580322826e-01 -6.780237290e-02 -2.683346831e-02
             8.399941659e-03  1.341299935e-02 -9.676266770e-03 -1.567189376e-02 -5.411362501e-02 -2.375721739e-02  8.670001574e-01  3.548946246e-01
7.800000000 -1.373014728e-01 -3.932805309e-01  7.166565637e-01 -3.467855107e-01 -9.528377873e-04  3.362117138e-01  6.618803785e-03  1.566855406e-02
             7.117574667e-01 -3.519653120e-01 -9.115815148e-02 -3.663630664e-01  1.395051094e-01 -3.396423919e-01 -1.580051163e-02 -2.262885953e-02
            -8.223526972e-03  3.425533013e-01  1.346363107e-01 -3.417397403e-01 -7.598250804e-01 -3.319877668e-01 -7.476572179e-02 -2.327814211e-02
             6.329237525e-03  1.434793306e-02 -8.603767052e-03 -1.549167705e-02 -6.094341756e-02 -2.115099076e-02  8.914037614e-01  2.800995742e-01
9.500000000 -1.782279280e-01  3.199670103e-02 -2.754587324e-01 -1.389366232e-01  8.008196322e-01  5.616435262e-02  2.814526235e-01  6.536387428e-02
            -2.790241328e-01 -1.420080371e-01 -1.991038105e-01  8.312142907e-01 -5.980098827e-02  1.956400715e-01 -1.983381901e-02  7.436168975e-02
             8.162687105e-01  5.595984064e-02 -5.730785638e-02  2.030724560e-01 -3.096932206e-02  1.770596031e-01  3.103317117e-01  6.609502304e-02
             2.837414125e-01  6.403335496e-02 -1.222741945e-02  7.830140006e-02  3.069708988e-01  6.051420588e-02 -7.787795097e-01 -1.209438030e-01
9.550000000 -1.738278133e-01  2.591368720e-02 -2.634536195e-01 -1.230251203e-01  8.106527873e-01  1.639544014e-03  2.897308336e-01  4.501402273e-02
            -2.676876576e-01 -1.260033898e-01 -1.424784132e-01  8.537639553e-01 -3.411545322e-02  1.904437981e-01 -1.082611763e-02  7.292268367e-02
             8.258829716e-01  4.219030163e-04 -3.090684787e-02  1.970501839e-01 -1.347514408e-02  1.503102952e-01  3.182948868e-01  3.564063656e-02
             2.914068994e-01  4.296281039e-02 -2.550096345e-03  7.590065186e-02  3.139534998e-01  3.006413230e-02 -7.843563690e-01 -6.054013163e-02
9.600000000 -1.720251440e-01  1.989069038e-02 -2.515950518e-01 -1.097677349e-01  8.155252468e-01 -5.363559592e-02  2.957031886e-01  2.433480524e-02
            -2.564872236e-01 -1.125540136e-01 -8.470591356e-02  8.711716897e-01 -1.034268950e-02  1.824437653e-01 -2.537435849e-03  7.029038315e-02
             8.304571418e-01 -5.582024195e-02 -6.534492258e-03  1.881524809e-01  6.867385784e-04  1.235483068e-01  3.229494051e-01  4.763155818e-03
             2.966267553e-01  2.170699965e-02  6.227835614e-03  7.222132571e-02  3.175518901e-01 -6.806260453e-04 -7.856105510e-01 -1.245480805e-03
9.650000000 -1.726830787e-01  1.445405225e-02 -2.402313361e-01 -9.885400136e-02  8.155097371e-01 -1.090836961e-01  2.994644300e-01  3.681165454e-03
            -2.457606050e-01 -1.013535964e-01 -2.638768038e-02  8.835277066e-01  1.126725223e-02  1.720745996e-01  4.886914954e-03  6.667455322e-02
             8.300707148e-01 -1.121789540e-01  1.555526276e-02  1.768317122e-01  1.176076904e-02  9.720748749e-02  3.243919337e-01 -2.613748033e-02
             2.995317795e-01  6.442225817e-04  1.395765903e-02  6.751010059e-02  3.178858076e-01 -3.130512287e-02 -7.827815153e-01  5.675968635e-02
9.700000000 -1.755704245e-01  1.007618306e-02 -2.296219052e-01 -8.994514207e-02  8.107514778e-01 -1.641883100e-01  3.011661094e-01 -1.663712153e-02
            -2.357571991e-01 -9.206686286e-02  3.193847978e-02  8.910002001e-01  3.055501168e-02  1.597713429e-01  1.135564245e-02  6.229155396e-02
             8.248792608e-01 -1.681284770e-01  3.520166121e-02  1.635395617e-01  2.004315696e-02  7.164618174e-02  3.227644516e-01 -5.671247794e-02
             3.003127160e-01 -1.990261536e-02  2.055187779e-02  6.201739049e-02  3.151226208e-01 -6.145070961e-02 -7.760860420e-01  1.133220541e-01
9.750000000 -1.803810142e-01  7.159211917e-03 -2.199417218e-01 -8.269769079e-02  8.014501877e-01 -2.184905606e-01  3.010029164e-01 -3.635866104e-02
            -2.266413865e-01 -8.435385178e-02  8.979813995e-02  8.938167434e-01  4.744008515e-02  1.459528331e-01  1.682550567e-02  5.735248671e-02
             8.150961507e-01 -2.232033125e-01  5.232464504e-02  1.487104142e-01  2.586073521e-02  4.714555806e-02  3.182396020e-01 -8.666184017e-02
             2.992032997e-01 -3.966920659e-02  2.597680704e-02  5.598444751e-02  3.094614324e-01 -9.081324264e-02 -7.657214751e-01  1.682983371e-01
9.800000000 -1.867534746e-01  6.027746566e-03 -2.112907792e-01 -7.677873543e-02  7.878427784e-01 -2.715934369e-01  2.991998291e-01 -5.527484930e-02
            -2.185016653e-01 -7.788620522e-02  1.467853973e-01  8.922466661e-01  6.190879812e-02  1.310094160e-01  2.129424995e-02  5.205428839e-02
             8.009739501e-01 -2.770041750e-01  6.691247392e-02  1.327491963e-01  2.955406424e-02  2.391277247e-02  3.110083279e-01 -1.157336512e-01
             2.964644203e-01 -5.845305518e-02  3.024403137e-02  4.963377545e-02  3.011191532e-01 -1.191424226e-01 -7.518701018e-01  2.215532965e-01
9.850000000 -1.942897944e-01  6.927141613e-03 -2.037055312e-01 -7.187635315e-02  7.701859675e-01 -3.231649326e-01  2.959995157e-01 -7.323249434e-02
            -2.113624521e-01 -7.235864186e-02  2.025666425e-01  8.865833353e-01  7.400152891e-02  1.152946554e-01  2.479279252e-02  4.657371698e-02
             7.827849654e-01 -3.292020485e-01  7.900882489e-02  1.160232131e-01  3.146341072e-02  2.086639059e-03  3.012688754e-01 -1.437221415e-01
             2.923693452e-01 -7.611392131e-02  3.340116076e-02  4.316282930e-02  2.903179185e-01 -1.462393006e-01 -7.347009283e-01  2.729613446e-01
9.866666667 -1.969886150e-01  7.709103475e-03 -2.014124411e-01 -7.041873936e-02  7.634466709e-01 -3.399647492e-01  2.946654969e-01 -7.898598258e-02
            -2.092015099e-01 -7.067719622e-02  2.208432138e-01  8.838387229e-01  7.751738022e-02  1.099404186e-01  2.575241460e-02  4.473360695e-02
             7.758668238e-01 -3.461959767e-01  8.250098141e-02  1.103356361e-01  3.176071917e-02 -4.860753078e-03  2.974995783e-01 -1.527806659e-01
             2.907505783e-01 -8.173484262e-02  3.421903490e-02  4.100929466e-02  2.862092981e-01 -1.549693394e-01 -7.282687477e-01  2.896648287e-01
9.900000000 -2.025720913e-01  1.002335226e-02 -1.971699476e-01 -6.771028437e-02  7.487471792e-01 -3.729224162e-01  2.916523690e-01 -9.012785190e-02
            -2.051961056e-01 -6.750042672e-02  2.568677549e-01  8.771325989e-01  8.379861248e-02  9.912235441e-02  2.737682080e-02  4.106453281e-02
             7.608099297e-01 -3.795221437e-01  8.869869753e-02  9.885927653e-02  3.191759599e-02 -1.825266088e-02  2.892205721e-01 -1.704584241e-01
             2.871927848e-01 -9.256525898e-02  3.552222141e-02  3.674138947e-02  2.772775861e-01 -1.719460945e-01 -7.143757163e-01  3.223953406e-01
9.950000000 -2.111757223e-01  1.540870413e-02 -1.916273684e-01 -6.403390249e-02  7.237915761e-01 -4.206354241e-01  2.864068469e-01 -1.059069175e-01
            -1.999361086e-01 -6.307733070e-02  3.094762051e-01  8.641990891e-01  9.140981919e-02  8.276506698e-02  2.912013860e-02  3.565611318e-02
             7.353229716e-01 -4.277455318e-01  9.609800582e-02  8.154203974e-02  3.122728985e-02 -3.707573634e-02  2.750569330e-01 -1.958085854e-01
             2.812013398e-01 -1.077719526e-01  3.669993498e-02  3.051041146e-02  2.622079728e-01 -1.961426707e-01 -6.910487099e-01  3.697336206e-01
10.000000000 -2.196797633e-01  2.310688524e-02 -1.869905248e-01 -6.063711037e-02  6.955759810e-01 -4.661146853e-01  2.805024476e-01 -1.205596138e-01
             -1.954883215e-01 -5.889389855e-02  3.602309989e-01  8.480780427e-01  9.696416081e-02  6.645590002e-02  3.010848111e-02  3.045388720e-02
              7.065843540e-01 -4.736959593e-01  1.013433825e-01  6.431553093e-02  2.968059283e-02 -5.439498160e-02  2.589621360e-01 -2.196668314e-01
              2.746475781e-01 -1.217425765e-01  3.703872973e-02  2.458296258e-02  2.453051866e-01 -2.187380670e-01 -6.648695136e-01  4.148559860e-01
10.050000000 -2.276750773e-01  3.307776246e-02 -1.831502368e-01 -5.734791416e-02  6.643487767e-01 -5.091986379e-01  2.741655398e-01 -1.341123781e-01
             -1.917405046e-01 -5.479385708e-02  4.090093592e-01  8.290524481e-01  1.006018642e-01  5.039222645e-02  3.043449588e-02  2.554076295e-02
              6.748403594e-01 -5.172237574e-01  1.045840113e-01  4.738653412e-02  2.754180714e-02 -7.025567215e-02  2.411103785e-01 -2.419481804e-01
              2.677674530e-01 -1.345210120e-01  3.664916731e-02  1.904623279e-02  2.267514840e-01 -2.396617945e-01 -6.359888627e-01  4.576386439e-01
10.100000000 -2.347697188e-01  4.522434119e-02 -1.799836212e-01 -5.402847968e-02  6.303399063e-01 -5.497579109e-01  2.676034274e-01 -1.466280633e-01
             -1.885706458e-01 -5.065452120e-02  4.557298260e-01  8.073836359e-01  1.024691019e-01  3.473788654e-02  3.019419000e-02  2.097819545e-02
              6.403142525e-01 -5.582082070e-01  1.059759909e-01  3.092637751e-02  2.505023806e-02 -8.473234698e-02  2.216608497e-01 -2.625876967e-01
              2.607758841e-01 -1.461861857e-01  3.564388444e-02  1.396306609e-02  2.067113111e-01 -2.588617866e-01 -6.045538382e-01  4.979630499e-01
10.133333333 -2.388156647e-01  5.445817724e-02 -1.781824390e-01 -5.174666620e-02  6.062305095e-01 -5.753373648e-01  2.631972324e-01 -1.544390517e-01
             -1.867161131e-01 -4.782774686e-02  4.857040031e-01  7.915905395e-01  1.028030650e-01  2.459706269e-02  2.976680372e-02  1.815282567e-02
              6.158553207e-01 -5.840627818e-01  1.059548130e-01  2.028417740e-02  2.330067669e-02 -9.366145719e-02  2.078799571e-01 -2.754083103e-01
              2.561499383e-01 -1.533954769e-01  3.468662424e-02  1.084750316e-02  1.926003606e-01 -2.706827463e-01 -5.822529820e-01  5.234199927e-01
10.150000000 -2.405943795e-01  5.939534356e-02 -1.773600499e-01 -5.057610043e-02  5.937681293e-01 -5.876772748e-01  2.610040051e-01 -1.581965897e-01
             -1.858523538e-01 -4.638646595e-02  5.003344464e-01  7.833155180e-01  1.027130572e-01  1.962840300e-02  2.948346727e-02  1.680839173e-02
              6.032157047e-01 -5.965377601e-01  1.056769031e-01  1.507603120e-02  2.242158771e-02 -9.792163535e-02  2.007605053e-01 -2.815315998e-01
              2.538675134e-01 -1.568434865e-01  3.413394968e-02  9.374795021e-03  1.853353640e-01 -2.762953122e-01 -5.707165445e-01  5.357070709e-01
10.200000000 -2.448067207e-01  7.538978115e-02 -1.751468970e-01 -4.691933495e-02  5.548375101e-01 -6.228557940e-01  2.545329346e-01 -1.689334728e-01
             -1.834594209e-01 -4.192860406e-02  5.427881336e-01  7.570713644e-01  1.014790760e-01  5.173895266e-03  2.839567546e-02  1.305582750e-02
              5.637397356e-01 -6.321098593e-01  1.038423746e-01 -5.098277061e-05  1.984795933e-02 -1.099401031e-01  1.785423283e-01 -2.987347245e-01
              2.472142018e-01 -1.666242575e-01  3.222621765e-02  5.303212840e-03  1.627600866e-01 -2.919265674e-01 -5.346321460e-01  5.707498654e-01
10.250000000 -2.470957568e-01  9.296074017e-02 -1.732142018e-01 -4.301467791e-02  5.137358644e-01 -6.552034742e-01  2.483314660e-01 -1.789774953e-01
             -1.812689912e-01 -3.724449335e-02  5.830758499e-01  7.288520937e-01  9.890819244e-02 -8.537849601e-03  2.701935357e-02  9.728996081e-03
              5.220675271e-01 -6.648284130e-01  1.006230532e-01 -1.436525466e-02  1.749728171e-02 -1.209222590e-01  1.551249703e-01 -3.141564614e-01
              2.409624520e-01 -1.756843312e-01  3.002099236e-02  1.752772874e-03  1.391081987e-01 -3.057233194e-01 -4.964576417e-01  6.029732927e-01
10.300000000 -2.471875567e-01  1.118176313e-01 -1.714380866e-01 -3.884531754e-02  4.706446230e-01 -6.846299553e-01  2.425175085e-01 -1.884848584e-01
             -1.791636226e-01 -3.232156857e-02  6.211911456e-01  6.988434456e-01  9.513558827e-02 -2.143714408e-02  2.543627009e-02  6.822728885e-03
              4.783781256e-01 -6.945942082e-01  9.616276377e-02 -2.779675097e-02  1.551489026e-02 -1.310162192e-01  1.306181521e-01 -3.277544404e-01
              2.352335135e-01 -1.841986840e-01  2.761016260e-02 -1.286649873e-03  1.144942753e-01 -3.176517952e-01 -4.563594246e-01  6.322573430e-01
10.350000000 -2.448495392e-01  1.316316719e-01 -1.697040490e-01 -3.441593921e-02  4.257332001e-01 -7.110478052e-01  2.371816743e-01 -1.976302715e-01
             -1.770334946e-01 -2.716679033e-02  6.571408267e-01  6.672105405e-01  9.028924657e-02 -3.347052239e-02  2.371996696e-02  4.319966663e-03
              4.328433112e-01 -7.213107224e-01  9.059699963e-02 -4.029243904e-02  1.402117205e-02 -1.403835823e-01  1.051218096e-01 -3.394831824e-01
              2.301183474e-01 -1.923621536e-01  2.507572989e-02 -3.837674801e-03  8.902365478e-02 -3.276760558e-01 -4.145071770e-01  6.584850491e-01
10.400000000 -2.398957971e-01  1.520400511e-01 -1.679089614e-01 -2.975047154e-02  3.791667700e-01 -7.343655425e-01  2.323867506e-01 -2.066029903e-01
             -1.747780080e-01 -2.180570356e-02  6.909381761e-01  6.341023714e-01  8.448932557e-02 -4.459728043e-02  2.193464811e-02  2.194183929e-03
              3.856348189e-01 -7.448794669e-01  8.405246906e-02 -5.181231520e-02  1.311213225e-02 -1.491958601e-01  7.873173868e-02 -3.492902735e-01
              2.256762273e-01 -2.003846140e-01  2.248885022e-02 -5.932670852e-03  6.279725562e-02 -3.357548235e-01 -3.710787320e-01  6.815395860e-01
10.450000000 -2.321920418e-01  1.726512932e-01 -1.659625206e-01 -2.488931178e-02  3.311126968e-01 -7.544846359e-01  2.281662862e-01 -2.156038467e-01
             -1.723074746e-01 -1.628091719e-02  7.225992045e-01  5.996549334e-01  7.784818081e-02 -5.478658254e-02  2.013462580e-02  4.116633836e-04
              3.369290971e-01 -7.651987289e-01  7.664747875e-02 -6.232619559e-02  1.285992045e-02 -1.576315426e-01  5.154485236e-02 -3.571148732e-01
              2.219329921e-01 -2.084867079e-01  1.990943464e-02 -7.611234705e-03  3.591582937e-02 -3.418400298e-01 -3.262637668e-01  7.013036838e-01
10.500000000 -2.216578950e-01  1.930526492e-01 -1.637884378e-01 -1.988467780e-02  2.817354574e-01 -7.713025902e-01  2.245191266e-01 -2.248452684e-01
             -1.695449440e-01 -1.064829872e-02  7.521471533e-01  5.639840654e-01  7.046995857e-02 -6.401580356e-02  1.836412600e-02 -1.066704792e-03
              2.868997501e-01 -7.821674072e-01  6.849185253e-02 -7.181199023e-02  1.331017435e-02 -1.658755509e-01  2.365927192e-02 -3.628883450e-01
              2.188760252e-01 -2.168984218e-01  1.738601882e-02 -8.918183876e-03  8.479443357e-03 -3.458767037e-01 -2.802581460e-01  7.176622779e-01
12.200000000 -1.788185081e-02  5.403087620e-02 -1.030330317e-01 -7.108871220e-03 -3.043891143e-01  1.056258889e-01 -7.727825293e-01 -3.209276759e-01
             -9.982761515e-02 -1.396694169e-02  3.506286718e-01 -8.214991855e-01 -6.356315570e-02  5.134124570e-02 -4.315333533e-02  7.431048276e-02
             -2.995048567e-01  1.040715711e-01 -8.466405528e-02  6.039268651e-02 -4.236099727e-01 -6.961203428e-01 -7.264385983e-02  2.395995552e-01
             -7.588644472e-01 -3.204668377e-01 -3.346226752e-02  8.110526332e-02 -4.270097584e-02  2.545419824e-01  1.441044868e-01  8.847069339e-03
12.250000000 -1.554987940e-02  7.014877214e-02 -1.062565939e-01 -7.437683542e-03 -2.818365499e-01  1.123009568e-01 -8.005791722e-01 -2.616070148e-01
             -1.040719911e-01 -1.424263385e-02  2.832939965e-01 -8.380786650e-01 -5.819281566e-02  5.520442342e-02 -3.618916062e-02  8.390001059e-02
             -2.764735239e-01  1.100001966e-01 -7.922237322e-02  6.592119331e-02 -4.581406586e-01 -6.877849218e-01 -5.058486188e-02  2.332939012e-01
             -7.862929565e-01 -2.621108921e-01 -2.544840530e-02  8.943028809e-02 -2.069447268e-02  2.472089402e-01  1.243698299e-01  1.117120378e-02
12.300000000 -9.798408934e-03  8.556747481e-02 -1.099124501e-01 -7.719502199e-03 -2.604444799e-01  1.169048669e-01 -8.227253629e-01 -2.000085981e-01
             -1.087271560e-01 -1.434394383e-02  2.121583635e-01 -8.489543615e-01 -5.261018295e-02  5.869887790e-02 -2.750441163e-02  9.289002874e-02
             -2.547095498e-01  1.138266704e-01 -7.338033715e-02  7.116865275e-02 -4.916191802e-01 -6.771345966e-01 -3.032246552e-02  2.250460461e-01
             -8.081772424e-01 -2.015417143e-01 -1.588551466e-02  9.698276120e-02 -5.225725268e-04  2.380171301e-01  1.061715529e-01  1.526720667e-02
12.350000000 -8.809119251e-04  9.971671618e-02 -1.141040277e-01 -7.895106823e-03 -2.403007209e-01  1.197474882e-01 -8.391190382e-01 -1.367617166e-01
             -1.138870782e-01 -1.420945962e-02  1.375086905e-01 -8.532714626e-01 -4.681156351e-02  6.183165865e-02 -1.710866941e-02  1.009833967e-01
             -2.342847663e-01  1.158758838e-01 -6.710526171e-02  7.612357361e-02 -5.239169763e-01 -6.643614895e-01 -1.198267143e-02  2.151613242e-01
             -8.244158836e-01 -1.393645955e-01 -4.814130604e-03  1.034869790e-01  1.769856083e-02  2.272681158e-01  8.955146275e-02  2.084283209e-02
12.400000000  1.087177947e-02  1.120958783e-01 -1.189334991e-01 -7.866688172e-03 -2.214415369e-01  1.211210952e-01 -8.497291545e-01 -7.247068780e-02
             -1.196407982e-01 -1.373639048e-02  5.978823644e-02 -8.501003441e-01 -4.078672786e-02  6.459971974e-02 -5.057196257e-03  1.078625777e-01
             -2.152193711e-01  1.164441704e-01 -6.035740403e-02  8.075707320e-02 -5.549396161e-01 -6.496501543e-01  4.349552360e-03  2.039376963e-01
             -8.349696619e-01 -7.616781965e-02  7.681083268e-03  1.086524002e-01  3.389299058e-02  2.152585007e-01  7.450757364e-02  2.763675139e-02
12.450000000  2.506468270e-02  1.222795974e-01 -1.244917030e-01 -7.494315574e-03 -2.038582279e-01  1.212938054e-01 -8.545847277e-01 -7.712724665e-03
             -1.260600238e-01 -1.277936287e-02 -2.035566715e-02 -8.384529235e-01 -3.452213500e-02  6.698746072e-02  8.538445187e-03  1.131932279e-01
             -1.974938124e-01  1.157947163e-01 -5.309493900e-02  8.501898749e-02 -5.846193579e-01 -6.331761846e-01  1.862358929e-02  1.916634829e-01
             -8.398570087e-01 -1.252415675e-02  2.146150294e-02  1.121777955e-01  4.802101239e-02  2.022771803e-01  6.100508379e-02  3.542510548e-02
12.500000000  4.125268359e-02  1.299234741e-01 -1.308452954e-01 -6.593442045e-03 -1.875025126e-01  1.205053248e-01 -8.537653396e-01  5.696779227e-02
             -1.331853075e-01 -1.115141128e-02 -1.020242136e-01 -8.173177995e-01 -2.800452494e-02  6.896519486e-02  2.349880685e-02  1.166320682e-01
             -1.810578331e-01  1.141575872e-01 -4.527987070e-02  8.883547060e-02 -6.129129136e-01 -6.151015698e-01  3.081990058e-02  1.786168667e-01
             -8.391524160e-01  5.101521370e-02  3.632418290e-02  1.137596307e-01  6.007789564e-02  1.886024662e-01  4.899029204e-02  4.402504108e-02
12.550000000  5.895217000e-02  1.347682441e-01 -1.380211193e-01 -4.937151222e-03 -1.722939588e-01  1.189605524e-01 -8.473930895e-01  1.210540399e-01
             -1.410111866e-01 -8.630189693e-03 -1.840136734e-01 -7.857186718e-01 -2.122612318e-02  7.048799104e-02  3.956358374e-02  1.178401800e-01
             -1.658388711e-01  1.117288807e-01 -3.688631148e-02  9.210737574e-02 -6.397940581e-01 -5.955771722e-01  4.094617619e-02  1.650657025e-01
             -8.329852869e-01  1.139205152e-01  5.199065189e-02  1.131058565e-01  7.009028000e-02  1.744987883e-01  3.840364627e-02  5.329331260e-02
12.566666667  6.510121140e-02  1.357293022e-01 -1.405925165e-01 -4.172330750e-03 -1.674614824e-01  1.183078208e-01 -8.440612637e-01  1.422003587e-01
             -1.437660914e-01 -7.548667228e-03 -2.111593605e-01 -7.727065841e-01 -1.890867722e-02  7.088465711e-02  4.510623765e-02  1.176915852e-01
             -1.610210419e-01  1.107729343e-01 -3.395807903e-02  9.305644098e-02 -6.484392630e-01 -5.887696215e-01  4.386713180e-02  1.604812429e-01
             -8.297454733e-01  1.346622360e-01  5.733164219e-02  1.123446460e-01  7.298265599e-02  1.697453578e-01  3.518313727e-02  5.651170909e-02
12.600000000  7.765827162e-02  1.366445107e-01 -1.459887604e-01 -2.261824397e-03 -1.581265735e-01  1.168269233e-01 -8.356260169e-01  1.840625001e-01
             -1.494715395e-01 -4.967112462e-03 -2.647837336e-01 -7.427987965e-01 -1.418959470e-02  7.149657374e-02  5.638249845e-02  1.165028878e-01
             -1.517468011e-01  1.086733323e-01 -2.790866526e-02  9.471190851e-02 -6.652550566e-01 -5.747353100e-01  4.903798698e-02  1.512668753e-01
             -8.215368885e-01  1.756976655e-01  6.810015924e-02  1.099555967e-01  7.811519557e-02  1.602124766e-01  2.919475060e-02  6.312099854e-02
12.650000000  9.685966671e-02  1.354737691e-01 -1.546431037e-01  1.718379522e-03 -1.448789786e-01  1.142301069e-01 -8.186551042e-01  2.455353657e-01
             -1.584264937e-01  9.601360028e-05 -3.424389378e-01 -6.879326558e-01 -6.914461093e-03  7.191951421e-02  7.350948402e-02  1.123562489e-01
             -1.386797049e-01  1.051236748e-01 -1.837174652e-02  9.650634403e-02 -6.892997011e-01 -5.526926206e-01  5.515688657e-02  1.374648114e-01
             -8.050355249e-01  2.358909183e-01  8.420672138e-02  1.041047942e-01  8.423445632e-02  1.459683033e-01  2.133149603e-02  7.342239812e-02
12.700000000  1.160561283e-01  1.312664873e-01 -1.637899030e-01  7.289857982e-03 -1.324247844e-01  1.112534765e-01 -7.967044584e-01  3.050388570e-01
             -1.676533020e-01  6.805265352e-03 -4.147527039e-01 -6.208581223e-01  5.572079455e-04  7.167811884e-02  9.040604388e-02  1.052191409e-01
             -1.265285410e-01  1.011810461e-01 -8.339948853e-03  9.733587823e-02 -7.119395653e-01 -5.295498724e-01  5.938976804e-02  1.238890371e-01
             -7.837492002e-01  2.940897443e-01  9.978551624e-02  9.543612225e-02  8.854926897e-02  1.319669971e-01  1.480478468e-02  8.412084211e-02
12.750000000  1.347783687e-01  1.241155123e-01 -1.731379040e-01  1.471157566e-02 -1.206421548e-01  1.079414402e-01 -7.700307737e-01  3.621690995e-01
             -1.768436421e-01  1.536900950e-02 -4.792453599e-01 -5.418108308e-01  8.157039370e-03  7.069381213e-02  1.064571689e-01  9.502723107e-02
             -1.151812663e-01  9.691617731e-02  2.076322739e-03  9.704544671e-02 -7.331928773e-01 -5.053867794e-01  6.184836050e-02  1.107505205e-01
             -7.579732151e-01  3.499385476e-01  1.142513234e-01  8.394922021e-02  9.117515164e-02  1.183838836e-01  9.628755274e-03  9.513454159e-02
12.800000000  1.526009631e-01  1.141837072e-01 -1.823013246e-01  2.417974531e-02 -1.094238663e-01  1.043038574e-01 -7.389269861e-01  4.165500296e-01
             -1.856099904e-01  2.592713344e-02 -5.333115830e-01 -4.516494072e-01  1.578798267e-02  6.889734426e-02  1.209993138e-01  8.186559250e-02
             -1.045290419e-01  9.236910346e-02  1.271638435e-02  9.549448051e-02 -7.530765033e-01 -4.802692494e-01  6.266519495e-02  9.823846789e-02
             -7.280202279e-01  4.031318479e-01  1.269879676e-01  6.978833829e-02  9.223460115e-02  1.053707178e-01  5.830539133e-03  1.063628496e-01
12.833333333  1.637992454e-01  1.061227887e-01 -1.880805989e-01  3.168318937e-02 -1.022143641e-01  1.016911262e-01 -7.158887038e-01  4.511102344e-01
             -1.909983746e-01  3.410045366e-02 -5.622998579e-01 -3.861060906e-01  2.083272983e-02  6.722290476e-02  1.295244781e-01  7.156084514e-02
             -9.776316289e-02  8.918814560e-02  1.983319344e-02  9.370458588e-02 -7.655794413e-01 -4.630166711e-01  6.237148414e-02  9.032709628e-02
             -7.058861252e-01  4.369932390e-01  1.342182535e-01  5.900620753e-02  9.213295812e-02  9.707700104e-02  4.079232236e-03  1.139065143e-01
12.850000000  1.691565947e-01  1.016874067e-01 -1.908153137e-01  3.579418877e-02 -9.868259450e-02  1.003251443e-01 -7.037178042e-01  4.678473832e-01
             -1.935027144e-01  3.852352324e-02 -5.744112151e-01 -3.519314444e-01  2.332683899e-02  6.623917509e-02  1.333642365e-01  6.599165933e-02
             -9.447070924e-02  8.755205883e-02  2.337217439e-02  9.257405129e-02 -7.716057305e-01 -4.542434955e-01  6.199069359e-02  8.651672138e-02
             -6.942046267e-01  4.534181938e-01  1.373914978e-01  5.325919885e-02  9.185358651e-02  9.305796978e-02  3.439921415e-03  1.176794940e-01
12.900000000  1.841390223e-01  8.687703184e-02 -1.981656249e-01  4.952699376e-02 -8.835444975e-02  9.597263112e-02 -6.647560480e-01  5.157728794e-01
             -2.000385614e-01  5.308105063e-02 -6.002923386e-01 -2.449305997e-01  3.062966250e-02  6.269931262e-02  1.429320801e-01  4.784472420e-02
             -8.491868063e-02  8.245184809e-02  3.379592928e-02  8.822367810e-02 -7.887880221e-01 -4.273433394e-01  5.998704065e-02  7.572221345e-02
             -6.568334716e-01  5.005890533e-01  1.449203097e-01  3.483252085e-02  9.015769148e-02  8.155959362e-02  2.472467363e-03  1.289308807e-01
12.950000000  1.973010437e-01  7.001796680e-02 -2.038305876e-01  6.520312483e-02 -7.839795042e-02  9.120525654e-02 -6.224115144e-01  5.600922934e-01
             -2.047387109e-01  6.938741838e-02 -6.092299415e-01 -1.335651863e-01  3.754161109e-02  5.829499631e-02  1.491902855e-01  2.803507922e-02
             -7.580322728e-02  7.703438509e-02  4.371511708e-02  8.244552186e-02 -8.046207201e-01 -3.995926369e-01  5.682258898e-02  6.596481019e-02
             -6.161984452e-01  5.444697197e-01  1.491485234e-01  1.512824015e-02  8.727160927e-02  7.097742109e-02  2.915776817e-03  1.399422968e-01
13.000000000  2.084470937e-01  5.137430277e-02 -2.073301870e-01  8.249830179e-02 -6.878960124e-02  8.598029020e-02 -5.770522626e-01  6.006312489e-01
             -2.071719987e-01  8.709586244e-02 -6.002382394e-01 -2.123208233e-02  4.390998064e-02  5.308423959e-02  1.517890215e-01  7.310245018e-03
             -6.707510969e-02  7.125042463e-02  5.285315814e-02  7.531271861e-02 -8.190908847e-01 -3.710031634e-01  5.266691363e-02  5.732880793e-02
             -5.725689833e-01  5.849107992e-01  1.498138853e-01 -5.120872842e-03  8.332101245e-02  6.140425732e-02  4.722277137e-03  1.505303307e-01
13.050000000  2.174163046e-01  3.119972345e-02 -2.082761688e-01  1.009531454e-01 -5.951936903e-02  8.025560877e-02 -5.290321637e-01  6.372653609e-01
             -2.069988041e-01  1.057389895e-01 -5.732190193e-01  8.842638707e-02  4.959728821e-02  4.716489990e-02  1.505828998e-01 -1.349684979e-02
             -5.870782669e-02  6.504059247e-02  6.095156877e-02  6.697060431e-02 -8.321715912e-01 -3.415861130e-01  4.768588495e-02  4.987691508e-02
             -5.261978305e-01  6.217714136e-01  1.468514146e-01 -2.512058274e-02  7.843444175e-02  5.292660349e-02  7.803060649e-03  1.605163516e-01
13.100000000  2.240685950e-01  9.735445968e-03 -2.064134317e-01  1.200084554e-01 -5.058510815e-02  7.398952127e-02 -4.786727858e-01  6.699112441e-01
             -2.040074213e-01  1.247608312e-01 -5.290167254e-01  1.918141936e-01  5.449438604e-02  4.066812353e-02  1.456526400e-01 -3.353564249e-02
             -5.069700821e-02  5.834131554e-02  6.779319282e-02  5.762885237e-02 -8.438237361e-01 -3.113494992e-01  4.203991680e-02  4.365423338e-02
             -4.773230798e-01  6.549132013e-01  1.404074516e-01 -4.407937576e-02  7.274692312e-02  4.562389947e-02  1.203389244e-02  1.697408563e-01
13.150000000  2.282700444e-01 -1.278303009e-02 -2.016469177e-01  1.390522364e-01 -4.199013705e-02  6.713704029e-02 -4.262572670e-01  6.985056506e-01
             -1.981386662e-01  1.435588322e-01 -4.693658490e-01  2.856717448e-01  5.852981750e-02  3.374781551e-02  1.373010081e-01 -5.200864630e-02
             -4.305929526e-02  5.108929202e-02  7.322060848e-02  4.754616879e-02 -8.539955278e-01 -2.803045147e-01  3.588345371e-02  3.869266747e-02
             -4.261784220e-01  6.841925953e-01  1.308300972e-01 -6.127305843e-02  6.640188096e-02  3.956671124e-02  1.726251668e-02  1.780729461e-01
13.200000000  2.298863336e-01 -3.611379979e-02 -1.940482629e-01  1.574744031e-01 -3.374368925e-02  5.964534042e-02 -3.720287342e-01  7.229854786e-01
             -1.894934816e-01  1.615334867e-01 -3.967345003e-01  3.673319862e-01  6.167501981e-02  2.656696685e-02  1.260237352e-01 -6.823701911e-02
             -3.582987304e-02  4.322530373e-02  7.714835020e-02  3.700876572e-02 -8.626239830e-01 -2.484638151e-01  2.936654892e-02  3.501390092e-02
             -3.729993801e-01  7.094611168e-01  1.186373208e-01 -7.610280333e-02  5.955179658e-02  3.481313546e-02  2.332110115e-02  1.854150284e-01
