! yapnr rf: line-osh-w-w3p00-l60-w-eq-em528, footprint re-simulated (optimization grid)
! spec sha256 33c84050399ce9df7441f2261f7a681289e506ee24f4cdd1bfefd2b7cfc4a87a
! 2 ports renormalized to 50 ohm, e^(+jwt) convention
# GHz S RI R 50
3.000000000 -4.167071392e-03 -6.913556299e-03  9.012050758e-01 -3.308987642e-01  9.012050758e-01 -3.308987642e-01 -4.167071392e-03 -6.913556299e-03
3.025000000 -4.957347095e-03 -7.781411275e-03  8.812887226e-01 -3.807178623e-01  8.812887226e-01 -3.807178623e-01 -4.957347095e-03 -7.781411275e-03
3.050000000 -5.827915758e-03 -8.535217328e-03  8.586166666e-01 -4.293520666e-01  8.586166666e-01 -4.293520666e-01 -5.827915758e-03 -8.535217328e-03
3.075000000 -6.764883405e-03 -9.167119219e-03  8.332567618e-01 -4.766526073e-01  8.332567618e-01 -4.766526073e-01 -6.764883405e-03 -9.167119219e-03
3.100000000 -7.753286467e-03 -9.672163642e-03  8.052902237e-01 -5.224655082e-01  8.052902237e-01 -5.224655082e-01 -7.753286467e-03 -9.672163642e-03
3.125000000 -8.778333147e-03 -1.004621012e-02  7.748003939e-01 -5.666520032e-01  7.748003939e-01 -5.666520032e-01 -8.778333147e-03 -1.004621012e-02
3.150000000 -9.824352097e-03 -1.028747059e-02  7.418850205e-01 -6.090683716e-01  7.418850205e-01 -6.090683716e-01 -9.824352097e-03 -1.028747059e-02
3.175000000 -1.087657998e-02 -1.039571175e-02  7.066428617e-01 -6.495854680e-01  7.066428617e-01 -6.495854680e-01 -1.087657998e-02 -1.039571175e-02
3.200000000 -1.191948541e-02 -1.037245702e-02  6.691864655e-01 -6.880720793e-01  6.691864655e-01 -6.880720793e-01 -1.191948541e-02 -1.037245702e-02
3.225000000 -1.293910474e-02 -1.022098041e-02  6.296291271e-01 -7.244100844e-01  6.296291271e-01 -7.244100844e-01 -1.293910474e-02 -1.022098041e-02
3.250000000 -1.392086862e-02 -9.945884989e-03  5.880963579e-01 -7.584824663e-01  5.880963579e-01 -7.584824663e-01 -1.392086862e-02 -9.945884989e-03
3.275000000 -1.485219811e-02 -9.553581413e-03  5.447149266e-01 -7.901835648e-01  5.447149266e-01 -7.901835648e-01 -1.485219811e-02 -9.553581413e-03
3.300000000 -1.572021393e-02 -9.051432954e-03  4.996216115e-01 -8.194117338e-01  4.996216115e-01 -8.194117338e-01 -1.572021393e-02 -9.051432954e-03
3.325000000 -1.651420423e-02 -8.448505024e-03  4.529552481e-01 -8.460753174e-01  4.529552481e-01 -8.460753174e-01 -1.651420423e-02 -8.448505024e-03
3.350000000 -1.722372508e-02 -7.754628421e-03  4.048623088e-01 -8.700889270e-01  4.048623088e-01 -8.700889270e-01 -1.722372508e-02 -7.754628421e-03
3.375000000 -1.784030311e-02 -6.980884319e-03  3.554920407e-01 -8.913763698e-01  3.554920407e-01 -8.913763698e-01 -1.784030311e-02 -6.980884319e-03
3.400000000 -1.835661853e-02 -6.139075394e-03  3.049988516e-01 -9.098693566e-01  3.049988516e-01 -9.098693566e-01 -1.835661853e-02 -6.139075394e-03
3.425000000 -1.876670955e-02 -5.241597404e-03  2.535406952e-01 -9.255083732e-01  2.535406952e-01 -9.255083732e-01 -1.876670955e-02 -5.241597404e-03
3.450000000 -1.906674307e-02 -4.301420548e-03  2.012777914e-01 -9.382429958e-01  2.012777914e-01 -9.382429958e-01 -1.906674307e-02 -4.301420548e-03
3.475000000 -1.925342651e-02 -3.331542780e-03  1.483750698e-01 -9.480313716e-01  1.483750698e-01 -9.480313716e-01 -1.925342651e-02 -3.331542780e-03
3.500000000 -1.932679866e-02 -2.345299870e-03  9.499528853e-02 -9.548415297e-01  9.499528853e-02 -9.548415297e-01 -1.932679866e-02 -2.345299870e-03
3.525000000 -1.928514949e-02 -1.355408749e-03  4.131098799e-02 -9.586498250e-01  4.131098799e-02 -9.586498250e-01 -1.928514949e-02 -1.355408749e-03
3.550000000 -1.913217741e-02 -3.748786231e-04 -1.251431797e-02 -9.594429399e-01 -1.251431797e-02 -9.594429399e-01 -1.913217741e-02 -3.748786231e-04
3.575000000 -1.886950272e-02  5.841455159e-04 -6.630807002e-02 -9.572165134e-01 -6.630807002e-02 -9.572165134e-01 -1.886950272e-02  5.841455159e-04
3.600000000 -1.850346337e-02  1.509821866e-03 -1.199049877e-01 -9.519754284e-01 -1.199049877e-01 -9.519754284e-01 -1.850346337e-02  1.509821866e-03
3.625000000 -1.803723092e-02  2.391148525e-03 -1.731316244e-01 -9.437347916e-01 -1.731316244e-01 -9.437347916e-01 -1.803723092e-02  2.391148525e-03
3.650000000 -1.748068478e-02  3.218068295e-03 -2.258253077e-01 -9.325177433e-01 -2.258253077e-01 -9.325177433e-01 -1.748068478e-02  3.218068295e-03
3.675000000 -1.683839536e-02  3.980984769e-03 -2.778141252e-01 -9.183589423e-01 -2.778141252e-01 -9.183589423e-01 -1.683839536e-02  3.980984769e-03
3.700000000 -1.612295723e-02  4.672428351e-03 -3.289396878e-01 -9.012993630e-01 -3.289396878e-01 -9.012993630e-01 -1.612295723e-02  4.672428351e-03
3.725000000 -1.534022539e-02  5.284558371e-03 -3.790335673e-01 -8.813931962e-01 -3.790335673e-01 -8.813931962e-01 -1.534022539e-02  5.284558371e-03
3.750000000 -1.450416888e-02  5.812804800e-03 -4.279434123e-01 -8.586987790e-01 -4.279434123e-01 -8.586987790e-01 -1.450416888e-02  5.812804800e-03
3.775000000 -1.362238713e-02  6.251811850e-03 -4.755078815e-01 -8.332888169e-01 -4.755078815e-01 -8.332888169e-01 -1.362238713e-02  6.251811850e-03
3.800000000 -1.270855182e-02  6.599591639e-03 -5.215811720e-01 -8.052389235e-01 -5.215811720e-01 -8.052389235e-01 -1.270855182e-02  6.599591639e-03
3.825000000 -1.177136544e-02  6.853586589e-03 -5.660117563e-01 -7.746390592e-01 -5.660117563e-01 -7.746390592e-01 -1.177136544e-02  6.853586589e-03
3.850000000 -1.082385706e-02  7.014250922e-03 -6.086621722e-01 -7.415815014e-01 -6.086621722e-01 -7.415815014e-01 -1.082385706e-02  7.014250922e-03
3.875000000 -9.874951251e-03  7.081649906e-03 -6.493927700e-01 -7.061720155e-01 -6.493927700e-01 -7.061720155e-01 -9.874951251e-03  7.081649906e-03
3.900000000 -8.936667431e-03  7.058600646e-03 -6.880761810e-01 -6.685187452e-01 -6.880761810e-01 -6.685187452e-01 -8.936667431e-03  7.058600646e-03
3.925000000 -8.017654033e-03  6.947540579e-03 -7.245862954e-01 -6.287417157e-01 -7.245862954e-01 -6.287417157e-01 -8.017654033e-03  6.947540579e-03
3.950000000 -7.128391473e-03  6.753418568e-03 -7.588076783e-01 -5.869638335e-01 -7.588076783e-01 -5.869638335e-01 -7.128391473e-03  6.753418568e-03
3.975000000 -6.277050648e-03  6.481077048e-03 -7.906293596e-01 -5.433174446e-01 -7.906293596e-01 -5.433174446e-01 -6.277050648e-03  6.481077048e-03
4.000000000 -5.471990383e-03  6.137085541e-03 -8.199495001e-01 -4.979389028e-01 -8.199495001e-01 -4.979389028e-01 -5.471990383e-03  6.137085541e-03
4.025000000 -4.719414428e-03  5.727505593e-03 -8.466717486e-01 -4.509741223e-01 -8.466717486e-01 -4.509741223e-01 -4.719414428e-03  5.727505593e-03
4.050000000 -4.026441765e-03  5.261085929e-03 -8.707115020e-01 -4.025682031e-01 -8.707115020e-01 -4.025682031e-01 -4.026441765e-03  5.261085929e-03
4.075000000 -3.397826793e-03  4.745801069e-03 -8.919901243e-01 -3.528751088e-01 -8.919901243e-01 -3.528751088e-01 -3.397826793e-03  4.745801069e-03
4.100000000 -2.837348883e-03  4.190020884e-03 -9.104380111e-01 -3.020529344e-01 -9.104380111e-01 -3.020529344e-01 -2.837348883e-03  4.190020884e-03
4.125000000 -2.348058098e-03  3.602933942e-03 -9.259953019e-01 -2.502613681e-01 -9.259953019e-01 -2.502613681e-01 -2.348058098e-03  3.602933942e-03
4.150000000 -1.931393162e-03  2.993083633e-03 -9.386102719e-01 -1.976667205e-01 -9.386102719e-01 -1.976667205e-01 -1.931393162e-03  2.993083633e-03
4.175000000 -1.588314986e-03  2.369807641e-03 -9.482417264e-01 -1.444333024e-01 -9.482417264e-01 -1.444333024e-01 -1.588314986e-03  2.369807641e-03
4.200000000 -1.318036401e-03  1.741363333e-03 -9.548567811e-01 -9.073353552e-02 -9.548567811e-01 -9.073353552e-02 -1.318036401e-03  1.741363333e-03
4.225000000 -1.119585098e-03  1.116771293e-03 -9.584331640e-01 -3.673402192e-02 -9.584331640e-01 -3.673402192e-02 -1.119585098e-03  1.116771293e-03
4.250000000 -9.902454222e-04  5.036700754e-04 -9.589574784e-01  1.738988367e-02 -9.589574784e-01  1.738988367e-02 -9.902454222e-04  5.036700754e-04
4.275000000 -9.268519485e-04 -9.022150647e-05 -9.564265412e-01  7.146612651e-02 -9.564265412e-01  7.146612651e-02 -9.268519485e-04 -9.022150647e-05
4.300000000 -9.253579692e-04 -6.577862441e-04 -9.508469169e-01  1.253219790e-01 -9.508469169e-01  1.253219790e-01 -9.253579692e-04 -6.577862441e-04
4.325000000 -9.811768542e-04 -1.192465588e-03 -9.422341403e-01  1.787896373e-01 -9.422341403e-01  1.787896373e-01 -9.811768542e-04 -1.192465588e-03
4.350000000 -1.088551794e-03 -1.688777173e-03 -9.306151383e-01  2.316917486e-01 -9.306151383e-01  2.316917486e-01 -1.088551794e-03 -1.688777173e-03
4.375000000 -1.241831792e-03 -2.141876602e-03 -9.160238989e-01  2.838658938e-01 -9.160238989e-01  2.838658938e-01 -1.241831792e-03 -2.141876602e-03
4.400000000 -1.434330038e-03 -2.547606826e-03 -8.985073611e-01  3.351382152e-01 -8.985073611e-01  3.351382152e-01 -1.434330038e-03 -2.547606826e-03
4.425000000 -1.659697385e-03 -2.903195612e-03 -8.781177311e-01  3.853509621e-01 -8.781177311e-01  3.853509621e-01 -1.659697385e-03 -2.903195612e-03
4.450000000 -1.910788955e-03 -3.206029658e-03 -8.549210282e-01  4.343372041e-01 -8.549210282e-01  4.343372041e-01 -1.910788955e-03 -3.206029658e-03
4.475000000 -2.181033189e-03 -3.455290183e-03 -8.289874562e-01  4.819449779e-01 -8.289874562e-01  4.819449779e-01 -2.181033189e-03 -3.455290183e-03
4.500000000 -2.463416942e-03 -3.650234389e-03 -8.003998956e-01  5.280183643e-01 -8.003998956e-01  5.280183643e-01 -2.463416942e-03 -3.650234389e-03
4.525000000 -2.751173499e-03 -3.791094852e-03 -7.692487966e-01  5.724087807e-01 -7.692487966e-01  5.724087807e-01 -2.751173499e-03 -3.791094852e-03
4.550000000 -3.037831137e-03 -3.879030965e-03 -7.356322649e-01  6.149738424e-01 -7.356322649e-01  6.149738424e-01 -3.037831137e-03 -3.879030965e-03
4.575000000 -3.317593234e-03 -3.916461164e-03 -6.996548623e-01  6.555783153e-01 -6.996548623e-01  6.555783153e-01 -3.317593234e-03 -3.916461164e-03
4.600000000 -3.584365532e-03 -3.905419119e-03 -6.614323867e-01  6.940888898e-01 -6.614323867e-01  6.940888898e-01 -3.584365532e-03 -3.905419119e-03
4.625000000 -3.833263273e-03 -3.849561420e-03 -6.210846193e-01  7.303825121e-01 -6.210846193e-01  7.303825121e-01 -3.833263273e-03 -3.849561420e-03
4.650000000 -4.059431704e-03 -3.752405456e-03 -5.787407281e-01  7.643406751e-01 -5.787407281e-01  7.643406751e-01 -4.059431704e-03 -3.752405456e-03
4.675000000 -4.259035541e-03 -3.618372966e-03 -5.345346650e-01  7.958537960e-01 -5.345346650e-01  7.958537960e-01 -4.259035541e-03 -3.618372966e-03
4.700000000 -4.428786997e-03 -3.452064318e-03 -4.886074448e-01  8.248192210e-01 -4.886074448e-01  8.248192210e-01 -4.428786997e-03 -3.452064318e-03
4.725000000 -4.566000349e-03 -3.258277105e-03 -4.411057008e-01  8.511424807e-01 -4.411057008e-01  8.511424807e-01 -4.566000349e-03 -3.258277105e-03
4.750000000 -4.669334238e-03 -3.042446043e-03 -3.921791339e-01  8.747385094e-01 -3.921791339e-01  8.747385094e-01 -4.669334238e-03 -3.042446043e-03
4.775000000 -4.736605822e-03 -2.808757849e-03 -3.419883157e-01  8.955280678e-01 -3.419883157e-01  8.955280678e-01 -4.736605822e-03 -2.808757849e-03
4.800000000 -4.768280934e-03 -2.563025860e-03 -2.906897746e-01  9.134445863e-01 -2.906897746e-01  9.134445863e-01 -4.768280934e-03 -2.563025860e-03
4.825000000 -4.763962722e-03 -2.309689677e-03 -2.384500214e-01  9.284280409e-01 -2.384500214e-01  9.284280409e-01 -4.763962722e-03 -2.309689677e-03
4.850000000 -4.725165000e-03 -2.053952986e-03 -1.854336612e-01  9.404293375e-01 -1.854336612e-01  9.404293375e-01 -4.725165000e-03 -2.053952986e-03
4.875000000 -4.652164568e-03 -1.799530933e-03 -1.318144743e-01  9.494073655e-01 -1.318144743e-01  9.494073655e-01 -4.652164568e-03 -1.799530933e-03
4.900000000 -4.548223241e-03 -1.551293074e-03 -7.776024064e-02  9.553322152e-01 -7.776024064e-02  9.553322152e-01 -4.548223241e-03 -1.551293074e-03
4.925000000 -4.414093631e-03 -1.312137705e-03 -2.344952762e-02  9.581825543e-01 -2.344952762e-02  9.581825543e-01 -4.414093631e-03 -1.312137705e-03
4.950000000 -4.254520165e-03 -1.086068608e-03  3.094836099e-02  9.579476846e-01  3.094836099e-02  9.579476846e-01 -4.254520165e-03 -1.086068608e-03
4.975000000 -4.070600004e-03 -8.751031898e-04  8.525222682e-02  9.546266375e-01  8.525222682e-02  9.546266375e-01 -4.070600004e-03 -8.751031898e-04
5.000000000 -3.868063449e-03 -6.820033355e-04  1.392935747e-01  9.482279028e-01  1.392935747e-01  9.482279028e-01 -3.868063449e-03 -6.820033355e-04
5.025000000 -3.648271790e-03 -5.077885362e-04  1.928907355e-01  9.387712431e-01  1.928907355e-01  9.387712431e-01 -3.648271790e-03 -5.077885362e-04
5.050000000 -3.417148246e-03 -3.538549797e-04  2.458778058e-01  9.262841594e-01  2.458778058e-01  9.262841594e-01 -3.417148246e-03 -3.538549797e-04
5.075000000 -3.176532735e-03 -2.201928345e-04  2.980767367e-01  9.108067915e-01  2.980767367e-01  9.108067915e-01 -3.176532735e-03 -2.201928345e-04
5.100000000 -2.931665411e-03 -1.068870652e-04  3.493246259e-01  8.923856433e-01  3.493246259e-01  8.923856433e-01 -2.931665411e-03 -1.068870652e-04
5.125000000 -2.684510477e-03 -1.296716630e-05  3.994500784e-01  8.710804429e-01  3.994500784e-01  8.710804429e-01 -2.684510477e-03 -1.296716630e-05
5.150000000 -2.439518758e-03  6.261787144e-05  4.482952086e-01  8.469564289e-01  4.482952086e-01  8.469564289e-01 -2.439518758e-03  6.261787144e-05
5.175000000 -2.198397984e-03  1.215916080e-04  4.956975301e-01  8.200918677e-01  4.956975301e-01  8.200918677e-01 -2.198397984e-03  1.215916080e-04
5.200000000 -1.964644067e-03  1.659841843e-04  5.415062567e-01  7.905702239e-01  5.415062567e-01  7.905702239e-01 -1.964644067e-03  1.659841843e-04
5.225000000 -1.739670371e-03  1.981150528e-04  5.855700897e-01  7.584868263e-01  5.855700897e-01  7.584868263e-01 -1.739670371e-03  1.981150528e-04
5.250000000 -1.525706507e-03  2.207260099e-04  6.277472805e-01  7.239426528e-01  6.277472805e-01  7.239426528e-01 -1.525706507e-03  2.207260099e-04
5.275000000 -1.323128321e-03  2.364565649e-04  6.678972153e-01  6.870507260e-01  6.678972153e-01  6.870507260e-01 -1.323128321e-03  2.364565649e-04
5.300000000 -1.133533476e-03  2.485527855e-04  7.058919606e-01  6.479263040e-01  7.058919606e-01  6.479263040e-01 -1.133533476e-03  2.485527855e-04
5.325000000 -9.567445277e-04  2.599960501e-04  7.416056841e-01  6.066962581e-01  7.416056841e-01  6.066962581e-01 -9.567445277e-04  2.599960501e-04
5.350000000 -7.924289665e-04  2.738138609e-04  7.749215536e-01  5.634928210e-01  7.749215536e-01  5.634928210e-01 -7.924289665e-04  2.738138609e-04
5.375000000 -6.397551198e-04  2.929753330e-04  8.057303089e-01  5.184547733e-01  8.057303089e-01  5.184547733e-01 -6.397551198e-04  2.929753330e-04
5.400000000 -4.972568631e-04  3.201419751e-04  8.339301381e-01  4.717279069e-01  8.339301381e-01  4.717279069e-01 -4.972568631e-04  3.201419751e-04
5.425000000 -3.632060442e-04  3.578210649e-04  8.594288144e-01  4.234616174e-01  8.594288144e-01  4.234616174e-01 -3.632060442e-04  3.578210649e-04
5.450000000 -2.352371080e-04  4.080434116e-04  8.821411142e-01  3.738135408e-01  8.821411142e-01  3.738135408e-01 -2.352371080e-04  4.080434116e-04
5.475000000 -1.108915530e-04  4.725986901e-04  9.019929421e-01  3.229412989e-01  9.019929421e-01  3.229412989e-01 -1.108915530e-04  4.725986901e-04
5.500000000  1.282211344e-05  5.526830504e-04  9.189171732e-01  2.710118003e-01  9.189171732e-01  2.710118003e-01  1.282211344e-05  5.526830504e-04
5.525000000  1.389693271e-04  6.490986740e-04  9.328572025e-01  2.181935140e-01  9.328572025e-01  2.181935140e-01  1.389693271e-04  6.490986740e-04
5.550000000  2.707636999e-04  7.621802637e-04  9.437662944e-01  1.646570568e-01  9.437662944e-01  1.646570568e-01  2.707636999e-04  7.621802637e-04
5.575000000  4.116041750e-04  8.916879166e-04  9.516076517e-01  1.105731971e-01  9.516076517e-01  1.105731971e-01  4.116041750e-04  8.916879166e-04
5.600000000  5.647372990e-04  1.036876080e-03  9.563532720e-01  5.612272209e-02  9.563532720e-01  5.612272209e-02  5.647372990e-04  1.036876080e-03
5.625000000  7.336030476e-04  1.196306777e-03  9.579863975e-01  1.476975468e-03  9.579863975e-01  1.476975468e-03  7.336030476e-04  1.196306777e-03
5.650000000  9.210719430e-04  1.368259788e-03  9.564997612e-01 -5.317981557e-02  9.564997612e-01 -5.317981557e-02  9.210719430e-04  1.368259788e-03
5.675000000  1.130302351e-03  1.550076343e-03  9.518962423e-01 -1.076762557e-01  9.518962423e-01 -1.076762557e-01  1.130302351e-03  1.550076343e-03
5.700000000  1.363449688e-03  1.739106053e-03  9.441896556e-01 -1.618278273e-01  9.441896556e-01 -1.618278273e-01  1.363449688e-03  1.739106053e-03
5.725000000  1.623033914e-03  1.931681411e-03  9.334024753e-01 -2.154642669e-01  9.334024753e-01 -2.154642669e-01  1.623033914e-03  1.931681411e-03
5.750000000  1.910408119e-03  2.124259496e-03  9.195688048e-01 -2.684061776e-01  9.195688048e-01 -2.684061776e-01  1.910408119e-03  2.124259496e-03
5.775000000  2.226685500e-03  2.312811279e-03  9.027321347e-01 -3.204807782e-01  9.027321347e-01 -3.204807782e-01  2.226685500e-03  2.312811279e-03
5.800000000  2.572381208e-03  2.493145093e-03  8.829459351e-01 -3.715174509e-01  8.829459351e-01 -3.715174509e-01  2.572381208e-03  2.493145093e-03
5.825000000  2.947750743e-03  2.660453680e-03  8.602718824e-01 -4.213519358e-01  8.602718824e-01 -4.213519358e-01  2.947750743e-03  2.660453680e-03
5.850000000  3.351794407e-03  2.810682805e-03  8.347838973e-01 -4.698173570e-01  8.347838973e-01 -4.698173570e-01  3.351794407e-03  2.810682805e-03
5.875000000  3.783429220e-03  2.938899992e-03  8.065623470e-01 -5.167571288e-01  8.065623470e-01 -5.167571288e-01  3.783429220e-03  2.938899992e-03
5.900000000  4.240511426e-03  3.040985963e-03  7.756991266e-01 -5.620149155e-01  7.756991266e-01 -5.620149155e-01  4.240511426e-03  3.040985963e-03
5.925000000  4.720510371e-03  3.112402075e-03  7.422926827e-01 -6.054432495e-01  7.422926827e-01 -6.054432495e-01  4.720510371e-03  3.112402075e-03
5.950000000  5.220006815e-03  3.149267815e-03  7.064517169e-01 -6.468978987e-01  7.064517169e-01 -6.468978987e-01  5.220006815e-03  3.149267815e-03
5.975000000  5.735128713e-03  3.147862165e-03  6.682916906e-01 -6.862426818e-01  6.682916906e-01 -6.862426818e-01  5.735128713e-03  3.147862165e-03
6.000000000  6.261366191e-03  3.104835164e-03  6.279355551e-01 -7.233481558e-01  6.279355551e-01 -7.233481558e-01  6.261366191e-03  3.104835164e-03
6.025000000  6.793379840e-03  3.018033515e-03  5.855170332e-01 -7.580891674e-01  5.855170332e-01 -7.580891674e-01  6.793379840e-03  3.018033515e-03
6.050000000  7.325903888e-03  2.885091498e-03  5.411716151e-01 -7.903527087e-01  5.411716151e-01 -7.903527087e-01  7.325903888e-03  2.885091498e-03
6.075000000  7.852994679e-03  2.704894568e-03  4.950445793e-01 -8.200309301e-01  4.950445793e-01 -8.200309301e-01  7.852994679e-03  2.704894568e-03
6.100000000  8.368677439e-03  2.476734112e-03  4.472849093e-01 -8.470258812e-01  4.472849093e-01 -8.470258812e-01  8.368677439e-03  2.476734112e-03
6.125000000  8.866501549e-03  2.201256268e-03  3.980504780e-01 -8.712464003e-01  3.980504780e-01 -8.712464003e-01  8.866501549e-03  2.201256268e-03
6.150000000  9.340358117e-03  1.879043878e-03  3.474993346e-01 -8.926128101e-01  3.474993346e-01 -8.926128101e-01  9.340358117e-03  1.879043878e-03
6.175000000  9.783805312e-03  1.512585581e-03  2.957997227e-01 -9.110521548e-01  2.957997227e-01 -9.110521548e-01  9.783805312e-03  1.512585581e-03
6.200000000  1.019077389e-02  1.103906013e-03  2.431171638e-01 -9.265035489e-01  2.431171638e-01 -9.265035489e-01  1.019077389e-02  1.103906013e-03
6.225000000  1.055526377e-02  6.572606571e-04  1.896281714e-01 -9.389134391e-01  1.896281714e-01 -9.389134391e-01  1.055526377e-02  6.572606571e-04
6.250000000  1.087167207e-02  1.762647882e-04  1.355034952e-01 -9.482404113e-01  1.355034952e-01 -9.482404113e-01  1.087167207e-02  1.762647882e-04
6.275000000  1.113471667e-02 -3.332104419e-04  8.092585077e-02 -9.544512496e-01  8.092585077e-02 -9.544512496e-01  1.113471667e-02 -3.332104419e-04
6.300000000  1.133993459e-02 -8.659863852e-04  2.606870350e-02 -9.575244488e-01  2.606870350e-02 -9.575244488e-01  1.133993459e-02 -8.659863852e-04
6.325000000  1.148304441e-02 -1.414719438e-03 -2.888122345e-02 -9.574478524e-01 -2.888122345e-02 -9.574478524e-01  1.148304441e-02 -1.414719438e-03
6.350000000  1.156127130e-02 -1.972946635e-03 -8.374969366e-02 -9.542199936e-01 -8.374969366e-02 -9.542199936e-01  1.156127130e-02 -1.972946635e-03
6.375000000  1.157191296e-02 -2.532275550e-03 -1.383500880e-01 -9.478500969e-01 -1.383500880e-01 -9.478500969e-01  1.157191296e-02 -2.532275550e-03
6.400000000  1.151399317e-02 -3.085254301e-03 -1.925079946e-01 -9.383567706e-01 -1.925079946e-01 -9.383567706e-01  1.151399317e-02 -3.085254301e-03
6.425000000  1.138690050e-02 -3.622977123e-03 -2.460401069e-01 -9.257703230e-01 -2.460401069e-01 -9.257703230e-01  1.138690050e-02 -3.622977123e-03
6.450000000  1.119149495e-02 -4.137417821e-03 -2.987739243e-01 -9.101294873e-01 -2.987739243e-01 -9.101294873e-01  1.119149495e-02 -4.137417821e-03
6.475000000  1.092941959e-02 -4.619736231e-03 -3.505321581e-01 -8.914848791e-01 -3.505321581e-01 -8.914848791e-01  1.092941959e-02 -4.619736231e-03
6.500000000  1.060349041e-02 -5.061742245e-03 -4.011462958e-01 -8.698952003e-01 -4.011462958e-01 -8.698952003e-01  1.060349041e-02 -5.061742245e-03
6.525000000  1.021749123e-02 -5.454999864e-03 -4.504452885e-01 -8.454314352e-01 -4.504452885e-01 -8.454314352e-01  1.021749123e-02 -5.454999864e-03
6.550000000  9.776340113e-03 -5.791883360e-03 -4.982693485e-01 -8.181707920e-01 -4.982693485e-01 -8.181707920e-01  9.776340113e-03 -5.791883360e-03
6.575000000  9.285850426e-03 -6.064884692e-03 -5.444575775e-01 -7.882026575e-01 -5.444575775e-01 -7.882026575e-01  9.285850426e-03 -6.064884692e-03
6.600000000  8.752944973e-03 -6.267301146e-03 -5.888574332e-01 -7.556236962e-01 -5.888574332e-01 -7.556236962e-01  8.752944973e-03 -6.267301146e-03
6.625000000  8.185337492e-03 -6.393080418e-03 -6.313204472e-01 -7.205403901e-01 -6.313204472e-01 -7.205403901e-01  8.185337492e-03 -6.393080418e-03
6.650000000  7.591677025e-03 -6.437125921e-03 -6.717052720e-01 -6.830669905e-01 -6.717052720e-01 -6.830669905e-01  7.591677025e-03 -6.437125921e-03
6.675000000  6.981292486e-03 -6.395309981e-03 -7.098771915e-01 -6.433257661e-01 -7.098771915e-01 -6.433257661e-01  6.981292486e-03 -6.395309981e-03
6.700000000  6.364097277e-03 -6.264619751e-03 -7.457080322e-01 -6.014473135e-01 -7.457080322e-01 -6.014473135e-01  6.364097277e-03 -6.264619751e-03
6.725000000  5.750572932e-03 -6.043195255e-03 -7.790785502e-01 -5.575678691e-01 -7.790785502e-01 -5.575678691e-01  5.750572932e-03 -6.043195255e-03
6.750000000  5.151338041e-03 -5.730480567e-03 -8.098756611e-01 -5.118328050e-01 -8.098756611e-01 -5.118328050e-01  5.151338041e-03 -5.730480567e-03
6.775000000  4.577490206e-03 -5.327029783e-03 -8.379969050e-01 -4.643905546e-01 -8.379969050e-01 -4.643905546e-01  4.577490206e-03 -5.327029783e-03
6.800000000  4.039749308e-03 -4.834964832e-03 -8.633460778e-01 -4.153993766e-01 -8.633460778e-01 -4.153993766e-01  4.039749308e-03 -4.834964832e-03
6.825000000  3.549267169e-03 -4.257342470e-03 -8.858385905e-01 -3.650181398e-01 -8.858385905e-01 -3.650181398e-01  3.549267169e-03 -4.257342470e-03
6.850000000  3.116267248e-03 -3.599028450e-03 -9.053966453e-01 -3.134159861e-01 -9.053966453e-01 -3.134159861e-01  3.116267248e-03 -3.599028450e-03
6.875000000  2.751303841e-03 -2.865622333e-03 -9.219545702e-01 -2.607601663e-01 -9.219545702e-01 -2.607601663e-01  2.751303841e-03 -2.865622333e-03
6.900000000  2.463491701e-03 -2.064729342e-03 -9.354542038e-01 -2.072287639e-01 -9.354542038e-01 -2.072287639e-01  2.463491701e-03 -2.064729342e-03
6.925000000  2.262086358e-03 -1.204288172e-03 -9.458497161e-01 -1.529949071e-01 -9.458497161e-01 -1.529949071e-01  2.262086358e-03 -1.204288172e-03
6.950000000  2.154363906e-03 -2.945765264e-04 -9.531036121e-01 -9.824360988e-02 -9.531036121e-01 -9.824360988e-02  2.154363906e-03 -2.945765264e-04
6.975000000  2.147713741e-03  6.546057130e-04 -9.571904600e-01 -4.315145128e-02 -9.571904600e-01 -4.315145128e-02  2.147713741e-03  6.546057130e-04
7.000000000  2.247128441e-03  1.631059634e-03 -9.580942847e-01  1.209426229e-02 -9.580942847e-01  1.209426229e-02  2.247128441e-03  1.631059634e-03
