! yapnr rf: line-osh-m-w0p70-l30-m-nom, footprint re-simulated (optimization grid)
! spec sha256 0df39eb36884ff026589ca01065625e85a85813101ca8eeec3ef0ffe8f530194
! 2 ports renormalized to 50 ohm, e^(+jwt) convention
# GHz S RI R 50
3.000000000 -1.455735504e-02 -2.124064230e-02 -9.532828285e-01  7.468683039e-02 -9.532828285e-01  7.468683039e-02 -1.455735504e-02 -2.124064230e-02
3.025000000 -1.590809978e-02 -2.857481739e-02 -9.506389086e-01  1.012360749e-01 -9.506389086e-01  1.012360749e-01 -1.590809978e-02 -2.857481739e-02
3.050000000 -1.766516643e-02 -3.581830917e-02 -9.472012198e-01  1.276765555e-01 -9.472012198e-01  1.276765555e-01 -1.766516643e-02 -3.581830917e-02
3.075000000 -1.982239758e-02 -4.294807033e-02 -9.429756281e-01  1.539804351e-01 -9.429756281e-01  1.539804351e-01 -1.982239758e-02 -4.294807033e-02
3.100000000 -2.237154513e-02 -4.994116349e-02 -9.379695734e-01  1.801198510e-01 -9.379695734e-01  1.801198510e-01 -2.237154513e-02 -4.994116349e-02
3.125000000 -2.530397571e-02 -5.677553144e-02 -9.321914311e-01  2.060679175e-01 -9.321914311e-01  2.060679175e-01 -2.530397571e-02 -5.677553144e-02
3.150000000 -2.860875594e-02 -6.342979176e-02 -9.256511079e-01  2.317981827e-01 -9.256511079e-01  2.317981827e-01 -2.860875594e-02 -6.342979176e-02
3.175000000 -3.227464087e-02 -6.988303857e-02 -9.183594343e-01  2.572847985e-01 -9.183594343e-01  2.572847985e-01 -3.227464087e-02 -6.988303857e-02
3.200000000 -3.628859433e-02 -7.611548319e-02 -9.103284950e-01  2.825028133e-01 -9.103284950e-01  2.825028133e-01 -3.628859433e-02 -7.611548319e-02
3.225000000 -4.063676518e-02 -8.210792207e-02 -9.015713955e-01  3.074278770e-01 -9.015713955e-01  3.074278770e-01 -4.063676518e-02 -8.210792207e-02
3.250000000 -4.530412448e-02 -8.784221706e-02 -8.921022587e-01  3.320365648e-01 -8.921022587e-01  3.320365648e-01 -4.530412448e-02 -8.784221706e-02
3.275000000 -5.027460737e-02 -9.330129680e-02 -8.819361302e-01  3.563064223e-01 -8.819361302e-01  3.563064223e-01 -5.027460737e-02 -9.330129680e-02
3.300000000 -5.553113151e-02 -9.846908473e-02 -8.710889838e-01  3.802158424e-01 -8.710889838e-01  3.802158424e-01 -5.553113151e-02 -9.846908473e-02
3.325000000 -6.105592462e-02 -1.033307885e-01 -8.595774552e-01  4.037444139e-01 -8.595774552e-01  4.037444139e-01 -6.105592462e-02 -1.033307885e-01
3.350000000 -6.683017785e-02 -1.078728200e-01 -8.474189814e-01  4.268727042e-01 -8.474189814e-01  4.268727042e-01 -6.683017785e-02 -1.078728200e-01
3.375000000 -7.283473351e-02 -1.120827462e-01 -8.346314948e-01  4.495823867e-01 -8.346314948e-01  4.495823867e-01 -7.283473351e-02 -1.120827462e-01
3.400000000 -7.904972280e-02 -1.159494991e-01 -8.212334571e-01  4.718562885e-01 -8.212334571e-01  4.718562885e-01 -7.904972280e-02 -1.159494991e-01
3.425000000 -8.545484703e-02 -1.194631533e-01 -8.072437915e-01  4.936782485e-01 -8.072437915e-01  4.936782485e-01 -8.545484703e-02 -1.194631533e-01
3.450000000 -9.202964282e-02 -1.226149675e-01 -7.926817012e-01  5.150332123e-01 -7.926817012e-01  5.150332123e-01 -9.202964282e-02 -1.226149675e-01
3.475000000 -9.875305502e-02 -1.253975889e-01 -7.775667525e-01  5.359072317e-01 -7.775667525e-01  5.359072317e-01 -9.875305502e-02 -1.253975889e-01
3.500000000 -1.056041010e-01 -1.278046354e-01 -7.619186978e-01  5.562873160e-01 -7.619186978e-01  5.562873160e-01 -1.056041010e-01 -1.278046354e-01
3.525000000 -1.125613959e-01 -1.298312291e-01 -7.457574520e-01  5.761616389e-01 -7.457574520e-01  5.761616389e-01 -1.125613959e-01 -1.298312291e-01
3.550000000 -1.196035387e-01 -1.314735928e-01 -7.291030157e-01  5.955193666e-01 -7.291030157e-01  5.955193666e-01 -1.196035387e-01 -1.314735928e-01
3.575000000 -1.267090506e-01 -1.327292635e-01 -7.119754181e-01  6.143506931e-01 -7.119754181e-01  6.143506931e-01 -1.267090506e-01 -1.327292635e-01
3.600000000 -1.338565827e-01 -1.335970675e-01 -6.943945142e-01  6.326469198e-01 -6.943945142e-01  6.326469198e-01 -1.338565827e-01 -1.335970675e-01
3.625000000 -1.410246593e-01 -1.340770914e-01 -6.763802104e-01  6.504002070e-01 -6.763802104e-01  6.504002070e-01 -1.410246593e-01 -1.340770914e-01
3.650000000 -1.481925634e-01 -1.341703590e-01 -6.579519388e-01  6.676037337e-01 -6.579519388e-01  6.676037337e-01 -1.481925634e-01 -1.341703590e-01
3.675000000 -1.553390979e-01 -1.338795573e-01 -6.391291511e-01  6.842515820e-01 -6.391291511e-01  6.842515820e-01 -1.553390979e-01 -1.338795573e-01
3.700000000 -1.624443866e-01 -1.332075635e-01 -6.199307975e-01  7.003384866e-01 -6.199307975e-01  7.003384866e-01 -1.624443866e-01 -1.332075635e-01
3.725000000 -1.694880150e-01 -1.321593182e-01 -6.003756064e-01  7.158602308e-01 -6.003756064e-01  7.158602308e-01 -1.694880150e-01 -1.321593182e-01
3.750000000 -1.764508046e-01 -1.307396733e-01 -5.804819777e-01  7.308129871e-01 -5.804819777e-01  7.308129871e-01 -1.764508046e-01 -1.307396733e-01
3.775000000 -1.833135345e-01 -1.289552225e-01 -5.602678771e-01  7.451938614e-01 -5.602678771e-01  7.451938614e-01 -1.833135345e-01 -1.289552225e-01
3.800000000 -1.900577163e-01 -1.268130430e-01 -5.397509219e-01  7.590004567e-01 -5.397509219e-01  7.590004567e-01 -1.900577163e-01 -1.268130430e-01
3.825000000 -1.966652865e-01 -1.243213062e-01 -5.189483262e-01  7.722309913e-01 -5.189483262e-01  7.722309913e-01 -1.966652865e-01 -1.243213062e-01
3.850000000 -2.031188296e-01 -1.214890081e-01 -4.978767325e-01  7.848842869e-01 -4.978767325e-01  7.848842869e-01 -2.031188296e-01 -1.214890081e-01
3.875000000 -2.094013822e-01 -1.183260907e-01 -4.765524655e-01  7.969596000e-01 -4.765524655e-01  7.969596000e-01 -2.094013822e-01 -1.183260907e-01
3.900000000 -2.154968807e-01 -1.148430270e-01 -4.549911827e-01  8.084566608e-01 -4.549911827e-01  8.084566608e-01 -2.154968807e-01 -1.148430270e-01
3.925000000 -2.213896487e-01 -1.110513986e-01 -4.332081529e-01  8.193756106e-01 -4.332081529e-01  8.193756106e-01 -2.213896487e-01 -1.110513986e-01
3.950000000 -2.270650186e-01 -1.069629525e-01 -4.112181059e-01  8.297168458e-01 -4.112181059e-01  8.297168458e-01 -2.270650186e-01 -1.069629525e-01
3.975000000 -2.325088506e-01 -1.025904036e-01 -3.890352698e-01  8.394811125e-01 -3.890352698e-01  8.394811125e-01 -2.325088506e-01 -1.025904036e-01
4.000000000 -2.377078429e-01 -9.794676063e-02 -3.666734506e-01  8.486693240e-01 -3.666734506e-01  8.486693240e-01 -2.377078429e-01 -9.794676063e-02
4.025000000 -2.426493569e-01 -9.304578899e-02 -3.441459286e-01  8.572826367e-01 -3.441459286e-01  8.572826367e-01 -2.426493569e-01 -9.304578899e-02
4.050000000 -2.473216077e-01 -8.790136696e-02 -3.214656350e-01  8.653222732e-01 -3.214656350e-01  8.653222732e-01 -2.473216077e-01 -8.790136696e-02
4.075000000 -2.517134796e-01 -8.252804624e-02 -2.986450449e-01  8.727896063e-01 -2.986450449e-01  8.727896063e-01 -2.517134796e-01 -8.252804624e-02
4.100000000 -2.558146078e-01 -7.694085115e-02 -2.756961814e-01  8.796860969e-01 -2.756961814e-01  8.796860969e-01 -2.558146078e-01 -7.694085115e-02
4.125000000 -2.596153927e-01 -7.115518021e-02 -2.526306894e-01  8.860132343e-01 -2.526306894e-01  8.860132343e-01 -2.596153927e-01 -7.115518021e-02
4.150000000 -2.631070084e-01 -6.518681482e-02 -2.294598435e-01  8.917725081e-01 -2.294598435e-01  8.917725081e-01 -2.631070084e-01 -6.518681482e-02
4.175000000 -2.662814233e-01 -5.905184870e-02 -2.061944693e-01  8.969653981e-01 -2.061944693e-01  8.969653981e-01 -2.662814233e-01 -5.905184870e-02
4.200000000 -2.691313468e-01 -5.276680832e-02 -1.828451599e-01  9.015933072e-01 -1.828451599e-01  9.015933072e-01 -2.691313468e-01 -5.276680832e-02
4.225000000 -2.716503753e-01 -4.634805684e-02 -1.594221165e-01  9.056575403e-01 -1.594221165e-01  9.056575403e-01 -2.716503753e-01 -4.634805684e-02
4.250000000 -2.738327785e-01 -3.981267693e-02 -1.359353197e-01  9.091593100e-01 -1.359353197e-01  9.091593100e-01 -2.738327785e-01 -3.981267693e-02
4.275000000 -2.756736835e-01 -3.317757706e-02 -1.123944985e-01  9.120996751e-01 -1.123944985e-01  9.120996751e-01 -2.756736835e-01 -3.317757706e-02
4.300000000 -2.771689899e-01 -2.645980998e-02 -8.880921979e-02  9.144795400e-01 -8.880921979e-02  9.144795400e-01 -2.771689899e-01 -2.645980998e-02
4.325000000 -2.783153901e-01 -1.967641603e-02 -6.518894286e-02  9.162996378e-01 -6.518894286e-02  9.162996378e-01 -2.783153901e-01 -1.967641603e-02
4.350000000 -2.791103104e-01 -1.284488597e-02 -4.154293226e-02  9.175605496e-01 -4.154293226e-02  9.175605496e-01 -2.791103104e-01 -1.284488597e-02
4.375000000 -2.795519973e-01 -5.982534007e-03 -1.788036600e-02  9.182626597e-01 -1.788036600e-02  9.182626597e-01 -2.795519973e-01 -5.982534007e-03
4.400000000 -2.796394686e-01  8.930786575e-04  5.789538119e-03  9.184061655e-01  5.789538119e-03  9.184061655e-01 -2.796394686e-01  8.930786575e-04
4.425000000 -2.793725219e-01  7.764509376e-03  2.945779254e-02  9.179910748e-01  2.945779254e-02  9.179910748e-01 -2.793725219e-01  7.764509376e-03
4.450000000 -2.787517721e-01  1.461400951e-02  5.311520116e-02  9.170171913e-01  5.311520116e-02  9.170171913e-01 -2.787517721e-01  1.461400951e-02
4.475000000 -2.777785753e-01  2.142432760e-02  7.675270034e-02  9.154841316e-01  7.675270034e-02  9.154841316e-01 -2.777785753e-01  2.142432760e-02
4.500000000 -2.764551132e-01  2.817783398e-02  1.003610500e-01  9.133913140e-01  1.003610500e-01  9.133913140e-01 -2.764551132e-01  2.817783398e-02
4.525000000 -2.747843365e-01  3.485715641e-02  1.239309308e-01  9.107379760e-01  1.239309308e-01  9.107379760e-01 -2.747843365e-01  3.485715641e-02
4.550000000 -2.727699552e-01  4.144517821e-02  1.474528612e-01  9.075231906e-01  1.474528612e-01  9.075231906e-01 -2.727699552e-01  4.144517821e-02
4.575000000 -2.704164737e-01  4.792497799e-02  1.709171174e-01  9.037458808e-01  1.709171174e-01  9.037458808e-01 -2.704164737e-01  4.792497799e-02
4.600000000 -2.677291707e-01  5.427963542e-02  1.943137856e-01  8.994048300e-01  1.943137856e-01  8.994048300e-01 -2.677291707e-01  5.427963542e-02
4.625000000 -2.647141234e-01  6.049250633e-02  2.176326861e-01  8.944987004e-01  2.176326861e-01  8.944987004e-01 -2.647141234e-01  6.049250633e-02
4.650000000 -2.613781975e-01  6.654716262e-02  2.408633088e-01  8.890260701e-01  2.408633088e-01  8.890260701e-01 -2.613781975e-01  6.654716262e-02
4.675000000 -2.577290332e-01  7.242740617e-02  2.639948940e-01  8.829854323e-01  2.639948940e-01  8.829854323e-01 -2.577290332e-01  7.242740617e-02
4.700000000 -2.537750911e-01  7.811728396e-02  2.870162960e-01  8.763752376e-01  2.870162960e-01  8.763752376e-01 -2.537750911e-01  7.811728396e-02
4.725000000 -2.495255817e-01  8.360121737e-02  3.099160255e-01  8.691939247e-01  3.099160255e-01  8.691939247e-01 -2.495255817e-01  8.360121737e-02
4.750000000 -2.449904687e-01  8.886399911e-02  3.326822504e-01  8.614399366e-01  3.326822504e-01  8.614399366e-01 -2.449904687e-01  8.886399911e-02
4.775000000 -2.401805911e-01  9.389062451e-02  3.553026322e-01  8.531117729e-01  3.553026322e-01  8.531117729e-01 -2.401805911e-01  9.389062451e-02
4.800000000 -2.351073628e-01  9.866689198e-02  3.777645143e-01  8.442080325e-01  3.777645143e-01  8.442080325e-01 -2.351073628e-01  9.866689198e-02
4.825000000 -2.297830767e-01  1.031788054e-01  4.000547151e-01  8.347274365e-01  4.000547151e-01  8.347274365e-01 -2.297830767e-01  1.031788054e-01
4.850000000 -2.242206839e-01  1.074131290e-01  4.221595922e-01  8.246689048e-01  4.221595922e-01  8.246689048e-01 -2.242206839e-01  1.074131290e-01
4.875000000 -2.184339229e-01  1.113569346e-01  4.440650377e-01  8.140315519e-01  4.440650377e-01  8.140315519e-01 -2.184339229e-01  1.113569346e-01
4.900000000 -2.124372474e-01  1.149981247e-01  4.657564150e-01  8.028147833e-01  4.657564150e-01  8.028147833e-01 -2.124372474e-01  1.149981247e-01
4.925000000 -2.062458078e-01  1.183250679e-01  4.872186043e-01  7.910183196e-01  4.872186043e-01  7.910183196e-01 -2.062458078e-01  1.183250679e-01
4.950000000 -1.998754661e-01  1.213268963e-01  5.084360417e-01  7.786422046e-01  5.084360417e-01  7.786422046e-01 -1.998754661e-01  1.213268963e-01
4.975000000 -1.933427943e-01  1.239934085e-01  5.293925472e-01  7.656869700e-01  5.293925472e-01  7.656869700e-01 -1.933427943e-01  1.239934085e-01
5.000000000 -1.866648627e-01  1.263152293e-01  5.500716917e-01  7.521534947e-01  5.500716917e-01  7.521534947e-01 -1.866648627e-01  1.263152293e-01
5.025000000 -1.798595781e-01  1.282836773e-01  5.704563122e-01  7.380432918e-01  5.704563122e-01  7.380432918e-01 -1.798595781e-01  1.282836773e-01
5.050000000 -1.729451007e-01  1.298911440e-01  5.905290879e-01  7.233583252e-01  5.905290879e-01  7.233583252e-01 -1.729451007e-01  1.298911440e-01
5.075000000 -1.659403952e-01  1.311306623e-01  6.102720595e-01  7.081012463e-01  6.102720595e-01  7.081012463e-01 -1.659403952e-01  1.311306623e-01
5.100000000 -1.588647115e-01  1.319965240e-01  6.296669833e-01  6.922753507e-01  6.296669833e-01  6.922753507e-01 -1.588647115e-01  1.319965240e-01
5.125000000 -1.517378473e-01  1.324837325e-01  6.486952015e-01  6.758846489e-01  6.486952015e-01  6.758846489e-01 -1.517378473e-01  1.324837325e-01
5.150000000 -1.445800097e-01  1.325885639e-01  6.673376924e-01  6.589339422e-01  6.673376924e-01  6.589339422e-01 -1.445800097e-01  1.325885639e-01
5.175000000 -1.374117329e-01  1.323082073e-01  6.855751435e-01  6.414288509e-01  6.855751435e-01  6.414288509e-01 -1.374117329e-01  1.323082073e-01
5.200000000 -1.302539049e-01  1.316410451e-01  7.033879861e-01  6.233758342e-01  7.033879861e-01  6.233758342e-01 -1.302539049e-01  1.316410451e-01
5.225000000 -1.231276577e-01  1.305865783e-01  7.207563971e-01  6.047823129e-01  7.207563971e-01  6.047823129e-01 -1.231276577e-01  1.305865783e-01
5.250000000 -1.160542650e-01  1.291454641e-01  7.376604748e-01  5.856565776e-01  7.376604748e-01  5.856565776e-01 -1.160542650e-01  1.291454641e-01
5.275000000 -1.090551982e-01  1.273195944e-01  7.540801030e-01  5.660080186e-01  7.540801030e-01  5.660080186e-01 -1.090551982e-01  1.273195944e-01
5.300000000 -1.021518159e-01  1.251120379e-01  7.699953086e-01  5.458468701e-01  7.699953086e-01  5.458468701e-01 -1.021518159e-01  1.251120379e-01
5.325000000 -9.536551331e-02  1.225271052e-01  7.853860524e-01  5.251845029e-01  7.853860524e-01  5.251845029e-01 -9.536551331e-02  1.225271052e-01
5.350000000 -8.871754776e-02  1.195703919e-01  8.002324173e-01  5.040333341e-01  8.002324173e-01  5.040333341e-01 -8.871754776e-02  1.195703919e-01
5.375000000 -8.222894447e-02  1.162487076e-01  8.145146952e-01  4.824068186e-01  8.145146952e-01  4.824068186e-01 -8.222894447e-02  1.162487076e-01
5.400000000 -7.592049050e-02  1.125701584e-01  8.282133861e-01  4.603195479e-01  8.282133861e-01  4.603195479e-01 -7.592049050e-02  1.125701584e-01
5.425000000 -6.981261824e-02  1.085441365e-01  8.413093241e-01  4.377871945e-01  8.413093241e-01  4.377871945e-01 -6.981261824e-02  1.085441365e-01
5.450000000 -6.392530255e-02  1.041812378e-01  8.537837467e-01  4.148265392e-01  8.537837467e-01  4.148265392e-01 -6.392530255e-02  1.041812378e-01
5.475000000 -5.827804864e-02  9.949340463e-02  8.656183495e-01  3.914554764e-01  8.656183495e-01  3.914554764e-01 -5.827804864e-02  9.949340463e-02
5.500000000 -5.288969959e-02  9.449370873e-02  8.767954113e-01  3.676929809e-01  8.767954113e-01  3.676929809e-01 -5.288969959e-02  9.449370873e-02
5.525000000 -4.777843068e-02  8.919649538e-02  8.872978347e-01  3.435591304e-01  8.872978347e-01  3.435591304e-01 -4.777843068e-02  8.919649538e-02
5.550000000 -4.296158777e-02  8.361722035e-02  8.971092878e-01  3.190749831e-01  8.971092878e-01  3.190749831e-01 -4.296158777e-02  8.361722035e-02
5.575000000 -3.845562052e-02  7.777237327e-02  9.062142855e-01  2.942624914e-01  9.062142855e-01  2.942624914e-01 -3.845562052e-02  7.777237327e-02
5.600000000 -3.427602535e-02  7.167961617e-02  9.145981573e-01  2.691447852e-01  9.145981573e-01  2.691447852e-01 -3.427602535e-02  7.167961617e-02
5.625000000 -3.043730582e-02  6.535746080e-02  9.222472684e-01  2.437456025e-01  9.222472684e-01  2.437456025e-01 -3.043730582e-02  6.535746080e-02
5.650000000 -2.695273851e-02  5.882538393e-02  9.291489861e-01  2.180897425e-01  9.291489861e-01  2.180897425e-01 -2.695273851e-02  5.882538393e-02
5.675000000 -2.383464931e-02  5.210381485e-02  9.352917395e-01  1.922026689e-01  9.352917395e-01  1.922026689e-01 -2.383464931e-02  5.210381485e-02
5.700000000 -2.109392535e-02  4.521376873e-02  9.406651616e-01  1.661105948e-01  9.406651616e-01  1.661105948e-01 -2.109392535e-02  4.521376873e-02
5.725000000 -1.874035484e-02  3.817726365e-02  9.452600330e-01  1.398404357e-01  9.452600330e-01  1.398404357e-01 -1.874035484e-02  3.817726365e-02
5.750000000 -1.678228048e-02  3.101671716e-02  9.490684324e-01  1.134196453e-01  9.490684324e-01  1.134196453e-01 -1.678228048e-02  3.101671716e-02
5.775000000 -1.522668985e-02  2.375520707e-02  9.520837320e-01  8.687621018e-02  9.520837320e-01  8.687621018e-02 -1.522668985e-02  2.375520707e-02
5.800000000 -1.407910073e-02  1.641625961e-02  9.543006633e-01  6.023853936e-02  9.543006633e-01  6.023853936e-02 -1.407910073e-02  1.641625961e-02
5.825000000 -1.334357348e-02  9.023613355e-03  9.557153443e-01  3.353518796e-02  9.557153443e-01  3.353518796e-02 -1.334357348e-02  9.023613355e-03
5.850000000 -1.302260531e-02  1.601344744e-03  9.563253009e-01  6.795134975e-03  9.563253009e-01  6.795134975e-03 -1.302260531e-02  1.601344744e-03
5.875000000 -1.311731966e-02 -5.826464285e-03  9.561294436e-01 -1.995274114e-02  9.561294436e-01 -1.995274114e-02 -1.311731966e-02 -5.826464285e-03
5.900000000 -1.362718444e-02 -1.323571041e-02  9.551281356e-01 -4.667944409e-02  9.551281356e-01 -4.667944409e-02 -1.362718444e-02 -1.323571041e-02
5.925000000 -1.455033501e-02 -2.060231753e-02  9.533231053e-01 -7.335608038e-02  9.533231053e-01 -7.335608038e-02 -1.455033501e-02 -2.060231753e-02
5.950000000 -1.588335975e-02 -2.790249039e-02  9.507174944e-01 -9.995395243e-02  9.507174944e-01 -9.995395243e-02 -1.588335975e-02 -2.790249039e-02
5.975000000 -1.762140290e-02 -3.511260753e-02  9.473158239e-01 -1.264445608e-01  9.473158239e-01 -1.264445608e-01 -1.762140290e-02 -3.511260753e-02
6.000000000 -1.975821345e-02 -4.220942430e-02  9.431239607e-01 -1.527997574e-01  9.431239607e-01 -1.527997574e-01 -1.975821345e-02 -4.220942430e-02
6.025000000 -2.228610531e-02 -4.917025119e-02  9.381491064e-01 -1.789918244e-01  9.381491064e-01 -1.789918244e-01 -2.228610531e-02 -4.917025119e-02
6.050000000 -2.519597692e-02 -5.597281061e-02  9.323997708e-01 -2.049935274e-01  9.323997708e-01 -2.049935274e-01 -2.519597692e-02 -5.597281061e-02
6.075000000 -2.847742579e-02 -6.259560263e-02  9.258856956e-01 -2.307782687e-01  9.258856956e-01 -2.307782687e-01 -2.847742579e-02 -6.259560263e-02
6.100000000 -3.211871349e-02 -6.901788111e-02  9.186178210e-01 -2.563201659e-01  9.186178210e-01 -2.563201659e-01 -3.211871349e-02 -6.901788111e-02
6.125000000 -3.610691091e-02 -7.521971474e-02  9.106082299e-01 -2.815940143e-01  9.106082299e-01 -2.815940143e-01 -3.610691091e-02 -7.521971474e-02
6.150000000 -4.042802977e-02 -8.118217654e-02  9.018699946e-01 -3.065756073e-01  9.018699946e-01 -3.065756073e-01 -4.042802977e-02 -8.118217654e-02
6.175000000 -4.506683716e-02 -8.688728478e-02  8.924172725e-01 -3.312414583e-01  8.924172725e-01 -3.312414583e-01 -4.506683716e-02 -8.688728478e-02
6.200000000 -5.000747871e-02 -9.231802495e-02  8.822649917e-01 -3.555691292e-01  8.822649917e-01 -3.555691292e-01 -5.000747871e-02 -9.231802495e-02
6.225000000 -5.523284144e-02 -9.745864773e-02  8.714290339e-01 -3.795371129e-01  8.714290339e-01 -3.795371129e-01 -5.523284144e-02 -9.745864773e-02
6.250000000 -6.072534229e-02 -1.022941797e-01  8.599259721e-01 -4.031248232e-01  8.599259721e-01 -4.031248232e-01 -6.072534229e-02 -1.022941797e-01
6.275000000 -6.646647421e-02 -1.068111510e-01  8.477730828e-01 -4.263128021e-01  8.477730828e-01 -4.263128021e-01 -6.646647421e-02 -1.068111510e-01
6.300000000 -7.243705097e-02 -1.109969698e-01  8.349882992e-01 -4.490825529e-01  8.349882992e-01 -4.490825529e-01 -7.243705097e-02 -1.109969698e-01
6.325000000 -7.861743371e-02 -1.148404240e-01  8.215900664e-01 -4.714166255e-01  8.215900664e-01 -4.714166255e-01 -7.861743371e-02 -1.148404240e-01
6.350000000 -8.498728054e-02 -1.183315823e-01  8.075972568e-01 -4.932988318e-01  8.075972568e-01 -4.932988318e-01 -8.498728054e-02 -1.183315823e-01
6.375000000 -9.152588651e-02 -1.214617041e-01  7.930292296e-01 -5.147138381e-01  7.930292296e-01 -5.147138381e-01 -9.152588651e-02 -1.214617041e-01
6.400000000 -9.821236819e-02 -1.242234340e-01  7.779054176e-01 -5.356477022e-01  7.779054176e-01 -5.356477022e-01 -9.821236819e-02 -1.242234340e-01
6.425000000 -1.050252935e-01 -1.266107471e-01  7.622456812e-01 -5.560873674e-01  7.622456812e-01 -5.560873674e-01 -1.050252935e-01 -1.266107471e-01
6.450000000 -1.119435473e-01 -1.286186781e-01  7.460697946e-01 -5.760209492e-01  7.460697946e-01 -5.760209492e-01 -1.119435473e-01 -1.286186781e-01
6.475000000 -1.189455723e-01 -1.302437944e-01  7.293977151e-01 -5.954376087e-01  7.293977151e-01 -5.954376087e-01 -1.189455723e-01 -1.302437944e-01
6.500000000 -1.260101194e-01 -1.314835423e-01  7.122493570e-01 -6.143274354e-01  7.122493570e-01 -6.143274354e-01 -1.260101194e-01 -1.314835423e-01
6.525000000 -1.331158860e-01 -1.323368713e-01  6.946445445e-01 -6.326815979e-01  6.946445445e-01 -6.326815979e-01 -1.331158860e-01 -1.323368713e-01
6.550000000 -1.402417535e-01 -1.328035734e-01  6.766030680e-01 -6.504920895e-01  6.766030680e-01 -6.504920895e-01 -1.402417535e-01 -1.328035734e-01
6.575000000 -1.473668260e-01 -1.328847364e-01  6.581445212e-01 -6.677518462e-01  6.581445212e-01 -6.677518462e-01 -1.473668260e-01 -1.328847364e-01
6.600000000 -1.544703725e-01 -1.325826287e-01  6.392882646e-01 -6.844547341e-01  6.392882646e-01 -6.844547341e-01 -1.544703725e-01 -1.325826287e-01
6.625000000 -1.615319755e-01 -1.319005704e-01  6.200534541e-01 -7.005953888e-01  6.200534541e-01 -7.005953888e-01 -1.615319755e-01 -1.319005704e-01
6.650000000 -1.685316460e-01 -1.308429788e-01  6.004588532e-01 -7.161692961e-01  6.004588532e-01 -7.161692961e-01 -1.685316460e-01 -1.308429788e-01
6.675000000 -1.754497246e-01 -1.294153969e-01  5.805228838e-01 -7.311727060e-01  5.805228838e-01 -7.311727060e-01 -1.754497246e-01 -1.294153969e-01
6.700000000 -1.822671195e-01 -1.276242479e-01  5.602635906e-01 -7.456025140e-01  5.602635906e-01 -7.456025140e-01 -1.822671195e-01 -1.276242479e-01
6.725000000 -1.889653059e-01 -1.254769136e-01  5.396985019e-01 -7.594563172e-01  5.396985019e-01 -7.594563172e-01 -1.889653059e-01 -1.254769136e-01
6.750000000 -1.955262238e-01 -1.229817172e-01  5.188448024e-01 -7.727322492e-01  5.188448024e-01 -7.727322492e-01 -1.955262238e-01 -1.229817172e-01
6.775000000 -2.019326244e-01 -1.201475194e-01  4.977191647e-01 -7.854289408e-01  4.977191647e-01 -7.854289408e-01 -2.019326244e-01 -1.201475194e-01
6.800000000 -2.081676874e-01 -1.169842796e-01  4.763378117e-01 -7.975455552e-01  4.763378117e-01 -7.975455552e-01 -2.081676874e-01 -1.169842796e-01
6.825000000 -2.142153596e-01 -1.135023463e-01  4.547165892e-01 -8.090815803e-01  4.547165892e-01 -8.090815803e-01 -2.142153596e-01 -1.135023463e-01
6.850000000 -2.200602245e-01 -1.097129636e-01  4.328707969e-01 -8.200369450e-01  4.328707969e-01 -8.200369450e-01 -2.200602245e-01 -1.097129636e-01
6.875000000 -2.256874333e-01 -1.056280968e-01  4.108153116e-01 -8.304119192e-01  4.108153116e-01 -8.304119192e-01 -2.256874333e-01 -1.056280968e-01
6.900000000 -2.310829730e-01 -1.012601649e-01  3.885646141e-01 -8.402069807e-01  3.885646141e-01 -8.402069807e-01 -2.310829730e-01 -1.012601649e-01
6.925000000 -2.362334321e-01 -9.662248873e-02  3.661324671e-01 -8.494230182e-01  3.661324671e-01 -8.494230182e-01 -2.362334321e-01 -9.662248873e-02
6.950000000 -2.411261374e-01 -9.172884207e-02  3.435325021e-01 -8.580609532e-01  3.435325021e-01 -8.580609532e-01 -2.411261374e-01 -9.172884207e-02
6.975000000 -2.457493347e-01 -8.659331663e-02  3.207774877e-01 -8.661219983e-01  3.207774877e-01 -8.661219983e-01 -2.457493347e-01 -8.659331663e-02
7.000000000 -2.500918204e-01 -8.123084985e-02  2.978800464e-01 -8.736074092e-01  2.978800464e-01 -8.736074092e-01 -2.500918204e-01 -8.123084985e-02
