! yapnr rf: line-osh-w-w3p00-l20-w-eq-em528, footprint re-simulated (optimization grid)
! spec sha256 ef29d7d1aaecd756b5468a8d007167f15a2ba35b7be2beb2842e3781011f77d4
! 2 ports renormalized to 50 ohm, e^(+jwt) convention
# GHz S RI R 50
3.000000000 -1.715563357e-02  1.132394216e-02 -5.864124510e-01 -7.853776380e-01 -5.864124510e-01 -7.853776380e-01 -1.715563357e-02  1.132394216e-02
3.025000000 -1.659967144e-02  1.134805923e-02 -6.009448461e-01 -7.742970293e-01 -6.009448461e-01 -7.742970293e-01 -1.659967144e-02  1.134805923e-02
3.050000000 -1.604542979e-02  1.135399402e-02 -6.152701815e-01 -7.629456766e-01 -6.152701815e-01 -7.629456766e-01 -1.604542979e-02  1.135399402e-02
3.075000000 -1.549628282e-02  1.134385351e-02 -6.293866797e-01 -7.513245615e-01 -6.293866797e-01 -7.513245615e-01 -1.549628282e-02  1.134385351e-02
3.100000000 -1.494973713e-02  1.131559808e-02 -6.432844367e-01 -7.394416599e-01 -6.432844367e-01 -7.394416599e-01 -1.494973713e-02  1.131559808e-02
3.125000000 -1.440949021e-02  1.127188741e-02 -6.569630538e-01 -7.272969465e-01 -6.569630538e-01 -7.272969465e-01 -1.440949021e-02  1.127188741e-02
3.150000000 -1.387380148e-02  1.121135584e-02 -6.704131625e-01 -7.148985361e-01 -6.704131625e-01 -7.148985361e-01 -1.387380148e-02  1.121135584e-02
3.175000000 -1.334543488e-02  1.113605845e-02 -6.836338998e-01 -7.022468964e-01 -6.836338998e-01 -7.022468964e-01 -1.334543488e-02  1.113605845e-02
3.200000000 -1.282301544e-02  1.104520338e-02 -6.966169343e-01 -6.893497803e-01 -6.966169343e-01 -6.893497803e-01 -1.282301544e-02  1.104520338e-02
3.225000000 -1.230880242e-02  1.094040279e-02 -7.093606921e-01 -6.762084336e-01 -7.093606921e-01 -6.762084336e-01 -1.230880242e-02  1.094040279e-02
3.250000000 -1.180159259e-02  1.082105707e-02 -7.218580865e-01 -6.628299201e-01 -7.218580865e-01 -6.628299201e-01 -1.180159259e-02  1.082105707e-02
3.275000000 -1.130328031e-02  1.068857776e-02 -7.341067063e-01 -6.492164898e-01 -7.341067063e-01 -6.492164898e-01 -1.130328031e-02  1.068857776e-02
3.300000000 -1.081307646e-02  1.054247762e-02 -7.461005976e-01 -6.353744773e-01 -7.461005976e-01 -6.353744773e-01 -1.081307646e-02  1.054247762e-02
3.325000000 -1.033237575e-02  1.038398834e-02 -7.578366183e-01 -6.213071622e-01 -7.578366183e-01 -6.213071622e-01 -1.033237575e-02  1.038398834e-02
3.350000000 -9.861054461e-03  1.021300847e-02 -7.693096824e-01 -6.070203143e-01 -7.693096824e-01 -6.070203143e-01 -9.861054461e-03  1.021300847e-02
3.375000000 -9.399902872e-03  1.003043643e-02 -7.805160995e-01 -5.925181839e-01 -7.805160995e-01 -5.925181839e-01 -9.399902872e-03  1.003043643e-02
3.400000000 -8.949371971e-03  9.836808334e-03 -7.914515219e-01 -5.778060396e-01 -7.914515219e-01 -5.778060396e-01 -8.949371971e-03  9.836808334e-03
3.425000000 -8.509724085e-03  9.632606804e-03 -8.021117970e-01 -5.628891407e-01 -8.021117970e-01 -5.628891407e-01 -8.509724085e-03  9.632606804e-03
3.450000000 -8.081673438e-03  9.418930548e-03 -8.124933920e-01 -5.477720615e-01 -8.124933920e-01 -5.477720615e-01 -8.081673438e-03  9.418930548e-03
3.475000000 -7.665074295e-03  9.195919437e-03 -8.225916959e-01 -5.324612103e-01 -8.225916959e-01 -5.324612103e-01 -7.665074295e-03  9.195919437e-03
3.500000000 -7.261046556e-03  8.965237805e-03 -8.324046146e-01 -5.169593231e-01 -8.324046146e-01 -5.169593231e-01 -7.261046556e-03  8.965237805e-03
3.525000000 -6.868258424e-03  8.726026239e-03 -8.419257629e-01 -5.012762498e-01 -8.419257629e-01 -5.012762498e-01 -6.868258424e-03  8.726026239e-03
3.550000000 -6.488286210e-03  8.480312668e-03 -8.511542756e-01 -4.854130731e-01 -8.511542756e-01 -4.854130731e-01 -6.488286210e-03  8.480312668e-03
3.575000000 -6.120181352e-03  8.227674340e-03 -8.600850024e-01 -4.693783055e-01 -8.600850024e-01 -4.693783055e-01 -6.120181352e-03  8.227674340e-03
3.600000000 -5.765277190e-03  7.969888131e-03 -8.687165528e-01 -4.531739718e-01 -8.687165528e-01 -4.531739718e-01 -5.765277190e-03  7.969888131e-03
3.625000000 -5.422135117e-03  7.705923696e-03 -8.770435226e-01 -4.368098903e-01 -8.770435226e-01 -4.368098903e-01 -5.422135117e-03  7.705923696e-03
3.650000000 -5.092544637e-03  7.438257920e-03 -8.850651926e-01 -4.202869606e-01 -8.850651926e-01 -4.202869606e-01 -5.092544637e-03  7.438257920e-03
3.675000000 -4.774879491e-03  7.165358295e-03 -8.927760815e-01 -4.036161202e-01 -8.927760815e-01 -4.036161202e-01 -4.774879491e-03  7.165358295e-03
3.700000000 -4.470960828e-03  6.890227917e-03 -9.001759193e-01 -3.867973897e-01 -9.001759193e-01 -3.867973897e-01 -4.470960828e-03  6.890227917e-03
3.725000000 -4.179161399e-03  6.611084425e-03 -9.072591104e-01 -3.698431161e-01 -9.072591104e-01 -3.698431161e-01 -4.179161399e-03  6.611084425e-03
3.750000000 -3.901016770e-03  6.330960535e-03 -9.140257034e-01 -3.527526398e-01 -9.140257034e-01 -3.527526398e-01 -3.901016770e-03  6.330960535e-03
3.775000000 -3.635182167e-03  6.048570884e-03 -9.204706419e-01 -3.355382875e-01 -9.204706419e-01 -3.355382875e-01 -3.635182167e-03  6.048570884e-03
3.800000000 -3.382671934e-03  5.766247446e-03 -9.265936736e-01 -3.182001919e-01 -9.265936736e-01 -3.182001919e-01 -3.382671934e-03  5.766247446e-03
3.825000000 -3.142319232e-03  5.483228242e-03 -9.323905501e-01 -3.007498899e-01 -9.323905501e-01 -3.007498899e-01 -3.142319232e-03  5.483228242e-03
3.850000000 -2.914851187e-03  5.201308264e-03 -9.378606962e-01 -2.831885430e-01 -9.378606962e-01 -2.831885430e-01 -2.914851187e-03  5.201308264e-03
3.875000000 -2.699224751e-03  4.919991335e-03 -9.430006874e-01 -2.655265737e-01 -9.430006874e-01 -2.655265737e-01 -2.699224751e-03  4.919991335e-03
3.900000000 -2.495938125e-03  4.640738711e-03 -9.478096315e-01 -2.477664049e-01 -9.478096315e-01 -2.477664049e-01 -2.495938125e-03  4.640738711e-03
3.925000000 -2.304174015e-03  4.363245214e-03 -9.522848437e-01 -2.299172626e-01 -9.522848437e-01 -2.299172626e-01 -2.304174015e-03  4.363245214e-03
3.950000000 -2.124150897e-03  4.088699652e-03 -9.564252018e-01 -2.119828688e-01 -9.564252018e-01 -2.119828688e-01 -2.124150897e-03  4.088699652e-03
3.975000000 -1.955389730e-03  3.817203321e-03 -9.602287196e-01 -1.939709195e-01 -9.602287196e-01 -1.939709195e-01 -1.955389730e-03  3.817203321e-03
4.000000000 -1.797785108e-03  3.549577225e-03 -9.636941134e-01 -1.758865002e-01 -9.636941134e-01 -1.758865002e-01 -1.797785108e-03  3.549577225e-03
4.025000000 -1.650690571e-03  3.285587150e-03 -9.668193857e-01 -1.577393125e-01 -9.668193857e-01 -1.577393125e-01 -1.650690571e-03  3.285587150e-03
4.050000000 -1.514218192e-03  3.026580038e-03 -9.696039140e-01 -1.395320385e-01 -9.696039140e-01 -1.395320385e-01 -1.514218192e-03  3.026580038e-03
4.075000000 -1.387895221e-03  2.772833460e-03 -9.720463200e-01 -1.212722231e-01 -9.720463200e-01 -1.212722231e-01 -1.387895221e-03  2.772833460e-03
4.100000000 -1.271268688e-03  2.524625705e-03 -9.741454577e-01 -1.029671952e-01 -9.741454577e-01 -1.029671952e-01 -1.271268688e-03  2.524625705e-03
4.125000000 -1.164034915e-03  2.282637485e-03 -9.759005694e-01 -8.462196667e-02 -9.759005694e-01 -8.462196667e-02 -1.164034915e-03  2.282637485e-03
4.150000000 -1.065610816e-03  2.046957002e-03 -9.773106715e-01 -6.624516448e-02 -9.773106715e-01 -6.624516448e-02 -1.065610816e-03  2.046957002e-03
4.175000000 -9.757583824e-04  1.818281485e-03 -9.783753001e-01 -4.784047083e-02 -9.783753001e-01 -4.784047083e-02 -9.757583824e-04  1.818281485e-03
4.200000000 -8.937710817e-04  1.596539858e-03 -9.790937253e-01 -2.941774809e-02 -9.790937253e-01 -2.941774809e-02 -8.937710817e-04  1.596539858e-03
4.225000000 -8.195315467e-04  1.382504628e-03 -9.794656676e-01 -1.097917151e-02 -9.794656676e-01 -1.097917151e-02 -8.195315467e-04  1.382504628e-03
4.250000000 -7.523080182e-04  1.176050191e-03 -9.794907143e-01  7.465217711e-03 -9.794907143e-01  7.465217711e-03 -7.523080182e-04  1.176050191e-03
4.275000000 -6.916967348e-04  9.774920649e-04 -9.791687294e-01  2.590932177e-02 -9.791687294e-01  2.590932177e-02 -6.916967348e-04  9.774920649e-04
4.300000000 -6.372424890e-04  7.870835725e-04 -9.784996996e-01  4.434633485e-02 -9.784996996e-01  4.434633485e-02 -6.372424890e-04  7.870835725e-04
4.325000000 -5.886815068e-04  6.053962898e-04 -9.774834609e-01  6.277395900e-02 -9.774834609e-01  6.277395900e-02 -5.886815068e-04  6.053962898e-04
4.350000000 -5.452206128e-04  4.321518815e-04 -9.761205763e-01  8.117890102e-02 -9.761205763e-01  8.117890102e-02 -5.452206128e-04  4.321518815e-04
4.375000000 -5.066459795e-04  2.679527062e-04 -9.744108224e-01  9.956166455e-02 -9.744108224e-01  9.956166455e-02 -5.066459795e-04  2.679527062e-04
4.400000000 -4.721900557e-04  1.126367592e-04 -9.723553093e-01  1.179084450e-01 -9.723553093e-01  1.179084450e-01 -4.721900557e-04  1.126367592e-04
4.425000000 -4.415739936e-04 -3.345860755e-05 -9.699538180e-01  1.362196722e-01 -9.699538180e-01  1.362196722e-01 -4.415739936e-04 -3.345860755e-05
4.450000000 -4.140667505e-04 -1.703752261e-04 -9.672078743e-01  1.544823368e-01 -9.672078743e-01  1.544823368e-01 -4.140667505e-04 -1.703752261e-04
4.475000000 -3.893486419e-04 -2.980002766e-04 -9.641174100e-01  1.726957837e-01 -9.641174100e-01  1.726957837e-01 -3.893486419e-04 -2.980002766e-04
4.500000000 -3.667978340e-04 -4.163336741e-04 -9.606838540e-01  1.908501880e-01 -9.606838540e-01  1.908501880e-01 -3.667978340e-04 -4.163336741e-04
4.525000000 -3.458962270e-04 -5.253354998e-04 -9.569084139e-01  2.089384980e-01 -9.569084139e-01  2.089384980e-01 -3.458962270e-04 -5.253354998e-04
4.550000000 -3.261646883e-04 -6.249924308e-04 -9.527921974e-01  2.269548021e-01 -9.527921974e-01  2.269548021e-01 -3.261646883e-04 -6.249924308e-04
4.575000000 -3.071892774e-04 -7.154349940e-04 -9.483358668e-01  2.448952373e-01 -9.483358668e-01  2.448952373e-01 -3.071892774e-04 -7.154349940e-04
4.600000000 -2.883907804e-04 -7.965937882e-04 -9.435415316e-01  2.627504641e-01 -9.435415316e-01  2.627504641e-01 -2.883907804e-04 -7.965937882e-04
4.625000000 -2.693419683e-04 -8.686489377e-04 -9.384101926e-01  2.805160683e-01 -9.384101926e-01  2.805160683e-01 -2.693419683e-04 -8.686489377e-04
4.650000000 -2.495230256e-04 -9.316193865e-04 -9.329439026e-01  2.981842424e-01 -9.329439026e-01  2.981842424e-01 -2.495230256e-04 -9.316193865e-04
4.675000000 -2.284821534e-04 -9.856895443e-04 -9.271441759e-01  3.157494918e-01 -9.271441759e-01  3.157494918e-01 -2.284821534e-04 -9.856895443e-04
4.700000000 -2.057562738e-04 -1.031017578e-03 -9.210130204e-01  3.332051249e-01 -9.210130204e-01  3.332051249e-01 -2.057562738e-04 -1.031017578e-03
4.725000000 -1.808827891e-04 -1.067752383e-03 -9.145525581e-01  3.505445815e-01 -9.145525581e-01  3.505445815e-01 -1.808827891e-04 -1.067752383e-03
4.750000000 -1.534910405e-04 -1.096323394e-03 -9.077641478e-01  3.677635752e-01 -9.077641478e-01  3.677635752e-01 -1.534910405e-04 -1.096323394e-03
4.775000000 -1.230533042e-04 -1.116505201e-03 -9.006518405e-01  3.848514310e-01 -9.006518405e-01  3.848514310e-01 -1.230533042e-04 -1.116505201e-03
4.800000000 -8.927296059e-05 -1.128961376e-03 -8.932163419e-01  4.018060992e-01 -8.932163419e-01  4.018060992e-01 -8.927296059e-05 -1.128961376e-03
4.825000000 -5.170808759e-05 -1.133682051e-03 -8.854611373e-01  4.186191564e-01 -8.854611373e-01  4.186191564e-01 -5.170808759e-05 -1.133682051e-03
4.850000000 -1.004911055e-05 -1.131280716e-03 -8.773875768e-01  4.352871901e-01 -8.773875768e-01  4.352871901e-01 -1.004911055e-05 -1.131280716e-03
4.875000000  3.616837061e-05 -1.121510018e-03 -8.690000848e-01  4.518006604e-01 -8.690000848e-01  4.518006604e-01  3.616837061e-05 -1.121510018e-03
4.900000000  8.716769405e-05 -1.105324221e-03 -8.602994287e-01  4.681576263e-01 -8.602994287e-01  4.681576263e-01  8.716769405e-05 -1.105324221e-03
4.925000000  1.434694642e-04 -1.082237309e-03 -8.512908909e-01  4.843477676e-01 -8.512908909e-01  4.843477676e-01  1.434694642e-04 -1.082237309e-03
4.950000000  2.051664655e-04 -1.053532371e-03 -8.419748143e-01  5.003700584e-01 -8.419748143e-01  5.003700584e-01  2.051664655e-04 -1.053532371e-03
4.975000000  2.728411082e-04 -1.018521181e-03 -8.323574618e-01  5.162133627e-01 -8.323574618e-01  5.162133627e-01  2.728411082e-04 -1.018521181e-03
5.000000000  3.464416991e-04 -9.787590645e-04 -8.224386091e-01  5.318776664e-01 -8.224386091e-01  5.318776664e-01  3.464416991e-04 -9.787590645e-04
5.025000000  4.265496740e-04 -9.334174050e-04 -8.122256699e-01  5.473509281e-01 -8.122256699e-01  5.473509281e-01  4.265496740e-04 -9.334174050e-04
5.050000000  5.130526233e-04 -8.841460520e-04 -8.017180186e-01  5.626337744e-01 -8.017180186e-01  5.626337744e-01  5.130526233e-04 -8.841460520e-04
5.075000000  6.063906622e-04 -8.302470628e-04 -7.909232624e-01  5.777148039e-01 -7.909232624e-01  5.777148039e-01  6.063906622e-04 -8.302470628e-04
5.100000000  7.065163671e-04 -7.731795964e-04 -7.798413757e-01  5.925937568e-01 -7.798413757e-01  5.925937568e-01  7.065163671e-04 -7.731795964e-04
5.125000000  8.137458227e-04 -7.123774668e-04 -7.684796503e-01  6.072605226e-01 -7.684796503e-01  6.072605226e-01  8.137458227e-04 -7.123774668e-04
5.150000000  9.280571055e-04 -6.491734277e-04 -7.568388369e-01  6.217138505e-01 -7.568388369e-01  6.217138505e-01  9.280571055e-04 -6.491734277e-04
5.175000000  1.049737721e-03 -5.831053025e-04 -7.449257364e-01  6.359449841e-01 -7.449257364e-01  6.359449841e-01  1.049737721e-03 -5.831053025e-04
5.200000000  1.178730920e-03 -5.153822478e-04 -7.327420046e-01  6.499516677e-01 -7.327420046e-01  6.499516677e-01  1.178730920e-03 -5.153822478e-04
5.225000000  1.315283281e-03 -4.458439237e-04 -7.202935967e-01  6.637267286e-01 -7.202935967e-01  6.637267286e-01  1.315283281e-03 -4.458439237e-04
5.250000000  1.459310846e-03 -3.754553777e-04 -7.075832564e-01  6.772668264e-01 -7.075832564e-01  6.772668264e-01  1.459310846e-03 -3.754553777e-04
5.275000000  1.611154799e-03 -3.037826846e-04 -6.946182173e-01  6.905640255e-01 -6.946182173e-01  6.905640255e-01  1.611154799e-03 -3.037826846e-04
5.300000000  1.770505214e-03 -2.322678089e-04 -6.813999250e-01  7.036166069e-01 -6.813999250e-01  7.036166069e-01  1.770505214e-03 -2.322678089e-04
5.325000000  1.937440702e-03 -1.609939875e-04 -6.679344641e-01  7.164182345e-01 -6.679344641e-01  7.164182345e-01  1.937440702e-03 -1.609939875e-04
5.350000000  2.111910515e-03 -9.046292834e-05 -6.542263414e-01  7.289643738e-01 -6.542263414e-01  7.289643738e-01  2.111910515e-03 -9.046292834e-05
5.375000000  2.293742133e-03 -2.122763633e-05 -6.402801994e-01  7.412505111e-01 -6.402801994e-01  7.412505111e-01  2.293742133e-03 -2.122763633e-05
5.400000000  2.482891225e-03  4.644276466e-05 -6.261016205e-01  7.532714939e-01 -6.261016205e-01  7.532714939e-01  2.482891225e-03  4.644276466e-05
5.425000000  2.679126599e-03  1.118465547e-04 -6.116944388e-01  7.650238194e-01 -6.116944388e-01  7.650238194e-01  2.679126599e-03  1.118465547e-04
5.450000000  2.882389217e-03  1.749681719e-04 -5.970653650e-01  7.765017865e-01 -5.970653650e-01  7.765017865e-01  2.882389217e-03  1.749681719e-04
5.475000000  3.092412979e-03  2.348085620e-04 -5.822170698e-01  7.877030402e-01 -5.822170698e-01  7.877030402e-01  3.092412979e-03  2.348085620e-04
5.500000000  3.309134156e-03  2.915167350e-04 -5.671568562e-01  7.986217948e-01 -5.671568562e-01  7.986217948e-01  3.309134156e-03  2.915167350e-04
5.525000000  3.532453398e-03  3.448220706e-04 -5.518903023e-01  8.092538359e-01 -5.518903023e-01  8.092538359e-01  3.532453398e-03  3.448220706e-04
5.550000000  3.762169824e-03  3.941923051e-04 -5.364222906e-01  8.195955832e-01 -5.364222906e-01  8.195955832e-01  3.762169824e-03  3.941923051e-04
5.575000000  3.997808686e-03  4.385210538e-04 -5.207557402e-01  8.296447829e-01 -5.207557402e-01  8.296447829e-01  3.997808686e-03  4.385210538e-04
5.600000000  4.239561143e-03  4.786023234e-04 -5.049006660e-01  8.393947849e-01 -5.049006660e-01  8.393947849e-01  4.239561143e-03  4.786023234e-04
5.625000000  4.486650374e-03  5.127797340e-04 -4.888577143e-01  8.488449573e-01 -4.888577143e-01  8.488449573e-01  4.486650374e-03  5.127797340e-04
5.650000000  4.739207085e-03  5.419569955e-04 -4.726382268e-01  8.579884047e-01 -4.726382268e-01  8.579884047e-01  4.739207085e-03  5.419569955e-04
5.675000000  4.996466663e-03  5.645022993e-04 -4.562420356e-01  8.668250073e-01 -4.562420356e-01  8.668250073e-01  4.996466663e-03  5.645022993e-04
5.700000000  5.258322251e-03  5.813132148e-04 -4.396811501e-01  8.753480824e-01 -4.396811501e-01  8.753480824e-01  5.258322251e-03  5.813132148e-04
5.725000000  5.524203194e-03  5.909402420e-04 -4.229555203e-01  8.835574609e-01 -4.229555203e-01  8.835574609e-01  5.524203194e-03  5.909402420e-04
5.750000000  5.793800795e-03  5.938633936e-04 -4.060749561e-01  8.914480568e-01 -4.060749561e-01  8.914480568e-01  5.793800795e-03  5.938633936e-04
5.775000000  6.066735283e-03  5.898123945e-04 -3.890452035e-01  8.990170415e-01 -3.890452035e-01  8.990170415e-01  6.066735283e-03  5.898123945e-04
5.800000000  6.342682652e-03  5.786574324e-04 -3.718725605e-01  9.062614693e-01 -3.718725605e-01  9.062614693e-01  6.342682652e-03  5.786574324e-04
5.825000000  6.621145222e-03  5.595065832e-04 -3.545600969e-01  9.131798056e-01 -3.545600969e-01  9.131798056e-01  6.621145222e-03  5.595065832e-04
5.850000000  6.901937690e-03  5.329528838e-04 -3.371175244e-01  9.197679425e-01 -3.371175244e-01  9.197679425e-01  6.901937690e-03  5.329528838e-04
5.875000000  7.184483037e-03  4.981866258e-04 -3.195483090e-01  9.260243740e-01 -3.195483090e-01  9.260243740e-01  7.184483037e-03  4.981866258e-04
5.900000000  7.468508183e-03  4.554683550e-04 -3.018609898e-01  9.319458425e-01 -3.018609898e-01  9.319458425e-01  7.468508183e-03  4.554683550e-04
5.925000000  7.753457261e-03  4.042911444e-04 -2.840601572e-01  9.375306139e-01 -2.840601572e-01  9.375306139e-01  7.753457261e-03  4.042911444e-04
5.950000000  8.038853688e-03  3.446940211e-04 -2.661535552e-01  9.427760482e-01 -2.661535552e-01  9.427760482e-01  8.038853688e-03  3.446940211e-04
5.975000000  8.324212116e-03  2.764428660e-04 -2.481468561e-01  9.476802927e-01 -2.481468561e-01  9.476802927e-01  8.324212116e-03  2.764428660e-04
6.000000000  8.608948909e-03  1.992889736e-04 -2.300456433e-01  9.522415863e-01 -2.300456433e-01  9.522415863e-01  8.608948909e-03  1.992889736e-04
6.025000000  8.892534019e-03  1.137116332e-04 -2.118600519e-01  9.564572176e-01 -2.118600519e-01  9.564572176e-01  8.892534019e-03  1.137116332e-04
6.050000000  9.174464951e-03  1.923905078e-05 -1.935934804e-01  9.603262553e-01 -1.935934804e-01  9.603262553e-01  9.174464951e-03  1.923905077e-05
6.075000000  9.454235979e-03 -8.394424718e-05 -1.752537519e-01  9.638468412e-01 -1.752537519e-01  9.638468412e-01  9.454235979e-03 -8.394424718e-05
6.100000000  9.731419507e-03 -1.960131653e-04 -1.568459776e-01  9.670177847e-01 -1.568459776e-01  9.670177847e-01  9.731419507e-03 -1.960131653e-04
6.125000000  1.000551012e-02 -3.165280825e-04 -1.383792461e-01  9.698373392e-01 -1.383792461e-01  9.698373392e-01  1.000551012e-02 -3.165280825e-04
6.150000000  1.027609864e-02 -4.459177812e-04 -1.198572139e-01  9.723047481e-01 -1.198572139e-01  9.723047481e-01  1.027609864e-02 -4.459177812e-04
6.175000000  1.054275719e-02 -5.835406193e-04 -1.012899430e-01  9.744184826e-01 -1.012899430e-01  9.744184826e-01  1.054275719e-02 -5.835406193e-04
6.200000000  1.080494516e-02 -7.299539727e-04 -8.268029161e-02  9.761780158e-01 -8.268029161e-02  9.761780158e-01  1.080494516e-02 -7.299539727e-04
6.225000000  1.106228077e-02 -8.843932303e-04 -6.403929189e-02  9.775821135e-01 -6.403929189e-02  9.775821135e-01  1.106228077e-02 -8.843932303e-04
6.250000000  1.131415279e-02 -1.047418743e-03 -4.536896277e-02  9.786304220e-01 -4.536896277e-02  9.786304220e-01  1.131415279e-02 -1.047418743e-03
6.275000000  1.156004685e-02 -1.218181741e-03 -2.668147641e-02  9.793220735e-01 -2.668147641e-02  9.793220735e-01  1.156004685e-02 -1.218181741e-03
6.300000000  1.179953283e-02 -1.397197356e-03 -7.977758074e-03  9.796568347e-01 -7.977758074e-03  9.796568347e-01  1.179953283e-02 -1.397197356e-03
6.325000000  1.203180904e-02 -1.583474538e-03  1.072873217e-02  9.796342922e-01  1.072873217e-02  9.796342922e-01  1.203180904e-02 -1.583474538e-03
6.350000000  1.225676489e-02 -1.777504735e-03  2.943780074e-02  9.792542662e-01  2.943780074e-02  9.792542662e-01  1.225676489e-02 -1.777504735e-03
6.375000000  1.247350091e-02 -1.978264208e-03  4.813643860e-02  9.785168375e-01  4.813643860e-02  9.785168375e-01  1.247350091e-02 -1.978264208e-03
6.400000000  1.268200923e-02 -2.186125790e-03  6.682344087e-02  9.774218752e-01  6.682344087e-02  9.774218752e-01  1.268200923e-02 -2.186125790e-03
6.425000000  1.288155670e-02 -2.400131103e-03  8.548707147e-02  9.759698764e-01  8.548707147e-02  9.759698764e-01  1.288155670e-02 -2.400131103e-03
6.450000000  1.307202390e-02 -2.620509515e-03  1.041248869e-01  9.741608476e-01  1.041248869e-01  9.741608476e-01  1.307202390e-02 -2.620509515e-03
6.475000000  1.325290461e-02 -2.846493366e-03  1.227268228e-01  9.719955531e-01  1.227268228e-01  9.719955531e-01  1.325290461e-02 -2.846493366e-03
6.500000000  1.342392905e-02 -3.078075019e-03  1.412889618e-01  9.694742422e-01  1.412889618e-01  9.694742422e-01  1.342392905e-02 -3.078075019e-03
6.525000000  1.358461842e-02 -3.314458021e-03  1.598006544e-01  9.665981850e-01  1.598006544e-01  9.665981850e-01  1.358461842e-02 -3.314458021e-03
6.550000000  1.373472925e-02 -3.555680568e-03  1.782591964e-01  9.633676127e-01  1.782591964e-01  9.633676127e-01  1.373472925e-02 -3.555680568e-03
6.575000000  1.387374282e-02 -3.801076741e-03  1.966553440e-01  9.597839104e-01  1.966553440e-01  9.597839104e-01  1.387374282e-02 -3.801076741e-03
6.600000000  1.400140570e-02 -4.050298267e-03  2.149834861e-01  9.558479717e-01  2.149834861e-01  9.558479717e-01  1.400140570e-02 -4.050298267e-03
6.625000000  1.411723205e-02 -4.302779830e-03  2.332360295e-01  9.515612217e-01  2.332360295e-01  9.515612217e-01  1.411723205e-02 -4.302779830e-03
6.650000000  1.422097290e-02 -4.558049989e-03  2.514064836e-01  9.469249933e-01  2.514064836e-01  9.469249933e-01  1.422097290e-02 -4.558049989e-03
6.675000000  1.431231847e-02 -4.815582079e-03  2.694883234e-01  9.419407479e-01  2.694883234e-01  9.419407479e-01  1.431231847e-02 -4.815582079e-03
6.700000000  1.439095873e-02 -5.074789255e-03  2.874741372e-01  9.366103423e-01  2.874741372e-01  9.366103423e-01  1.439095873e-02 -5.074789255e-03
6.725000000  1.445682520e-02 -5.335235736e-03  3.053585655e-01  9.309351566e-01  3.053585655e-01  9.309351566e-01  1.445682520e-02 -5.335235736e-03
6.750000000  1.450955251e-02 -5.596235020e-03  3.231333614e-01  9.249176154e-01  3.231333614e-01  9.249176154e-01  1.450955251e-02 -5.596235020e-03
6.775000000  1.454921910e-02 -5.857422706e-03  3.407941395e-01  9.185589841e-01  3.407941395e-01  9.185589841e-01  1.454921910e-02 -5.857422706e-03
6.800000000  1.457546217e-02 -6.118055526e-03  3.583320164e-01  9.118622544e-01  3.583320164e-01  9.118622544e-01  1.457546217e-02 -6.118055526e-03
6.825000000  1.458839068e-02 -6.377757274e-03  3.757432747e-01  9.048286128e-01  3.757432747e-01  9.048286128e-01  1.458839068e-02 -6.377757274e-03
6.850000000  1.458765453e-02 -6.635754809e-03  3.930184927e-01  8.974616472e-01  3.930184927e-01  8.974616472e-01  1.458765453e-02 -6.635754809e-03
6.875000000  1.457341111e-02 -6.891619540e-03  4.101545467e-01  8.897624457e-01  4.101545467e-01  8.897624457e-01  1.457341111e-02 -6.891619540e-03
6.900000000  1.454524881e-02 -7.144522861e-03  4.271413391e-01  8.817353280e-01  4.271413391e-01  8.817353280e-01  1.454524881e-02 -7.144522861e-03
6.925000000  1.450351190e-02 -7.394038210e-03  4.439765931e-01  8.733811200e-01  4.439765931e-01  8.733811200e-01  1.450351190e-02 -7.394038210e-03
6.950000000  1.444764887e-02 -7.639253149e-03  4.606493351e-01  8.647050606e-01  4.606493351e-01  8.647050606e-01  1.444764887e-02 -7.639253149e-03
6.975000000  1.437826511e-02 -7.879792839e-03  4.771581942e-01  8.557076191e-01  4.771581942e-01  8.557076191e-01  1.437826511e-02 -7.879792839e-03
7.000000000  1.429494208e-02 -8.114807407e-03  4.934933359e-01  8.463938903e-01  4.934933359e-01  8.463938903e-01  1.429494208e-02 -8.114807407e-03
