! yapnr rf: a12-stub-osh-m-m-eq-em528, footprint re-simulated (optimization grid)
! spec sha256 be3f75341af771bf6351000da16396fe67b0ba07056961c074cf9b1fec994a80
! 2 ports renormalized to 50 ohm, e^(+jwt) convention
# GHz S RI R 50
3.000000000 -4.369027268e-01  2.714439580e-01 -4.258372720e-01 -7.097586099e-01 -4.258372720e-01 -7.097586099e-01 -4.369027268e-01  2.714439580e-01
3.005000000 -4.367247974e-01  2.736964224e-01 -4.282424458e-01 -7.075304741e-01 -4.282424458e-01 -7.075304741e-01 -4.367247974e-01  2.736964224e-01
3.010000000 -4.365361200e-01  2.759532558e-01 -4.306370653e-01 -7.052911696e-01 -4.306370653e-01 -7.052911696e-01 -4.365361200e-01  2.759532558e-01
3.015000000 -4.363366454e-01  2.782144205e-01 -4.330210637e-01 -7.030407330e-01 -4.330210637e-01 -7.030407330e-01 -4.363366454e-01  2.782144205e-01
3.020000000 -4.361263248e-01  2.804798784e-01 -4.353943739e-01 -7.007792012e-01 -4.353943739e-01 -7.007792012e-01 -4.361263248e-01  2.804798784e-01
3.025000000 -4.359051067e-01  2.827495977e-01 -4.377569293e-01 -6.985066171e-01 -4.377569293e-01 -6.985066171e-01 -4.359051067e-01  2.827495977e-01
3.030000000 -4.356729355e-01  2.850235597e-01 -4.401086630e-01 -6.962230350e-01 -4.401086630e-01 -6.962230350e-01 -4.356729355e-01  2.850235597e-01
3.035000000 -4.354297712e-01  2.873016982e-01 -4.424495083e-01 -6.939284711e-01 -4.424495083e-01 -6.939284711e-01 -4.354297712e-01  2.873016982e-01
3.040000000 -4.351755646e-01  2.895839738e-01 -4.447793981e-01 -6.916229642e-01 -4.447793981e-01 -6.916229642e-01 -4.351755646e-01  2.895839738e-01
3.045000000 -4.349102667e-01  2.918703464e-01 -4.470982656e-01 -6.893065531e-01 -4.470982656e-01 -6.893065531e-01 -4.349102667e-01  2.918703464e-01
3.050000000 -4.346338283e-01  2.941607759e-01 -4.494060436e-01 -6.869792773e-01 -4.494060436e-01 -6.869792773e-01 -4.346338283e-01  2.941607759e-01
3.055000000 -4.343462004e-01  2.964552217e-01 -4.517026651e-01 -6.846411766e-01 -4.517026651e-01 -6.846411766e-01 -4.343462004e-01  2.964552217e-01
3.060000000 -4.340473338e-01  2.987536428e-01 -4.539880630e-01 -6.822922913e-01 -4.539880630e-01 -6.822922913e-01 -4.340473338e-01  2.987536428e-01
3.065000000 -4.337371792e-01  3.010559979e-01 -4.562621701e-01 -6.799326619e-01 -4.562621701e-01 -6.799326619e-01 -4.337371792e-01  3.010559979e-01
3.070000000 -4.334156877e-01  3.033622451e-01 -4.585249195e-01 -6.775623296e-01 -4.585249195e-01 -6.775623296e-01 -4.334156877e-01  3.033622451e-01
3.075000000 -4.330828099e-01  3.056723424e-01 -4.607762440e-01 -6.751813359e-01 -4.607762440e-01 -6.751813359e-01 -4.330828099e-01  3.056723424e-01
3.080000000 -4.327384830e-01  3.079863199e-01 -4.630160721e-01 -6.727897854e-01 -4.630160721e-01 -6.727897854e-01 -4.327384830e-01  3.079863199e-01
3.085000000 -4.323826684e-01  3.103040796e-01 -4.652443410e-01 -6.703876738e-01 -4.652443410e-01 -6.703876738e-01 -4.323826684e-01  3.103040796e-01
3.090000000 -4.320153204e-01  3.126255601e-01 -4.674609849e-01 -6.679750281e-01 -4.674609849e-01 -6.679750281e-01 -4.320153204e-01  3.126255601e-01
3.095000000 -4.316363899e-01  3.149507179e-01 -4.696659366e-01 -6.655518915e-01 -4.696659366e-01 -6.655518915e-01 -4.316363899e-01  3.149507179e-01
3.100000000 -4.312458276e-01  3.172795088e-01 -4.718591289e-01 -6.631183077e-01 -4.718591289e-01 -6.631183077e-01 -4.312458276e-01  3.172795088e-01
3.105000000 -4.308435844e-01  3.196118885e-01 -4.740404947e-01 -6.606743208e-01 -4.740404947e-01 -6.606743208e-01 -4.308435844e-01  3.196118885e-01
3.110000000 -4.304296111e-01  3.219478123e-01 -4.762099667e-01 -6.582199752e-01 -4.762099667e-01 -6.582199752e-01 -4.304296111e-01  3.219478123e-01
3.115000000 -4.300038585e-01  3.242872348e-01 -4.783674779e-01 -6.557553159e-01 -4.783674779e-01 -6.557553159e-01 -4.300038585e-01  3.242872348e-01
3.120000000 -4.295662774e-01  3.266301105e-01 -4.805129611e-01 -6.532803883e-01 -4.805129611e-01 -6.532803883e-01 -4.295662774e-01  3.266301105e-01
3.125000000 -4.291168188e-01  3.289763935e-01 -4.826463491e-01 -6.507952382e-01 -4.826463491e-01 -6.507952382e-01 -4.291168188e-01  3.289763935e-01
3.130000000 -4.286554330e-01  3.313260768e-01 -4.847675689e-01 -6.482999478e-01 -4.847675689e-01 -6.482999478e-01 -4.286554330e-01  3.313260768e-01
3.135000000 -4.281820710e-01  3.336791327e-01 -4.868765516e-01 -6.457945820e-01 -4.868765516e-01 -6.457945820e-01 -4.281820710e-01  3.336791327e-01
3.140000000 -4.276966847e-01  3.360354551e-01 -4.889732390e-01 -6.432791342e-01 -4.889732390e-01 -6.432791342e-01 -4.276966847e-01  3.360354551e-01
3.145000000 -4.271992249e-01  3.383949962e-01 -4.910575642e-01 -6.407536520e-01 -4.910575642e-01 -6.407536520e-01 -4.271992249e-01  3.383949962e-01
3.150000000 -4.266896424e-01  3.407577080e-01 -4.931294600e-01 -6.382181835e-01 -4.931294600e-01 -6.382181835e-01 -4.266896424e-01  3.407577080e-01
3.155000000 -4.261678884e-01  3.431235421e-01 -4.951888593e-01 -6.356727773e-01 -4.951888593e-01 -6.356727773e-01 -4.261678884e-01  3.431235421e-01
3.160000000 -4.256339136e-01  3.454924498e-01 -4.972356951e-01 -6.331174824e-01 -4.972356951e-01 -6.331174824e-01 -4.256339136e-01  3.454924498e-01
3.165000000 -4.250876692e-01  3.478643817e-01 -4.992699003e-01 -6.305523482e-01 -4.992699003e-01 -6.305523482e-01 -4.250876692e-01  3.478643817e-01
3.170000000 -4.245291060e-01  3.502392881e-01 -5.012914079e-01 -6.279774248e-01 -5.012914079e-01 -6.279774248e-01 -4.245291060e-01  3.502392881e-01
3.175000000 -4.239581752e-01  3.526171191e-01 -5.033001508e-01 -6.253927624e-01 -5.033001508e-01 -6.253927624e-01 -4.239581752e-01  3.526171191e-01
3.180000000 -4.233748279e-01  3.549978240e-01 -5.052960622e-01 -6.227984121e-01 -5.052960622e-01 -6.227984121e-01 -4.233748279e-01  3.549978240e-01
3.185000000 -4.227790305e-01  3.573814039e-01 -5.072790567e-01 -6.201944757e-01 -5.072790567e-01 -6.201944757e-01 -4.227790305e-01  3.573814039e-01
3.190000000 -4.221707193e-01  3.597677554e-01 -5.092490866e-01 -6.175809545e-01 -5.092490866e-01 -6.175809545e-01 -4.221707193e-01  3.597677554e-01
3.195000000 -4.215498452e-01  3.621568266e-01 -5.112060849e-01 -6.149579009e-01 -5.112060849e-01 -6.149579009e-01 -4.215498452e-01  3.621568266e-01
3.200000000 -4.209163597e-01  3.645485654e-01 -5.131499847e-01 -6.123253678e-01 -5.131499847e-01 -6.123253678e-01 -4.209163597e-01  3.645485654e-01
3.205000000 -4.202702139e-01  3.669429189e-01 -5.150807193e-01 -6.096834084e-01 -5.150807193e-01 -6.096834084e-01 -4.202702139e-01  3.669429189e-01
3.210000000 -4.196113590e-01  3.693398342e-01 -5.169982219e-01 -6.070320765e-01 -5.169982219e-01 -6.070320765e-01 -4.196113590e-01  3.693398342e-01
3.215000000 -4.189397465e-01  3.717392576e-01 -5.189024257e-01 -6.043714263e-01 -5.189024257e-01 -6.043714263e-01 -4.189397465e-01  3.717392576e-01
3.220000000 -4.182553277e-01  3.741411353e-01 -5.207932642e-01 -6.017015125e-01 -5.207932642e-01 -6.017015125e-01 -4.182553277e-01  3.741411353e-01
3.225000000 -4.175580541e-01  3.765454126e-01 -5.226706705e-01 -5.990223905e-01 -5.226706705e-01 -5.990223905e-01 -4.175580541e-01  3.765454126e-01
3.230000000 -4.168478770e-01  3.789520347e-01 -5.245345782e-01 -5.963341160e-01 -5.245345782e-01 -5.963341160e-01 -4.168478770e-01  3.789520347e-01
3.235000000 -4.161247556e-01  3.813609501e-01 -5.263849132e-01 -5.936367508e-01 -5.263849132e-01 -5.936367508e-01 -4.161247556e-01  3.813609501e-01
3.240000000 -4.153886389e-01  3.837721017e-01 -5.282216116e-01 -5.909303497e-01 -5.282216116e-01 -5.909303497e-01 -4.153886389e-01  3.837721017e-01
3.245000000 -4.146394737e-01  3.861854307e-01 -5.300446119e-01 -5.882149665e-01 -5.300446119e-01 -5.882149665e-01 -4.146394737e-01  3.861854307e-01
3.250000000 -4.138772118e-01  3.886008805e-01 -5.318538480e-01 -5.854906588e-01 -5.318538480e-01 -5.854906588e-01 -4.138772118e-01  3.886008805e-01
3.255000000 -4.131018050e-01  3.910183939e-01 -5.336492534e-01 -5.827574849e-01 -5.336492534e-01 -5.827574849e-01 -4.131018050e-01  3.910183939e-01
3.260000000 -4.123132050e-01  3.934379131e-01 -5.354307619e-01 -5.800155036e-01 -5.354307619e-01 -5.800155036e-01 -4.123132050e-01  3.934379131e-01
3.265000000 -4.115113638e-01  3.958593802e-01 -5.371983075e-01 -5.772647743e-01 -5.371983075e-01 -5.772647743e-01 -4.115113638e-01  3.958593802e-01
3.270000000 -4.106962334e-01  3.982827364e-01 -5.389518239e-01 -5.745053567e-01 -5.389518239e-01 -5.745053567e-01 -4.106962334e-01  3.982827364e-01
3.275000000 -4.098677658e-01  4.007079227e-01 -5.406912453e-01 -5.717373113e-01 -5.406912453e-01 -5.717373113e-01 -4.098677658e-01  4.007079227e-01
3.280000000 -4.090259133e-01  4.031348795e-01 -5.424165056e-01 -5.689606988e-01 -5.424165056e-01 -5.689606988e-01 -4.090259133e-01  4.031348795e-01
3.285000000 -4.081706275e-01  4.055635484e-01 -5.441275396e-01 -5.661755832e-01 -5.441275396e-01 -5.661755832e-01 -4.081706275e-01  4.055635484e-01
3.290000000 -4.073018595e-01  4.079938731e-01 -5.458242839e-01 -5.633820337e-01 -5.458242839e-01 -5.633820337e-01 -4.073018595e-01  4.079938731e-01
3.295000000 -4.064195634e-01  4.104257867e-01 -5.475066701e-01 -5.605801030e-01 -5.475066701e-01 -5.605801030e-01 -4.064195634e-01  4.104257867e-01
3.300000000 -4.055236919e-01  4.128592278e-01 -5.491746326e-01 -5.577698541e-01 -5.491746326e-01 -5.577698541e-01 -4.055236919e-01  4.128592278e-01
3.305000000 -4.046141974e-01  4.152941344e-01 -5.508281058e-01 -5.549513506e-01 -5.508281058e-01 -5.549513506e-01 -4.046141974e-01  4.152941344e-01
3.310000000 -4.036910327e-01  4.177304440e-01 -5.524670244e-01 -5.521246565e-01 -5.524670244e-01 -5.521246565e-01 -4.036910327e-01  4.177304440e-01
3.315000000 -4.027541505e-01  4.201680937e-01 -5.540913232e-01 -5.492898364e-01 -5.540913232e-01 -5.492898364e-01 -4.027541505e-01  4.201680937e-01
3.320000000 -4.018035037e-01  4.226070200e-01 -5.557009367e-01 -5.464469557e-01 -5.557009367e-01 -5.464469557e-01 -4.018035037e-01  4.226070200e-01
3.325000000 -4.008390453e-01  4.250471589e-01 -5.572958001e-01 -5.435960799e-01 -5.572958001e-01 -5.435960799e-01 -4.008390453e-01  4.250471589e-01
3.330000000 -3.998607285e-01  4.274884459e-01 -5.588758483e-01 -5.407372755e-01 -5.588758483e-01 -5.407372755e-01 -3.998607285e-01  4.274884459e-01
3.335000000 -3.988685063e-01  4.299308161e-01 -5.604410165e-01 -5.378706091e-01 -5.604410165e-01 -5.378706091e-01 -3.988685063e-01  4.299308161e-01
3.340000000 -3.978623283e-01  4.323742271e-01 -5.619912519e-01 -5.349961745e-01 -5.619912519e-01 -5.349961745e-01 -3.978623283e-01  4.323742271e-01
3.345000000 -3.968421510e-01  4.348185953e-01 -5.635264815e-01 -5.321140197e-01 -5.635264815e-01 -5.321140197e-01 -3.968421510e-01  4.348185953e-01
3.350000000 -3.958079290e-01  4.372638486e-01 -5.650466378e-01 -5.292242068e-01 -5.650466378e-01 -5.292242068e-01 -3.958079290e-01  4.372638486e-01
3.355000000 -3.947596160e-01  4.397099199e-01 -5.665516564e-01 -5.263268049e-01 -5.665516564e-01 -5.263268049e-01 -3.947596160e-01  4.397099199e-01
3.360000000 -3.936971657e-01  4.421567416e-01 -5.680414730e-01 -5.234218836e-01 -5.680414730e-01 -5.234218836e-01 -3.936971657e-01  4.421567416e-01
3.363636364 -3.929155688e-01  4.439366808e-01 -5.691153911e-01 -5.213045307e-01 -5.691153911e-01 -5.213045307e-01 -3.929155688e-01  4.439366808e-01
3.365000000 -3.926205324e-01  4.446042541e-01 -5.695160271e-01 -5.205095222e-01 -5.695160271e-01 -5.205095222e-01 -3.926205324e-01  4.446042541e-01
3.370000000 -3.915296703e-01  4.470524030e-01 -5.709752607e-01 -5.175898064e-01 -5.709752607e-01 -5.175898064e-01 -3.915296703e-01  4.470524030e-01
3.375000000 -3.904245335e-01  4.495010964e-01 -5.724191011e-01 -5.146627834e-01 -5.724191011e-01 -5.146627834e-01 -3.904245335e-01  4.495010964e-01
3.380000000 -3.893050766e-01  4.519502647e-01 -5.738474846e-01 -5.117285254e-01 -5.738474846e-01 -5.117285254e-01 -3.893050766e-01  4.519502647e-01
3.385000000 -3.881712539e-01  4.543998376e-01 -5.752603477e-01 -5.087871047e-01 -5.752603477e-01 -5.087871047e-01 -3.881712539e-01  4.543998376e-01
3.390000000 -3.870230239e-01  4.568497644e-01 -5.766576327e-01 -5.058386153e-01 -5.766576327e-01 -5.058386153e-01 -3.870230239e-01  4.568497644e-01
3.395000000 -3.858603437e-01  4.592999839e-01 -5.780392799e-01 -5.028831412e-01 -5.780392799e-01 -5.028831412e-01 -3.858603437e-01  4.592999839e-01
3.400000000 -3.846831627e-01  4.617503941e-01 -5.794052179e-01 -4.999207254e-01 -5.794052179e-01 -4.999207254e-01 -3.846831627e-01  4.617503941e-01
3.405000000 -3.834914362e-01  4.642009227e-01 -5.807553840e-01 -4.969514427e-01 -5.807553840e-01 -4.969514427e-01 -3.834914362e-01  4.642009227e-01
3.410000000 -3.822851196e-01  4.666514968e-01 -5.820897152e-01 -4.939753687e-01 -5.820897152e-01 -4.939753687e-01 -3.822851196e-01  4.666514968e-01
3.415000000 -3.810641684e-01  4.691020429e-01 -5.834081493e-01 -4.909925795e-01 -5.834081493e-01 -4.909925795e-01 -3.810641684e-01  4.691020429e-01
3.420000000 -3.798285383e-01  4.715524870e-01 -5.847106237e-01 -4.880031518e-01 -5.847106237e-01 -4.880031518e-01 -3.798285383e-01  4.715524870e-01
3.425000000 -3.785781852e-01  4.740027546e-01 -5.859970764e-01 -4.850071628e-01 -5.859970764e-01 -4.850071628e-01 -3.785781852e-01  4.740027546e-01
3.430000000 -3.773130651e-01  4.764527705e-01 -5.872674454e-01 -4.820046906e-01 -5.872674454e-01 -4.820046906e-01 -3.773130651e-01  4.764527705e-01
3.435000000 -3.760331343e-01  4.789024591e-01 -5.885216690e-01 -4.789958135e-01 -5.885216690e-01 -4.789958135e-01 -3.760331343e-01  4.789024591e-01
3.440000000 -3.747383494e-01  4.813517440e-01 -5.897596855e-01 -4.759806109e-01 -5.897596855e-01 -4.759806109e-01 -3.747383494e-01  4.813517440e-01
3.445000000 -3.734286901e-01  4.838005970e-01 -5.909814393e-01 -4.729592129e-01 -5.909814393e-01 -4.729592129e-01 -3.734286901e-01  4.838005970e-01
3.450000000 -3.721040906e-01  4.862488923e-01 -5.921868644e-01 -4.699316492e-01 -5.921868644e-01 -4.699316492e-01 -3.721040906e-01  4.862488923e-01
3.455000000 -3.707645081e-01  4.886965519e-01 -5.933758998e-01 -4.668980007e-01 -5.933758998e-01 -4.668980007e-01 -3.707645081e-01  4.886965519e-01
3.460000000 -3.694098997e-01  4.911434972e-01 -5.945484848e-01 -4.638583490e-01 -5.945484848e-01 -4.638583490e-01 -3.694098997e-01  4.911434972e-01
3.465000000 -3.680402232e-01  4.935896491e-01 -5.957045590e-01 -4.608127764e-01 -5.957045590e-01 -4.608127764e-01 -3.680402232e-01  4.935896491e-01
3.470000000 -3.666554361e-01  4.960349280e-01 -5.968440620e-01 -4.577613657e-01 -5.968440620e-01 -4.577613657e-01 -3.666554361e-01  4.960349280e-01
3.475000000 -3.652554965e-01  4.984792535e-01 -5.979669340e-01 -4.547042005e-01 -5.979669340e-01 -4.547042005e-01 -3.652554965e-01  4.984792535e-01
3.480000000 -3.638403626e-01  5.009225448e-01 -5.990731150e-01 -4.516413649e-01 -5.990731150e-01 -4.516413649e-01 -3.638403626e-01  5.009225448e-01
3.485000000 -3.624099930e-01  5.033647204e-01 -6.001625457e-01 -4.485729436e-01 -6.001625457e-01 -4.485729436e-01 -3.624099930e-01  5.033647204e-01
3.490000000 -3.609643462e-01  5.058056983e-01 -6.012351667e-01 -4.454990221e-01 -6.012351667e-01 -4.454990221e-01 -3.609643462e-01  5.058056983e-01
3.495000000 -3.595033922e-01  5.082454029e-01 -6.022909129e-01 -4.424196965e-01 -6.022909129e-01 -4.424196965e-01 -3.595033922e-01  5.082454029e-01
3.500000000 -3.580270869e-01  5.106837488e-01 -6.033297278e-01 -4.393350502e-01 -6.033297278e-01 -4.393350502e-01 -3.580270869e-01  5.106837488e-01
3.505000000 -3.565353822e-01  5.131206475e-01 -6.043515570e-01 -4.362451637e-01 -6.043515570e-01 -4.362451637e-01 -3.565353822e-01  5.131206475e-01
3.510000000 -3.550282381e-01  5.155560144e-01 -6.053563423e-01 -4.331501251e-01 -6.053563423e-01 -4.331501251e-01 -3.550282381e-01  5.155560144e-01
3.515000000 -3.535056145e-01  5.179897647e-01 -6.063440256e-01 -4.300500229e-01 -6.063440256e-01 -4.300500229e-01 -3.535056145e-01  5.179897647e-01
3.520000000 -3.519674717e-01  5.204218125e-01 -6.073145494e-01 -4.269449465e-01 -6.073145494e-01 -4.269449465e-01 -3.519674717e-01  5.204218125e-01
3.525000000 -3.504137703e-01  5.228520718e-01 -6.082678564e-01 -4.238349859e-01 -6.082678564e-01 -4.238349859e-01 -3.504137703e-01  5.228520718e-01
3.530000000 -3.488444713e-01  5.252804557e-01 -6.092038894e-01 -4.207202315e-01 -6.092038894e-01 -4.207202315e-01 -3.488444713e-01  5.252804557e-01
3.535000000 -3.472595357e-01  5.277068766e-01 -6.101225917e-01 -4.176007748e-01 -6.101225917e-01 -4.176007748e-01 -3.472595357e-01  5.277068766e-01
3.540000000 -3.456589251e-01  5.301312467e-01 -6.110239070e-01 -4.144767076e-01 -6.110239070e-01 -4.144767076e-01 -3.456589251e-01  5.301312467e-01
3.545000000 -3.440426021e-01  5.325534766e-01 -6.119077785e-01 -4.113481236e-01 -6.119077785e-01 -4.113481236e-01 -3.440426021e-01  5.325534766e-01
3.550000000 -3.424105313e-01  5.349734759e-01 -6.127741491e-01 -4.082151192e-01 -6.127741491e-01 -4.082151192e-01 -3.424105313e-01  5.349734759e-01
3.555000000 -3.407626717e-01  5.373911564e-01 -6.136229652e-01 -4.050777841e-01 -6.136229652e-01 -4.050777841e-01 -3.407626717e-01  5.373911564e-01
3.560000000 -3.390989863e-01  5.398064275e-01 -6.144541717e-01 -4.019362129e-01 -6.144541717e-01 -4.019362129e-01 -3.390989863e-01  5.398064275e-01
3.565000000 -3.374194382e-01  5.422191981e-01 -6.152677139e-01 -3.987905009e-01 -6.152677139e-01 -3.987905009e-01 -3.374194382e-01  5.422191981e-01
3.570000000 -3.357239906e-01  5.446293764e-01 -6.160635373e-01 -3.956407439e-01 -6.160635373e-01 -3.956407439e-01 -3.357239906e-01  5.446293764e-01
3.575000000 -3.340126075e-01  5.470368700e-01 -6.168415878e-01 -3.924870387e-01 -6.168415878e-01 -3.924870387e-01 -3.340126075e-01  5.470368700e-01
3.580000000 -3.322852530e-01  5.494415859e-01 -6.176018117e-01 -3.893294825e-01 -6.176018117e-01 -3.893294825e-01 -3.322852530e-01  5.494415859e-01
3.585000000 -3.305418915e-01  5.518434304e-01 -6.183441555e-01 -3.861681733e-01 -6.183441555e-01 -3.861681733e-01 -3.305418915e-01  5.518434304e-01
3.590000000 -3.287824880e-01  5.542423091e-01 -6.190685664e-01 -3.830032098e-01 -6.190685664e-01 -3.830032098e-01 -3.287824880e-01  5.542423091e-01
3.595000000 -3.270070075e-01  5.566381273e-01 -6.197749916e-01 -3.798346912e-01 -6.197749916e-01 -3.798346912e-01 -3.270070075e-01  5.566381273e-01
3.600000000 -3.252154169e-01  5.590308047e-01 -6.204633983e-01 -3.766627348e-01 -6.204633983e-01 -3.766627348e-01 -3.252154169e-01  5.590308047e-01
3.605000000 -3.234076815e-01  5.614202336e-01 -6.211337205e-01 -3.734874279e-01 -6.211337205e-01 -3.734874279e-01 -3.234076815e-01  5.614202336e-01
3.610000000 -3.215837674e-01  5.638063133e-01 -6.217859021e-01 -3.703088679e-01 -6.217859021e-01 -3.703088679e-01 -3.215837674e-01  5.638063133e-01
3.615000000 -3.197436413e-01  5.661889464e-01 -6.224198919e-01 -3.671271566e-01 -6.224198919e-01 -3.671271566e-01 -3.197436413e-01  5.661889464e-01
3.620000000 -3.178872705e-01  5.685680346e-01 -6.230356394e-01 -3.639423968e-01 -6.230356394e-01 -3.639423968e-01 -3.178872705e-01  5.685680346e-01
3.625000000 -3.160146225e-01  5.709434792e-01 -6.236330943e-01 -3.607546921e-01 -6.236330943e-01 -3.607546921e-01 -3.160146225e-01  5.709434792e-01
3.630000000 -3.141256654e-01  5.733151809e-01 -6.242122070e-01 -3.575641466e-01 -6.242122070e-01 -3.575641466e-01 -3.141256654e-01  5.733151809e-01
3.635000000 -3.122203677e-01  5.756830395e-01 -6.247729281e-01 -3.543708652e-01 -6.247729281e-01 -3.543708652e-01 -3.122203677e-01  5.756830395e-01
3.640000000 -3.102986981e-01  5.780469544e-01 -6.253152087e-01 -3.511749533e-01 -6.253152087e-01 -3.511749533e-01 -3.102986981e-01  5.780469544e-01
3.645000000 -3.083606260e-01  5.804068241e-01 -6.258390003e-01 -3.479765173e-01 -6.258390003e-01 -3.479765173e-01 -3.083606260e-01  5.804068241e-01
3.650000000 -3.064061274e-01  5.827625659e-01 -6.263442710e-01 -3.447756797e-01 -6.263442710e-01 -3.447756797e-01 -3.064061274e-01  5.827625659e-01
3.655000000 -3.044351757e-01  5.851140868e-01 -6.268309819e-01 -3.415725557e-01 -6.268309819e-01 -3.415725557e-01 -3.044351757e-01  5.851140868e-01
3.660000000 -3.024477326e-01  5.874612548e-01 -6.272990619e-01 -3.383672298e-01 -6.272990619e-01 -3.383672298e-01 -3.024477326e-01  5.874612548e-01
3.665000000 -3.004437692e-01  5.898039660e-01 -6.277484647e-01 -3.351598109e-01 -6.277484647e-01 -3.351598109e-01 -3.004437692e-01  5.898039660e-01
3.670000000 -2.984232571e-01  5.921421157e-01 -6.281791439e-01 -3.319504088e-01 -6.281791439e-01 -3.319504088e-01 -2.984232571e-01  5.921421157e-01
3.675000000 -2.963861684e-01  5.944755988e-01 -6.285910542e-01 -3.287391340e-01 -6.285910542e-01 -3.287391340e-01 -2.963861684e-01  5.944755988e-01
3.680000000 -2.943324757e-01  5.968043093e-01 -6.289841504e-01 -3.255260976e-01 -6.289841504e-01 -3.255260976e-01 -2.943324757e-01  5.968043093e-01
3.685000000 -2.922621521e-01  5.991281406e-01 -6.293583880e-01 -3.223114115e-01 -6.293583880e-01 -3.223114115e-01 -2.922621521e-01  5.991281406e-01
3.690000000 -2.901751713e-01  6.014469855e-01 -6.297137228e-01 -3.190951883e-01 -6.297137228e-01 -3.190951883e-01 -2.901751713e-01  6.014469855e-01
3.695000000 -2.880715073e-01  6.037607361e-01 -6.300501115e-01 -3.158775411e-01 -6.300501115e-01 -3.158775411e-01 -2.880715073e-01  6.037607361e-01
3.700000000 -2.859511349e-01  6.060692837e-01 -6.303675109e-01 -3.126585841e-01 -6.303675109e-01 -3.126585841e-01 -2.859511349e-01  6.060692837e-01
3.705000000 -2.838140509e-01  6.083725588e-01 -6.306659026e-01 -3.094384618e-01 -6.306659026e-01 -3.094384618e-01 -2.838140509e-01  6.083725588e-01
3.710000000 -2.816602097e-01  6.106704122e-01 -6.309452213e-01 -3.062172591e-01 -6.309452213e-01 -3.062172591e-01 -2.816602097e-01  6.106704122e-01
3.715000000 -2.794895875e-01  6.129627333e-01 -6.312054255e-01 -3.029950923e-01 -6.312054255e-01 -3.029950923e-01 -2.794895875e-01  6.129627333e-01
3.720000000 -2.773021612e-01  6.152494109e-01 -6.314464745e-01 -2.997720781e-01 -6.314464745e-01 -2.997720781e-01 -2.773021612e-01  6.152494109e-01
3.725000000 -2.750979080e-01  6.175303331e-01 -6.316683282e-01 -2.965483341e-01 -6.316683282e-01 -2.965483341e-01 -2.750979080e-01  6.175303331e-01
3.727272727 -2.740904062e-01  6.185651829e-01 -6.317628145e-01 -2.950827866e-01 -6.317628145e-01 -2.950827866e-01 -2.740904062e-01  6.185651829e-01
3.730000000 -2.728768143e-01  6.198053973e-01 -6.318709501e-01 -2.933239868e-01 -6.318709501e-01 -2.933239868e-01 -2.728768143e-01  6.198053973e-01
3.735000000 -2.706388574e-01  6.220744888e-01 -6.320543007e-01 -2.900991536e-01 -6.320543007e-01 -2.900991536e-01 -2.706388574e-01  6.220744888e-01
3.740000000 -2.683840095e-01  6.243374854e-01 -6.322183391e-01 -2.868739472e-01 -6.322183391e-01 -2.868739472e-01 -2.683840095e-01  6.243374854e-01
3.745000000 -2.661122504e-01  6.265942728e-01 -6.323630275e-01 -2.836484882e-01 -6.323630275e-01 -2.836484882e-01 -2.661122504e-01  6.265942728e-01
3.750000000 -2.638235605e-01  6.288447356e-01 -6.324883289e-01 -2.804228975e-01 -6.324883289e-01 -2.804228975e-01 -2.638235605e-01  6.288447356e-01
3.755000000 -2.615179306e-01  6.310887639e-01 -6.325942041e-01 -2.771973048e-01 -6.325942041e-01 -2.771973048e-01 -2.615179306e-01  6.310887639e-01
3.760000000 -2.591953392e-01  6.333262393e-01 -6.326806182e-01 -2.739718299e-01 -6.326806182e-01 -2.739718299e-01 -2.591953392e-01  6.333262393e-01
3.765000000 -2.568557619e-01  6.355570407e-01 -6.327475376e-01 -2.707465909e-01 -6.327475376e-01 -2.707465909e-01 -2.568557619e-01  6.355570407e-01
3.770000000 -2.544991816e-01  6.377810504e-01 -6.327949277e-01 -2.675217118e-01 -6.327949277e-01 -2.675217118e-01 -2.544991816e-01  6.377810504e-01
3.775000000 -2.521255817e-01  6.399981497e-01 -6.328227545e-01 -2.642973173e-01 -6.328227545e-01 -2.642973173e-01 -2.521255817e-01  6.399981497e-01
3.780000000 -2.497349466e-01  6.422082196e-01 -6.328309850e-01 -2.610735328e-01 -6.328309850e-01 -2.610735328e-01 -2.497349466e-01  6.422082196e-01
3.785000000 -2.473272610e-01  6.444111401e-01 -6.328195864e-01 -2.578504843e-01 -6.328195864e-01 -2.578504843e-01 -2.473272610e-01  6.444111401e-01
3.790000000 -2.449025106e-01  6.466067908e-01 -6.327885269e-01 -2.546282987e-01 -6.327885269e-01 -2.546282987e-01 -2.449025106e-01  6.466067908e-01
3.795000000 -2.424606816e-01  6.487950506e-01 -6.327377755e-01 -2.514071034e-01 -6.327377755e-01 -2.514071034e-01 -2.424606816e-01  6.487950506e-01
3.800000000 -2.400017610e-01  6.509757975e-01 -6.326673015e-01 -2.481870267e-01 -6.326673015e-01 -2.481870267e-01 -2.400017610e-01  6.509757975e-01
3.805000000 -2.375257382e-01  6.531489084e-01 -6.325770738e-01 -2.449681990e-01 -6.325770738e-01 -2.449681990e-01 -2.375257382e-01  6.531489084e-01
3.810000000 -2.350326072e-01  6.553142580e-01 -6.324670589e-01 -2.417507543e-01 -6.324670589e-01 -2.417507543e-01 -2.350326072e-01  6.553142580e-01
3.815000000 -2.325223498e-01  6.574717255e-01 -6.323372347e-01 -2.385348172e-01 -6.323372347e-01 -2.385348172e-01 -2.325223498e-01  6.574717255e-01
3.820000000 -2.299949558e-01  6.596211863e-01 -6.321875736e-01 -2.353205188e-01 -6.321875736e-01 -2.353205188e-01 -2.299949558e-01  6.596211863e-01
3.825000000 -2.274504159e-01  6.617625153e-01 -6.320180489e-01 -2.321079908e-01 -6.320180489e-01 -2.321079908e-01 -2.274504159e-01  6.617625153e-01
3.830000000 -2.248887213e-01  6.638955867e-01 -6.318286347e-01 -2.288973657e-01 -6.318286347e-01 -2.288973657e-01 -2.248887213e-01  6.638955867e-01
3.835000000 -2.223098642e-01  6.660202743e-01 -6.316193059e-01 -2.256887767e-01 -6.316193059e-01 -2.256887767e-01 -2.223098642e-01  6.660202743e-01
3.840000000 -2.197138375e-01  6.681364507e-01 -6.313900381e-01 -2.224823576e-01 -6.313900381e-01 -2.224823576e-01 -2.197138375e-01  6.681364507e-01
3.845000000 -2.171006350e-01  6.702439884e-01 -6.311408077e-01 -2.192782431e-01 -6.311408077e-01 -2.192782431e-01 -2.171006350e-01  6.702439884e-01
3.850000000 -2.144702511e-01  6.723427589e-01 -6.308715919e-01 -2.160765683e-01 -6.308715919e-01 -2.160765683e-01 -2.144702511e-01  6.723427589e-01
3.855000000 -2.118226812e-01  6.744326333e-01 -6.305823690e-01 -2.128774693e-01 -6.305823690e-01 -2.128774693e-01 -2.118226812e-01  6.744326333e-01
3.860000000 -2.091579235e-01  6.765134866e-01 -6.302731298e-01 -2.096810874e-01 -6.302731298e-01 -2.096810874e-01 -2.091579235e-01  6.765134866e-01
3.865000000 -2.064759733e-01  6.785851851e-01 -6.299438452e-01 -2.064875562e-01 -6.299438452e-01 -2.064875562e-01 -2.064759733e-01  6.785851851e-01
3.870000000 -2.037768281e-01  6.806475966e-01 -6.295944928e-01 -2.032970126e-01 -6.295944928e-01 -2.032970126e-01 -2.037768281e-01  6.806475966e-01
3.875000000 -2.010604865e-01  6.827005895e-01 -6.292250542e-01 -2.001095952e-01 -6.292250542e-01 -2.001095952e-01 -2.010604865e-01  6.827005895e-01
3.880000000 -1.983269479e-01  6.847440315e-01 -6.288355116e-01 -1.969254434e-01 -6.288355116e-01 -1.969254434e-01 -1.983269479e-01  6.847440315e-01
3.885000000 -1.955762129e-01  6.867777898e-01 -6.284258484e-01 -1.937446974e-01 -6.284258484e-01 -1.937446974e-01 -1.955762129e-01  6.867777898e-01
3.890000000 -1.928082826e-01  6.888017309e-01 -6.279960487e-01 -1.905674980e-01 -6.279960487e-01 -1.905674980e-01 -1.928082826e-01  6.888017309e-01
3.895000000 -1.900231593e-01  6.908157207e-01 -6.275460976e-01 -1.873939865e-01 -6.275460976e-01 -1.873939865e-01 -1.900231593e-01  6.908157207e-01
3.900000000 -1.872208461e-01  6.928196244e-01 -6.270759811e-01 -1.842243051e-01 -6.270759811e-01 -1.842243051e-01 -1.872208461e-01  6.928196244e-01
3.905000000 -1.844013470e-01  6.948133067e-01 -6.265856862e-01 -1.810585966e-01 -6.265856862e-01 -1.810585966e-01 -1.844013470e-01  6.948133067e-01
3.910000000 -1.815646720e-01  6.967966459e-01 -6.260752165e-01 -1.778970089e-01 -6.260752165e-01 -1.778970089e-01 -1.815646720e-01  6.967966459e-01
3.915000000 -1.787108298e-01  6.987695129e-01 -6.255445689e-01 -1.747396879e-01 -6.255445689e-01 -1.747396879e-01 -1.787108298e-01  6.987695129e-01
3.920000000 -1.758398194e-01  7.007317489e-01 -6.249937095e-01 -1.715867715e-01 -6.249937095e-01 -1.715867715e-01 -1.758398194e-01  7.007317489e-01
3.925000000 -1.729516485e-01  7.026832162e-01 -6.244226293e-01 -1.684384049e-01 -6.244226293e-01 -1.684384049e-01 -1.729516485e-01  7.026832162e-01
3.930000000 -1.700463259e-01  7.046237763e-01 -6.238313199e-01 -1.652947344e-01 -6.238313199e-01 -1.652947344e-01 -1.700463259e-01  7.046237763e-01
3.935000000 -1.671238613e-01  7.065532901e-01 -6.232197741e-01 -1.621559066e-01 -6.232197741e-01 -1.621559066e-01 -1.671238613e-01  7.065532901e-01
3.940000000 -1.641842656e-01  7.084716181e-01 -6.225879858e-01 -1.590220689e-01 -6.225879858e-01 -1.590220689e-01 -1.641842656e-01  7.084716181e-01
3.945000000 -1.612275505e-01  7.103786201e-01 -6.219359498e-01 -1.558933694e-01 -6.219359498e-01 -1.558933694e-01 -1.612275505e-01  7.103786201e-01
3.950000000 -1.582537287e-01  7.122741552e-01 -6.212636619e-01 -1.527699567e-01 -6.212636619e-01 -1.527699567e-01 -1.582537287e-01  7.122741552e-01
3.955000000 -1.552628140e-01  7.141580821e-01 -6.205711191e-01 -1.496519801e-01 -6.205711191e-01 -1.496519801e-01 -1.552628140e-01  7.141580821e-01
3.960000000 -1.522548214e-01  7.160302588e-01 -6.198583193e-01 -1.465395895e-01 -6.198583193e-01 -1.465395895e-01 -1.522548214e-01  7.160302588e-01
3.965000000 -1.492297941e-01  7.178905917e-01 -6.191252975e-01 -1.434329508e-01 -6.191252975e-01 -1.434329508e-01 -1.492297941e-01  7.178905917e-01
3.970000000 -1.461877218e-01  7.197388892e-01 -6.183720180e-01 -1.403321991e-01 -6.183720180e-01 -1.403321991e-01 -1.461877218e-01  7.197388892e-01
3.975000000 -1.431286224e-01  7.215750076e-01 -6.175984821e-01 -1.372374862e-01 -6.175984821e-01 -1.372374862e-01 -1.431286224e-01  7.215750076e-01
3.980000000 -1.400525152e-01  7.233988026e-01 -6.168046922e-01 -1.341489642e-01 -6.168046922e-01 -1.341489642e-01 -1.400525152e-01  7.233988026e-01
3.985000000 -1.369594203e-01  7.252101294e-01 -6.159906518e-01 -1.310667864e-01 -6.159906518e-01 -1.310667864e-01 -1.369594203e-01  7.252101294e-01
3.990000000 -1.338493591e-01  7.270088428e-01 -6.151563653e-01 -1.279911061e-01 -6.151563653e-01 -1.279911061e-01 -1.338493591e-01  7.270088428e-01
3.995000000 -1.307223541e-01  7.287947968e-01 -6.143018385e-01 -1.249220777e-01 -6.143018385e-01 -1.249220777e-01 -1.307223541e-01  7.287947968e-01
4.000000000 -1.275784290e-01  7.305678451e-01 -6.134270785e-01 -1.218598557e-01 -6.134270785e-01 -1.218598557e-01 -1.275784290e-01  7.305678451e-01
4.005000000 -1.244176085e-01  7.323278407e-01 -6.125320931e-01 -1.188045956e-01 -6.125320931e-01 -1.188045956e-01 -1.244176085e-01  7.323278407e-01
4.010000000 -1.212399185e-01  7.340746361e-01 -6.116168918e-01 -1.157564531e-01 -6.116168918e-01 -1.157564531e-01 -1.212399185e-01  7.340746361e-01
4.015000000 -1.180454033e-01  7.358081007e-01 -6.106814906e-01 -1.127155946e-01 -6.106814906e-01 -1.127155946e-01 -1.180454033e-01  7.358081007e-01
4.020000000 -1.148340856e-01  7.375280805e-01 -6.097258995e-01 -1.096821734e-01 -6.097258995e-01 -1.096821734e-01 -1.148340856e-01  7.375280805e-01
4.025000000 -1.116059834e-01  7.392344149e-01 -6.087501275e-01 -1.066563406e-01 -6.087501275e-01 -1.066563406e-01 -1.116059834e-01  7.392344149e-01
4.030000000 -1.083611274e-01  7.409269546e-01 -6.077541886e-01 -1.036382543e-01 -6.077541886e-01 -1.036382543e-01 -1.083611274e-01  7.409269546e-01
4.035000000 -1.050995496e-01  7.426055494e-01 -6.067380984e-01 -1.006280732e-01 -6.067380984e-01 -1.006280732e-01 -1.050995496e-01  7.426055494e-01
4.040000000 -1.018212831e-01  7.442700490e-01 -6.057018732e-01 -9.762595646e-02 -6.057018732e-01 -9.762595646e-02 -1.018212831e-01  7.442700490e-01
4.045000000 -9.852636239e-02  7.459203025e-01 -6.046455311e-01 -9.463206370e-02 -6.046455311e-01 -9.463206370e-02 -9.852636239e-02  7.459203025e-01
4.050000000 -9.521482310e-02  7.475561584e-01 -6.035690912e-01 -9.164655515e-02 -6.035690912e-01 -9.164655515e-02 -9.521482310e-02  7.475561584e-01
4.055000000 -9.188670220e-02  7.491774649e-01 -6.024725740e-01 -8.866959152e-02 -6.024725740e-01 -8.866959152e-02 -9.188670220e-02  7.491774649e-01
4.060000000 -8.854203791e-02  7.507840697e-01 -6.013560012e-01 -8.570133398e-02 -6.013560012e-01 -8.570133398e-02 -8.854203791e-02  7.507840697e-01
4.065000000 -8.518087252e-02  7.523758204e-01 -6.002193948e-01 -8.274194625e-02 -6.002193948e-01 -8.274194625e-02 -8.518087252e-02  7.523758204e-01
4.070000000 -8.180325519e-02  7.539525653e-01 -5.990627760e-01 -7.979159649e-02 -5.990627760e-01 -7.979159649e-02 -8.180325519e-02  7.539525653e-01
4.075000000 -7.840921709e-02  7.555141491e-01 -5.978861751e-01 -7.685043936e-02 -5.978861751e-01 -7.685043936e-02 -7.840921709e-02  7.555141491e-01
4.080000000 -7.499880173e-02  7.570604177e-01 -5.966896190e-01 -7.391863795e-02 -5.966896190e-01 -7.391863795e-02 -7.499880173e-02  7.570604177e-01
4.085000000 -7.157205396e-02  7.585912168e-01 -5.954731363e-01 -7.099635579e-02 -5.954731363e-01 -7.099635579e-02 -7.157205396e-02  7.585912168e-01
4.090000000 -6.812901998e-02  7.601063916e-01 -5.942367569e-01 -6.808375688e-02 -5.942367569e-01 -6.808375688e-02 -6.812901998e-02  7.601063916e-01
4.090909091 -6.750126773e-02  7.603801872e-01 -5.940098254e-01 -6.755524663e-02 -5.940098254e-01 -6.755524663e-02 -6.750126773e-02  7.603801872e-01
4.095000000 -6.466975040e-02  7.616057836e-01 -5.929805094e-01 -6.518100885e-02 -5.929805094e-01 -6.518100885e-02 -6.466975040e-02  7.616057836e-01
4.100000000 -6.119429186e-02  7.630892397e-01 -5.917044286e-01 -6.228827406e-02 -5.917044286e-01 -6.228827406e-02 -6.119429186e-02  7.630892397e-01
4.105000000 -5.770269404e-02  7.645566048e-01 -5.904085492e-01 -5.940571707e-02 -5.904085492e-01 -5.940571707e-02 -5.770269404e-02  7.645566048e-01
4.110000000 -5.419500871e-02  7.660077226e-01 -5.890929065e-01 -5.653350353e-02 -5.890929065e-01 -5.653350353e-02 -5.419500871e-02  7.660077226e-01
4.115000000 -5.067128906e-02  7.674424365e-01 -5.877575376e-01 -5.367179948e-02 -5.877575376e-01 -5.367179948e-02 -5.067128906e-02  7.674424365e-01
4.120000000 -4.713159080e-02  7.688605894e-01 -5.864024856e-01 -5.082077191e-02 -5.864024856e-01 -5.082077191e-02 -4.713159080e-02  7.688605894e-01
4.125000000 -4.357596914e-02  7.702620240e-01 -5.850277868e-01 -4.798058708e-02 -5.850277868e-01 -4.798058708e-02 -4.357596914e-02  7.702620240e-01
4.130000000 -4.000448133e-02  7.716465830e-01 -5.836334815e-01 -4.515141200e-02 -5.836334815e-01 -4.515141200e-02 -4.000448133e-02  7.716465830e-01
4.135000000 -3.641718635e-02  7.730141083e-01 -5.822196125e-01 -4.233341417e-02 -5.822196125e-01 -4.233341417e-02 -3.641718635e-02  7.730141083e-01
4.140000000 -3.281414469e-02  7.743644418e-01 -5.807862242e-01 -3.952676142e-02 -5.807862242e-01 -3.952676142e-02 -3.281414469e-02  7.743644418e-01
4.145000000 -2.919541831e-02  7.756974251e-01 -5.793333624e-01 -3.673162190e-02 -5.793333624e-01 -3.673162190e-02 -2.919541831e-02  7.756974251e-01
4.150000000 -2.556107066e-02  7.770128993e-01 -5.778610746e-01 -3.394816409e-02 -5.778610746e-01 -3.394816409e-02 -2.556107066e-02  7.770128993e-01
4.155000000 -2.191116675e-02  7.783107056e-01 -5.763694097e-01 -3.117655675e-02 -5.763694097e-01 -3.117655675e-02 -2.191116675e-02  7.783107056e-01
4.160000000 -1.824577308e-02  7.795906846e-01 -5.748584182e-01 -2.841696894e-02 -5.748584182e-01 -2.841696894e-02 -1.824577308e-02  7.795906846e-01
4.165000000 -1.456495772e-02  7.808526770e-01 -5.733281522e-01 -2.566956997e-02 -5.733281522e-01 -2.566956997e-02 -1.456495772e-02  7.808526770e-01
4.170000000 -1.086879224e-02  7.820965327e-01 -5.717786759e-01 -2.293452710e-02 -5.717786759e-01 -2.293452710e-02 -1.086879224e-02  7.820965327e-01
4.175000000 -7.157348652e-03  7.833220969e-01 -5.702100497e-01 -2.021200867e-02 -5.702100497e-01 -2.021200867e-02 -7.157348652e-03  7.833220969e-01
4.180000000 -3.430696696e-03  7.845291950e-01 -5.686223144e-01 -1.750218806e-02 -5.686223144e-01 -1.750218806e-02 -3.430696696e-03  7.845291950e-01
4.185000000  3.110893014e-04  7.857176668e-01 -5.670155287e-01 -1.480523556e-02 -5.670155287e-01 -1.480523556e-02  3.110893014e-04  7.857176668e-01
4.190000000  4.067933406e-03  7.868873519e-01 -5.653897525e-01 -1.212132166e-02 -5.653897525e-01 -1.212132166e-02  4.067933406e-03  7.868873519e-01
4.195000000  7.839758075e-03  7.880380898e-01 -5.637450475e-01 -9.450617040e-03 -5.637450475e-01 -9.450617040e-03  7.839758075e-03  7.880380898e-01
4.200000000  1.162648414e-02  7.891697197e-01 -5.620814771e-01 -6.793292560e-03 -5.620814771e-01 -6.793292560e-03  1.162648414e-02  7.891697197e-01
4.205000000  1.542803080e-02  7.902820811e-01 -5.603991063e-01 -4.149519241e-03 -5.603991063e-01 -4.149519241e-03  1.542803080e-02  7.902820811e-01
4.210000000  1.924431562e-02  7.913750128e-01 -5.586980018e-01 -1.519468249e-03 -5.586980018e-01 -1.519468249e-03  1.924431562e-02  7.913750128e-01
4.215000000  2.307525448e-02  7.924483540e-01 -5.569782320e-01  1.096689117e-03 -5.569782320e-01  1.096689117e-03  2.307525448e-02  7.924483540e-01
4.220000000  2.692076162e-02  7.935019437e-01 -5.552398669e-01  3.698781442e-03 -5.552398669e-01  3.698781442e-03  2.692076162e-02  7.935019437e-01
4.225000000  3.078073233e-02  7.945356675e-01 -5.534830094e-01  6.286642627e-03 -5.534830094e-01  6.286642627e-03  3.078073233e-02  7.945356675e-01
4.230000000  3.465509501e-02  7.955493178e-01 -5.517077016e-01  8.860096278e-03 -5.517077016e-01  8.860096278e-03  3.465509501e-02  7.955493178e-01
4.235000000  3.854375884e-02  7.965427334e-01 -5.499140187e-01  1.141897072e-02 -5.499140187e-01  1.141897072e-02  3.854375884e-02  7.965427334e-01
4.240000000  4.244663127e-02  7.975157531e-01 -5.481020376e-01  1.396309423e-02 -5.481020376e-01  1.396309423e-02  4.244663127e-02  7.975157531e-01
4.245000000  4.636361804e-02  7.984682158e-01 -5.462718370e-01  1.649229505e-02 -5.462718370e-01  1.649229505e-02  4.636361804e-02  7.984682158e-01
4.250000000  5.029462314e-02  7.993999603e-01 -5.444234973e-01  1.900640139e-02 -5.444234973e-01  1.900640139e-02  5.029462314e-02  7.993999603e-01
4.255000000  5.423954886e-02  8.003108256e-01 -5.425571008e-01  2.150524149e-02 -5.425571008e-01  2.150524149e-02  5.423954886e-02  8.003108256e-01
4.260000000  5.819829568e-02  8.012006506e-01 -5.406727315e-01  2.398864357e-02 -5.406727315e-01  2.398864357e-02  5.819829568e-02  8.012006506e-01
4.265000000  6.217076236e-02  8.020692744e-01 -5.387704751e-01  2.645643591e-02 -5.387704751e-01  2.645643591e-02  6.217076236e-02  8.020692744e-01
4.270000000  6.615684588e-02  8.029165361e-01 -5.368504191e-01  2.890844683e-02 -5.368504191e-01  2.890844683e-02  6.615684588e-02  8.029165361e-01
4.275000000  7.015642570e-02  8.037422977e-01 -5.349126620e-01  3.134450161e-02 -5.349126620e-01  3.134450161e-02  7.015642570e-02  8.037422977e-01
4.280000000  7.416940057e-02  8.045463912e-01 -5.329572918e-01  3.376443006e-02 -5.329572918e-01  3.376443006e-02  7.416940057e-02  8.045463912e-01
4.285000000  7.819567258e-02  8.053286410e-01 -5.309843956e-01  3.616806290e-02 -5.309843956e-01  3.616806290e-02  7.819567258e-02  8.053286410e-01
4.290000000  8.223513152e-02  8.060888870e-01 -5.289940684e-01  3.855522885e-02 -5.289940684e-01  3.855522885e-02  8.223513152e-02  8.060888870e-01
4.295000000  8.628766537e-02  8.068269690e-01 -5.269864068e-01  4.092575676e-02 -5.269864068e-01  4.092575676e-02  8.628766537e-02  8.068269690e-01
4.300000000  9.035316026e-02  8.075427271e-01 -5.249615095e-01  4.327947565e-02 -5.249615095e-01  4.327947565e-02  9.035316026e-02  8.075427271e-01
4.305000000  9.443150048e-02  8.082360017e-01 -5.229194768e-01  4.561621475e-02 -5.229194768e-01  4.561621475e-02  9.443150048e-02  8.082360017e-01
4.310000000  9.852256851e-02  8.089066334e-01 -5.208604112e-01  4.793580347e-02 -5.208604112e-01  4.793580347e-02  9.852256851e-02  8.089066334e-01
4.315000000  1.026262449e-01  8.095544631e-01 -5.187844168e-01  5.023807144e-02 -5.187844168e-01  5.023807144e-02  1.026262449e-01  8.095544631e-01
4.320000000  1.067424085e-01  8.101793318e-01 -5.166915997e-01  5.252284855e-02 -5.166915997e-01  5.252284855e-02  1.067424085e-01  8.101793318e-01
4.325000000  1.108709317e-01  8.107810828e-01 -5.145820676e-01  5.478996231e-02 -5.145820676e-01  5.478996231e-02  1.108709317e-01  8.107810828e-01
4.330000000  1.150116768e-01  8.113595630e-01 -5.124559296e-01  5.703923526e-02 -5.124559296e-01  5.703923526e-02  1.150116768e-01  8.113595630e-01
4.335000000  1.191645338e-01  8.119146079e-01 -5.103132987e-01  5.927050873e-02 -5.103132987e-01  5.927050873e-02  1.191645338e-01  8.119146079e-01
4.340000000  1.233293740e-01  8.124460601e-01 -5.081542888e-01  6.148361382e-02 -5.081542888e-01  6.148361382e-02  1.233293740e-01  8.124460601e-01
4.345000000  1.275060667e-01  8.129537624e-01 -5.059790156e-01  6.367838195e-02 -5.059790156e-01  6.367838195e-02  1.275060667e-01  8.129537624e-01
4.350000000  1.316944793e-01  8.134375583e-01 -5.037875967e-01  6.585464494e-02 -5.037875967e-01  6.585464494e-02  1.316944793e-01  8.134375583e-01
4.355000000  1.358944771e-01  8.138972914e-01 -5.015801517e-01  6.801223499e-02 -5.015801517e-01  6.801223499e-02  1.358944771e-01  8.138972914e-01
4.360000000  1.401059239e-01  8.143328060e-01 -4.993568021e-01  7.015098472e-02 -4.993568021e-01  7.015098472e-02  1.401059239e-01  8.143328060e-01
4.365000000  1.443286811e-01  8.147439469e-01 -4.971176714e-01  7.227072720e-02 -4.971176714e-01  7.227072720e-02  1.443286811e-01  8.147439469e-01
4.370000000  1.485626085e-01  8.151305593e-01 -4.948628850e-01  7.437129597e-02 -4.948628850e-01  7.437129597e-02  1.485626085e-01  8.151305593e-01
4.375000000  1.528075638e-01  8.154924889e-01 -4.925925705e-01  7.645252503e-02 -4.925925705e-01  7.645252503e-02  1.528075638e-01  8.154924889e-01
4.380000000  1.570633970e-01  8.158295774e-01 -4.903068566e-01  7.851424356e-02 -4.903068566e-01  7.851424356e-02  1.570633970e-01  8.158295774e-01
4.385000000  1.613299662e-01  8.161416753e-01 -4.880058752e-01  8.055629067e-02 -4.880058752e-01  8.055629067e-02  1.613299662e-01  8.161416753e-01
4.390000000  1.656071248e-01  8.164286312e-01 -4.856897600e-01  8.257850332e-02 -4.856897600e-01  8.257850332e-02  1.656071248e-01  8.164286312e-01
4.395000000  1.698947226e-01  8.166902934e-01 -4.833586462e-01  8.458071774e-02 -4.833586462e-01  8.458071774e-02  1.698947226e-01  8.166902934e-01
4.400000000  1.741926076e-01  8.169265105e-01 -4.810126713e-01  8.656277073e-02 -4.810126713e-01  8.656277073e-02  1.741926076e-01  8.169265105e-01
4.405000000  1.785006258e-01  8.171371321e-01 -4.786519746e-01  8.852449976e-02 -4.786519746e-01  8.852449976e-02  1.785006258e-01  8.171371321e-01
4.410000000  1.828186211e-01  8.173220083e-01 -4.762766975e-01  9.046574293e-02 -4.762766975e-01  9.046574293e-02  1.828186211e-01  8.173220083e-01
4.415000000  1.871464356e-01  8.174809900e-01 -4.738869835e-01  9.238633903e-02 -4.738869835e-01  9.238633903e-02  1.871464356e-01  8.174809900e-01
4.420000000  1.914839092e-01  8.176139289e-01 -4.714829779e-01  9.428612756e-02 -4.714829779e-01  9.428612756e-02  1.914839092e-01  8.176139289e-01
4.425000000  1.958308801e-01  8.177206772e-01 -4.690648283e-01  9.616494875e-02 -4.690648283e-01  9.616494875e-02  1.958308801e-01  8.177206772e-01
4.430000000  2.001871849e-01  8.178010900e-01 -4.666326869e-01  9.802264578e-02 -4.666326869e-01  9.802264578e-02  2.001871849e-01  8.178010900e-01
4.435000000  2.045526582e-01  8.178550221e-01 -4.641867064e-01  9.985906160e-02 -4.641867064e-01  9.985906160e-02  2.045526582e-01  8.178550221e-01
4.440000000  2.089271310e-01  8.178823259e-01 -4.617270362e-01  1.016740356e-01 -4.617270362e-01  1.016740356e-01  2.089271310e-01  8.178823259e-01
4.445000000  2.133104333e-01  8.178828571e-01 -4.592538318e-01  1.034674111e-01 -4.592538318e-01  1.034674111e-01  2.133104333e-01  8.178828571e-01
4.450000000  2.177023932e-01  8.178564725e-01 -4.567672508e-01  1.052390325e-01 -4.567672508e-01  1.052390325e-01  2.177023932e-01  8.178564725e-01
4.454545455  2.217024505e-01  8.178090098e-01 -4.544952491e-01  1.068305895e-01 -4.544952491e-01  1.068305895e-01  2.217024505e-01  8.178090098e-01
4.455000000  2.221028369e-01  8.178030307e-01 -4.542674536e-01  1.069887457e-01 -4.542674536e-01  1.069887457e-01  2.221028369e-01  8.178030307e-01
4.460000000  2.265115896e-01  8.177224005e-01 -4.517546084e-01  1.087164034e-01 -4.517546084e-01  1.087164034e-01  2.265115896e-01  8.177224005e-01
4.465000000  2.309284723e-01  8.176144302e-01 -4.492288714e-01  1.104218455e-01 -4.492288714e-01  1.104218455e-01  2.309284723e-01  8.176144302e-01
4.470000000  2.353533049e-01  8.174789803e-01 -4.466904083e-01  1.121049199e-01 -4.466904083e-01  1.121049199e-01  2.353533049e-01  8.174789803e-01
4.475000000  2.397859056e-01  8.173159124e-01 -4.441393868e-01  1.137654756e-01 -4.441393868e-01  1.137654756e-01  2.397859056e-01  8.173159124e-01
4.480000000  2.442260903e-01  8.171250891e-01 -4.415759766e-01  1.154033628e-01 -4.415759766e-01  1.154033628e-01  2.442260903e-01  8.171250891e-01
4.485000000  2.486736696e-01  8.169064043e-01 -4.390003629e-01  1.170184445e-01 -4.390003629e-01  1.170184445e-01  2.486736696e-01  8.169064043e-01
4.490000000  2.531284592e-01  8.166596928e-01 -4.364127060e-01  1.186105611e-01 -4.364127060e-01  1.186105611e-01  2.531284592e-01  8.166596928e-01
4.495000000  2.575902694e-01  8.163848207e-01 -4.338131817e-01  1.201795660e-01 -4.338131817e-01  1.201795660e-01  2.575902694e-01  8.163848207e-01
4.500000000  2.620589081e-01  8.160816552e-01 -4.312019679e-01  1.217253134e-01 -4.312019679e-01  1.217253134e-01  2.620589081e-01  8.160816552e-01
4.505000000  2.665341813e-01  8.157500648e-01 -4.285792447e-01  1.232476592e-01 -4.285792447e-01  1.232476592e-01  2.665341813e-01  8.157500648e-01
4.510000000  2.710158931e-01  8.153899192e-01 -4.259451939e-01  1.247464600e-01 -4.259451939e-01  1.247464600e-01  2.710158931e-01  8.153899192e-01
4.515000000  2.755038456e-01  8.150010894e-01 -4.232999997e-01  1.262215739e-01 -4.232999997e-01  1.262215739e-01  2.755038456e-01  8.150010894e-01
4.520000000  2.799978388e-01  8.145834476e-01 -4.206438481e-01  1.276728603e-01 -4.206438481e-01  1.276728603e-01  2.799978388e-01  8.145834476e-01
4.525000000  2.844976709e-01  8.141368675e-01 -4.179769270e-01  1.291001796e-01 -4.179769270e-01  1.291001796e-01  2.844976709e-01  8.141368675e-01
4.530000000  2.890031379e-01  8.136612239e-01 -4.152994266e-01  1.305033939e-01 -4.152994266e-01  1.305033939e-01  2.890031379e-01  8.136612239e-01
4.535000000  2.935140240e-01  8.131564176e-01 -4.126115458e-01  1.318823698e-01 -4.126115458e-01  1.318823698e-01  2.935140240e-01  8.131564176e-01
4.540000000  2.980301250e-01  8.126223183e-01 -4.099134759e-01  1.332369709e-01 -4.099134759e-01  1.332369709e-01  2.980301250e-01  8.126223183e-01
4.545000000  3.025512378e-01  8.120587890e-01 -4.072054087e-01  1.345670611e-01 -4.072054087e-01  1.345670611e-01  3.025512378e-01  8.120587890e-01
4.550000000  3.070771505e-01  8.114657102e-01 -4.044875420e-01  1.358725077e-01 -4.044875420e-01  1.358725077e-01  3.070771505e-01  8.114657102e-01
4.555000000  3.116076496e-01  8.108429642e-01 -4.017600759e-01  1.371531798e-01 -4.017600759e-01  1.371531798e-01  3.116076496e-01  8.108429642e-01
4.560000000  3.161425193e-01  8.101904347e-01 -3.990232124e-01  1.384089477e-01 -3.990232124e-01  1.384089477e-01  3.161425193e-01  8.101904347e-01
4.565000000  3.206815422e-01  8.095080070e-01 -3.962771556e-01  1.396396834e-01 -3.962771556e-01  1.396396834e-01  3.206815422e-01  8.095080070e-01
4.570000000  3.252244986e-01  8.087955680e-01 -3.935221114e-01  1.408452605e-01 -3.935221114e-01  1.408452605e-01  3.252244986e-01  8.087955680e-01
4.575000000  3.297711673e-01  8.080530062e-01 -3.907582876e-01  1.420255541e-01 -3.907582876e-01  1.420255541e-01  3.297711673e-01  8.080530062e-01
4.580000000  3.343213249e-01  8.072802118e-01 -3.879858942e-01  1.431804408e-01 -3.879858942e-01  1.431804408e-01  3.343213249e-01  8.072802118e-01
4.585000000  3.388747414e-01  8.064770805e-01 -3.852051435e-01  1.443097972e-01 -3.852051435e-01  1.443097972e-01  3.388747414e-01  8.064770805e-01
4.590000000  3.434311758e-01  8.056435178e-01 -3.824162511e-01  1.454134978e-01 -3.824162511e-01  1.454134978e-01  3.434311758e-01  8.056435178e-01
4.595000000  3.479904178e-01  8.047794035e-01 -3.796194302e-01  1.464914320e-01 -3.796194302e-01  1.464914320e-01  3.479904178e-01  8.047794035e-01
4.600000000  3.525522365e-01  8.038846347e-01 -3.768148983e-01  1.475434831e-01 -3.768148983e-01  1.475434831e-01  3.525522365e-01  8.038846347e-01
4.605000000  3.571163991e-01  8.029591103e-01 -3.740028748e-01  1.485695366e-01 -3.740028748e-01  1.485695366e-01  3.571163991e-01  8.029591103e-01
4.610000000  3.616826712e-01  8.020027310e-01 -3.711835811e-01  1.495694794e-01 -3.711835811e-01  1.495694794e-01  3.616826712e-01  8.020027310e-01
4.615000000  3.662508164e-01  8.010153997e-01 -3.683572403e-01  1.505432005e-01 -3.683572403e-01  1.505432005e-01  3.662508164e-01  8.010153997e-01
4.620000000  3.708205964e-01  7.999970206e-01 -3.655240775e-01  1.514905907e-01 -3.655240775e-01  1.514905907e-01  3.708205964e-01  7.999970206e-01
4.625000000  3.753917711e-01  7.989475005e-01 -3.626843196e-01  1.524115427e-01 -3.626843196e-01  1.524115427e-01  3.753917711e-01  7.989475005e-01
4.630000000  3.799640989e-01  7.978667477e-01 -3.598381952e-01  1.533059510e-01 -3.598381952e-01  1.533059510e-01  3.799640989e-01  7.978667477e-01
4.635000000  3.845373360e-01  7.967546726e-01 -3.569859349e-01  1.541737123e-01 -3.569859349e-01  1.541737123e-01  3.845373360e-01  7.967546726e-01
4.640000000  3.891112263e-01  7.956111861e-01 -3.541277716e-01  1.550147172e-01 -3.541277716e-01  1.550147172e-01  3.891112263e-01  7.956111861e-01
4.645000000  3.936855307e-01  7.944362041e-01 -3.512639392e-01  1.558288723e-01 -3.512639392e-01  1.558288723e-01  3.936855307e-01  7.944362041e-01
4.650000000  3.982600031e-01  7.932296437e-01 -3.483946733e-01  1.566160822e-01 -3.483946733e-01  1.566160822e-01  3.982600031e-01  7.932296437e-01
4.655000000  4.028343930e-01  7.919914237e-01 -3.455202115e-01  1.573762516e-01 -3.455202115e-01  1.573762516e-01  4.028343930e-01  7.919914237e-01
4.660000000  4.074084482e-01  7.907214649e-01 -3.426407934e-01  1.581092874e-01 -3.426407934e-01  1.581092874e-01  4.074084482e-01  7.907214649e-01
4.665000000  4.119819146e-01  7.894196903e-01 -3.397566598e-01  1.588150984e-01 -3.397566598e-01  1.588150984e-01  4.119819146e-01  7.894196903e-01
4.670000000  4.165545367e-01  7.880860254e-01 -3.368680538e-01  1.594935959e-01 -3.368680538e-01  1.594935959e-01  4.165545367e-01  7.880860254e-01
4.675000000  4.211260573e-01  7.867203975e-01 -3.339752196e-01  1.601446932e-01 -3.339752196e-01  1.601446932e-01  4.211260573e-01  7.867203975e-01
4.680000000  4.256962174e-01  7.853227366e-01 -3.310784035e-01  1.607683059e-01 -3.310784035e-01  1.607683059e-01  4.256962174e-01  7.853227366e-01
4.685000000  4.302647567e-01  7.838929746e-01 -3.281778532e-01  1.613643517e-01 -3.281778532e-01  1.613643517e-01  4.302647567e-01  7.838929746e-01
4.690000000  4.348314143e-01  7.824310454e-01 -3.252738193e-01  1.619327526e-01 -3.252738193e-01  1.619327526e-01  4.348314143e-01  7.824310454e-01
4.695000000  4.393959274e-01  7.809368855e-01 -3.223665532e-01  1.624734318e-01 -3.223665532e-01  1.624734318e-01  4.393959274e-01  7.809368855e-01
4.700000000  4.439580289e-01  7.794104348e-01 -3.194563058e-01  1.629863116e-01 -3.194563058e-01  1.629863116e-01  4.439580289e-01  7.794104348e-01
4.705000000  4.485174520e-01  7.778516351e-01 -3.165433313e-01  1.634713193e-01 -3.165433313e-01  1.634713193e-01  4.485174520e-01  7.778516351e-01
4.710000000  4.530739287e-01  7.762604303e-01 -3.136278853e-01  1.639283843e-01 -3.136278853e-01  1.639283843e-01  4.530739287e-01  7.762604303e-01
4.715000000  4.576271891e-01  7.746367670e-01 -3.107102252e-01  1.643574389e-01 -3.107102252e-01  1.643574389e-01  4.576271891e-01  7.746367670e-01
4.720000000  4.621769622e-01  7.729805941e-01 -3.077906095e-01  1.647584175e-01 -3.077906095e-01  1.647584175e-01  4.621769622e-01  7.729805941e-01
4.725000000  4.667229755e-01  7.712918634e-01 -3.048692985e-01  1.651312571e-01 -3.048692985e-01  1.651312571e-01  4.667229755e-01  7.712918634e-01
4.730000000  4.712649550e-01  7.695705290e-01 -3.019465538e-01  1.654758973e-01 -3.019465538e-01  1.654758973e-01  4.712649550e-01  7.695705290e-01
4.735000000  4.758026254e-01  7.678165475e-01 -2.990226384e-01  1.657922802e-01 -2.990226384e-01  1.657922802e-01  4.758026254e-01  7.678165475e-01
4.740000000  4.803357099e-01  7.660298783e-01 -2.960978167e-01  1.660803505e-01 -2.960978167e-01  1.660803505e-01  4.803357099e-01  7.660298783e-01
4.745000000  4.848639391e-01  7.642105010e-01 -2.931723578e-01  1.663400704e-01 -2.931723578e-01  1.663400704e-01  4.848639391e-01  7.642105010e-01
4.750000000  4.893870255e-01  7.623583624e-01 -2.902465252e-01  1.665713749e-01 -2.902465252e-01  1.665713749e-01  4.893870255e-01  7.623583624e-01
4.755000000  4.939046883e-01  7.604734298e-01 -2.873205873e-01  1.667742167e-01 -2.873205873e-01  1.667742167e-01  4.939046883e-01  7.604734298e-01
4.760000000  4.984166459e-01  7.585556734e-01 -2.843948138e-01  1.669485509e-01 -2.843948138e-01  1.669485509e-01  4.984166459e-01  7.585556734e-01
4.765000000  5.029226151e-01  7.566050662e-01 -2.814694756e-01  1.670943357e-01 -2.814694756e-01  1.670943357e-01  5.029226151e-01  7.566050662e-01
4.770000000  5.074223118e-01  7.546215836e-01 -2.785448451e-01  1.672115319e-01 -2.785448451e-01  1.672115319e-01  5.074223118e-01  7.546215836e-01
4.775000000  5.119154505e-01  7.526052044e-01 -2.756211955e-01  1.673001031e-01 -2.756211955e-01  1.673001031e-01  5.119154505e-01  7.526052044e-01
4.780000000  5.164017448e-01  7.505559097e-01 -2.726988015e-01  1.673600156e-01 -2.726988015e-01  1.673600156e-01  5.164017448e-01  7.505559097e-01
4.785000000  5.208809071e-01  7.484736838e-01 -2.697779388e-01  1.673912387e-01 -2.697779388e-01  1.673912387e-01  5.208809071e-01  7.484736838e-01
4.790000000  5.253526486e-01  7.463585138e-01 -2.668588841e-01  1.673937445e-01 -2.668588841e-01  1.673937445e-01  5.253526486e-01  7.463585138e-01
4.795000000  5.298166792e-01  7.442104042e-01 -2.639419166e-01  1.673675132e-01 -2.639419166e-01  1.673675132e-01  5.298166792e-01  7.442104042e-01
4.800000000  5.342727084e-01  7.420293428e-01 -2.610273145e-01  1.673125209e-01 -2.610273145e-01  1.673125209e-01  5.342727084e-01  7.420293428e-01
4.805000000  5.387204450e-01  7.398153160e-01 -2.581153570e-01  1.672287448e-01 -2.581153570e-01  1.672287448e-01  5.387204450e-01  7.398153160e-01
4.810000000  5.431595963e-01  7.375683225e-01 -2.552063249e-01  1.671161686e-01 -2.552063249e-01  1.671161686e-01  5.431595963e-01  7.375683225e-01
4.815000000  5.475898689e-01  7.352883645e-01 -2.523005000e-01  1.669747791e-01 -2.523005000e-01  1.669747791e-01  5.475898689e-01  7.352883645e-01
4.818181818  5.504043759e-01  7.338203208e-01 -2.504531380e-01  1.668697972e-01 -2.504531380e-01  1.668697972e-01  5.504043759e-01  7.338203208e-01
4.820000000  5.520109659e-01  7.329754530e-01 -2.493981658e-01  1.668045666e-01 -2.493981658e-01  1.668045666e-01  5.520109659e-01  7.329754530e-01
4.825000000  5.564225902e-01  7.306296010e-01 -2.464996061e-01  1.666055242e-01 -2.464996061e-01  1.666055242e-01  5.564225902e-01  7.306296010e-01
4.830000000  5.608244503e-01  7.282508084e-01 -2.436051045e-01  1.663776468e-01 -2.436051045e-01  1.663776468e-01  5.608244503e-01  7.282508084e-01
4.835000000  5.652162495e-01  7.258390894e-01 -2.407149461e-01  1.661209333e-01 -2.407149461e-01  1.661209333e-01  5.652162495e-01  7.258390894e-01
4.840000000  5.695976902e-01  7.233944613e-01 -2.378294171e-01  1.658353856e-01 -2.378294171e-01  1.658353856e-01  5.695976902e-01  7.233944613e-01
4.845000000  5.739684712e-01  7.209169486e-01 -2.349488046e-01  1.655210080e-01 -2.349488046e-01  1.655210080e-01  5.739684712e-01  7.209169486e-01
4.850000000  5.783282839e-01  7.184065866e-01 -2.320733978e-01  1.651778063e-01 -2.320733978e-01  1.651778063e-01  5.783282839e-01  7.184065866e-01
4.855000000  5.826768420e-01  7.158633867e-01 -2.292034825e-01  1.648057953e-01 -2.292034825e-01  1.648057953e-01  5.826768420e-01  7.158633867e-01
4.860000000  5.870138453e-01  7.132873790e-01 -2.263393475e-01  1.644049895e-01 -2.263393475e-01  1.644049895e-01  5.870138453e-01  7.132873790e-01
4.865000000  5.913389935e-01  7.106785967e-01 -2.234812820e-01  1.639754066e-01 -2.234812820e-01  1.639754066e-01  5.913389935e-01  7.106785967e-01
4.870000000  5.956519856e-01  7.080370764e-01 -2.206295759e-01  1.635170676e-01 -2.206295759e-01  1.635170676e-01  5.956519856e-01  7.080370764e-01
4.875000000  5.999525201e-01  7.053628578e-01 -2.177845194e-01  1.630299967e-01 -2.177845194e-01  1.630299967e-01  5.999525201e-01  7.053628578e-01
4.880000000  6.042402951e-01  7.026559841e-01 -2.149464032e-01  1.625142213e-01 -2.149464032e-01  1.625142213e-01  6.042402951e-01  7.026559841e-01
4.885000000  6.085150084e-01  6.999165016e-01 -2.121155187e-01  1.619697723e-01 -2.121155187e-01  1.619697723e-01  6.085150084e-01  6.999165016e-01
4.890000000  6.127763574e-01  6.971444601e-01 -2.092921572e-01  1.613966835e-01 -2.092921572e-01  1.613966835e-01  6.127763574e-01  6.971444601e-01
4.895000000  6.170240394e-01  6.943399124e-01 -2.064766106e-01  1.607949922e-01 -2.064766106e-01  1.607949922e-01  6.170240394e-01  6.943399124e-01
4.900000000  6.212577373e-01  6.915029225e-01 -2.036691743e-01  1.601647329e-01 -2.036691743e-01  1.601647329e-01  6.212577373e-01  6.915029225e-01
4.905000000  6.254771582e-01  6.886335449e-01 -2.008701382e-01  1.595059543e-01 -2.008701382e-01  1.595059543e-01  6.254771582e-01  6.886335449e-01
4.910000000  6.296820024e-01  6.857318407e-01 -1.980797943e-01  1.588187054e-01 -1.980797943e-01  1.588187054e-01  6.296820024e-01  6.857318407e-01
4.915000000  6.338719663e-01  6.827978765e-01 -1.952984353e-01  1.581030367e-01 -1.952984353e-01  1.581030367e-01  6.338719663e-01  6.827978765e-01
4.920000000  6.380467461e-01  6.798317222e-01 -1.925263540e-01  1.573590023e-01 -1.925263540e-01  1.573590023e-01  6.380467461e-01  6.798317222e-01
4.925000000  6.422060383e-01  6.768334511e-01 -1.897638436e-01  1.565866596e-01 -1.897638436e-01  1.565866596e-01  6.422060383e-01  6.768334511e-01
4.930000000  6.463495393e-01  6.738031400e-01 -1.870111968e-01  1.557860694e-01 -1.870111968e-01  1.557860694e-01  6.463495393e-01  6.738031400e-01
4.935000000  6.504769453e-01  6.707408691e-01 -1.842687067e-01  1.549572959e-01 -1.842687067e-01  1.549572959e-01  6.504769453e-01  6.707408691e-01
4.940000000  6.545879531e-01  6.676467219e-01 -1.815366661e-01  1.541004068e-01 -1.815366661e-01  1.541004068e-01  6.545879531e-01  6.676467219e-01
4.945000000  6.586822592e-01  6.645207857e-01 -1.788153679e-01  1.532154730e-01 -1.788153679e-01  1.532154730e-01  6.586822592e-01  6.645207857e-01
4.950000000  6.627595604e-01  6.613631488e-01 -1.761051052e-01  1.523025688e-01 -1.761051052e-01  1.523025688e-01  6.627595604e-01  6.613631488e-01
4.955000000  6.668195538e-01  6.581739042e-01 -1.734061708e-01  1.513617721e-01 -1.734061708e-01  1.513617721e-01  6.668195538e-01  6.581739042e-01
4.960000000  6.708619370e-01  6.549531527e-01 -1.707188559e-01  1.503931645e-01 -1.707188559e-01  1.503931645e-01  6.708619370e-01  6.549531527e-01
4.965000000  6.748864078e-01  6.517009953e-01 -1.680434524e-01  1.493968310e-01 -1.680434524e-01  1.493968310e-01  6.748864078e-01  6.517009953e-01
4.970000000  6.788926644e-01  6.484175364e-01 -1.653802519e-01  1.483728599e-01 -1.653802519e-01  1.483728599e-01  6.788926644e-01  6.484175364e-01
4.975000000  6.828804053e-01  6.451028841e-01 -1.627295456e-01  1.473213430e-01 -1.627295456e-01  1.473213430e-01  6.828804053e-01  6.451028841e-01
4.980000000  6.868493296e-01  6.417571499e-01 -1.600916242e-01  1.462423755e-01 -1.600916242e-01  1.462423755e-01  6.868493296e-01  6.417571499e-01
4.985000000  6.907991368e-01  6.383804488e-01 -1.574667779e-01  1.451360562e-01 -1.574667779e-01  1.451360562e-01  6.907991368e-01  6.383804488e-01
4.990000000  6.947295270e-01  6.349728994e-01 -1.548552964e-01  1.440024872e-01 -1.548552964e-01  1.440024872e-01  6.947295270e-01  6.349728994e-01
4.995000000  6.986402012e-01  6.315346237e-01 -1.522574689e-01  1.428417744e-01 -1.522574689e-01  1.428417744e-01  6.986402012e-01  6.315346237e-01
5.000000000  7.025308607e-01  6.280657474e-01 -1.496735838e-01  1.416540268e-01 -1.496735838e-01  1.416540268e-01  7.025308607e-01  6.280657474e-01
5.005000000  7.064012182e-01  6.245663974e-01 -1.471039267e-01  1.404393641e-01 -1.471039267e-01  1.404393641e-01  7.064012182e-01  6.245663974e-01
5.010000000  7.102509660e-01  6.210367080e-01 -1.445487870e-01  1.391978954e-01 -1.445487870e-01  1.391978954e-01  7.102509660e-01  6.210367080e-01
5.015000000  7.140798081e-01  6.174768154e-01 -1.420084508e-01  1.379297403e-01 -1.420084508e-01  1.379297403e-01  7.140798081e-01  6.174768154e-01
5.020000000  7.178874489e-01  6.138868593e-01 -1.394832038e-01  1.366350219e-01 -1.394832038e-01  1.366350219e-01  7.178874489e-01  6.138868593e-01
5.025000000  7.216735940e-01  6.102669828e-01 -1.369733307e-01  1.353138670e-01 -1.369733307e-01  1.353138670e-01  7.216735940e-01  6.102669828e-01
5.030000000  7.254379500e-01  6.066173325e-01 -1.344791150e-01  1.339664056e-01 -1.344791150e-01  1.339664056e-01  7.254379500e-01  6.066173325e-01
5.035000000  7.291802244e-01  6.029380587e-01 -1.320008395e-01  1.325927713e-01 -1.320008395e-01  1.325927713e-01  7.291802244e-01  6.029380587e-01
5.040000000  7.329001258e-01  5.992293151e-01 -1.295387861e-01  1.311931013e-01 -1.295387861e-01  1.311931013e-01  7.329001258e-01  5.992293151e-01
5.045000000  7.365973639e-01  5.954912589e-01 -1.270932352e-01  1.297675361e-01 -1.270932352e-01  1.297675361e-01  7.365973639e-01  5.954912589e-01
5.050000000  7.402716496e-01  5.917240507e-01 -1.246644665e-01  1.283162197e-01 -1.246644665e-01  1.283162197e-01  7.402716496e-01  5.917240507e-01
5.055000000  7.439226962e-01  5.879278641e-01 -1.222527566e-01  1.268393031e-01 -1.222527566e-01  1.268393031e-01  7.439226962e-01  5.879278641e-01
5.060000000  7.475502164e-01  5.841028634e-01 -1.198583832e-01  1.253369360e-01 -1.198583832e-01  1.253369360e-01  7.475502164e-01  5.841028634e-01
5.065000000  7.511539243e-01  5.802492133e-01 -1.174816233e-01  1.238092702e-01 -1.174816233e-01  1.238092702e-01  7.511539243e-01  5.802492133e-01
5.070000000  7.547335359e-01  5.763670884e-01 -1.151227514e-01  1.222564635e-01 -1.151227514e-01  1.222564635e-01  7.547335359e-01  5.763670884e-01
5.075000000  7.582887687e-01  5.724566667e-01 -1.127820406e-01  1.206786772e-01 -1.127820406e-01  1.206786772e-01  7.582887687e-01  5.724566667e-01
5.080000000  7.618193416e-01  5.685181299e-01 -1.104597627e-01  1.190760759e-01 -1.104597627e-01  1.190760759e-01  7.618193416e-01  5.685181299e-01
5.085000000  7.653249750e-01  5.645516626e-01 -1.081561880e-01  1.174488276e-01 -1.081561880e-01  1.174488276e-01  7.653249750e-01  5.645516626e-01
5.090000000  7.688053910e-01  5.605574533e-01 -1.058715853e-01  1.157971039e-01 -1.058715853e-01  1.157971039e-01  7.688053910e-01  5.605574533e-01
5.095000000  7.722603133e-01  5.565356937e-01 -1.036062218e-01  1.141210793e-01 -1.036062218e-01  1.141210793e-01  7.722603133e-01  5.565356937e-01
5.100000000  7.756894671e-01  5.524865789e-01 -1.013603630e-01  1.124209322e-01 -1.013603630e-01  1.124209322e-01  7.756894671e-01  5.524865789e-01
5.105000000  7.790925767e-01  5.484103132e-01 -9.913427294e-02  1.106968440e-01 -9.913427294e-02  1.106968440e-01  7.790925767e-01  5.484103132e-01
5.110000000  7.824693630e-01  5.443071158e-01 -9.692821420e-02  1.089489994e-01 -9.692821420e-02  1.089489994e-01  7.824693630e-01  5.443071158e-01
5.115000000  7.858195672e-01  5.401771686e-01 -9.474244663e-02  1.071775867e-01 -9.474244663e-02  1.071775867e-01  7.858195672e-01  5.401771686e-01
5.120000000  7.891429220e-01  5.360206802e-01 -9.257722883e-02  1.053827973e-01 -9.257722883e-02  1.053827973e-01  7.891429220e-01  5.360206802e-01
5.125000000  7.924391616e-01  5.318378624e-01 -9.043281753e-02  1.035648258e-01 -9.043281753e-02  1.035648258e-01  7.924391616e-01  5.318378624e-01
5.130000000  7.957080225e-01  5.276289301e-01 -8.830946754e-02  1.017238704e-01 -8.830946754e-02  1.017238704e-01  7.957080225e-01  5.276289301e-01
5.135000000  7.989492430e-01  5.233941018e-01 -8.620743170e-02  9.986013206e-02 -8.620743170e-02  9.986013206e-02  7.989492430e-01  5.233941018e-01
5.140000000  8.021625636e-01  5.191335990e-01 -8.412696085e-02  9.797381530e-02 -8.412696085e-02  9.797381530e-02  8.021625636e-01  5.191335990e-01
5.145000000  8.053477267e-01  5.148476465e-01 -8.206830377e-02  9.606512771e-02 -8.206830377e-02  9.606512771e-02  8.053477267e-01  5.148476465e-01
5.150000000  8.085044771e-01  5.105364723e-01 -8.003170712e-02  9.413428003e-02 -8.003170712e-02  9.413428003e-02  8.085044771e-01  5.105364723e-01
5.155000000  8.116325617e-01  5.062003075e-01 -7.801741541e-02  9.218148618e-02 -7.801741541e-02  9.218148618e-02  8.116325617e-01  5.062003075e-01
5.160000000  8.147317198e-01  5.018394021e-01 -7.602567268e-02  9.020696141e-02 -7.602567268e-02  9.020696141e-02  8.147317198e-01  5.018394021e-01
5.165000000  8.178017104e-01  4.974539819e-01 -7.405671761e-02  8.821092730e-02 -7.405671761e-02  8.821092730e-02  8.178017104e-01  4.974539819e-01
5.170000000  8.208422898e-01  4.930442836e-01 -7.211078749e-02  8.619360747e-02 -7.211078749e-02  8.619360747e-02  8.208422898e-01  4.930442836e-01
5.175000000  8.238532142e-01  4.886105506e-01 -7.018811774e-02  8.415522817e-02 -7.018811774e-02  8.415522817e-02  8.238532142e-01  4.886105506e-01
5.180000000  8.268342422e-01  4.841530297e-01 -6.828894138e-02  8.209601864e-02 -6.828894138e-02  8.209601864e-02  8.268342422e-01  4.841530297e-01
5.181818182  8.279107933e-01  4.825262638e-01 -6.760420172e-02  8.134209593e-02 -6.760420172e-02  8.134209593e-02  8.279107933e-01  4.825262638e-01
5.185000000  8.297851319e-01  4.796719744e-01 -6.641348990e-02  8.001621025e-02 -6.641348990e-02  8.001621025e-02  8.297851319e-01  4.796719744e-01
5.190000000  8.327056483e-01  4.751676358e-01 -6.456199096e-02  7.791603862e-02 -6.456199096e-02  7.791603862e-02  8.327056483e-01  4.751676358e-01
5.195000000  8.355955595e-01  4.706402671e-01 -6.273466959e-02  7.579574237e-02 -6.273466959e-02  7.579574237e-02  8.355955595e-01  4.706402671e-01
5.200000000  8.384546343e-01  4.660901267e-01 -6.093174879e-02  7.365556249e-02 -6.093174879e-02  7.365556249e-02  8.384546343e-01  4.660901267e-01
5.205000000  8.412826443e-01  4.615174761e-01 -5.915344895e-02  7.149574286e-02 -5.915344895e-02  7.149574286e-02  8.412826443e-01  4.615174761e-01
5.210000000  8.440793637e-01  4.569225783e-01 -5.739998815e-02  6.931652994e-02 -5.739998815e-02  6.931652994e-02  8.440793637e-01  4.569225783e-01
5.215000000  8.468445696e-01  4.523056999e-01 -5.567158155e-02  6.711817312e-02 -5.567158155e-02  6.711817312e-02  8.468445696e-01  4.523056999e-01
5.220000000  8.495780417e-01  4.476671123e-01 -5.396844090e-02  6.490092502e-02 -5.396844090e-02  6.490092502e-02  8.495780417e-01  4.476671123e-01
5.225000000  8.522795626e-01  4.430070881e-01 -5.229077570e-02  6.266504061e-02 -5.229077570e-02  6.266504061e-02  8.522795626e-01  4.430070881e-01
5.230000000  8.549489178e-01  4.383259025e-01 -5.063879262e-02  6.041077755e-02 -5.063879262e-02  6.041077755e-02  8.549489178e-01  4.383259025e-01
5.235000000  8.575858956e-01  4.336238335e-01 -4.901269546e-02  5.813839617e-02 -4.901269546e-02  5.813839617e-02  8.575858956e-01  4.336238335e-01
5.240000000  8.601902874e-01  4.289011616e-01 -4.741268511e-02  5.584815941e-02 -4.741268511e-02  5.584815941e-02  8.601902874e-01  4.289011616e-01
5.245000000  8.627618876e-01  4.241581701e-01 -4.583895953e-02  5.354033277e-02 -4.583895953e-02  5.354033277e-02  8.627618876e-01  4.241581701e-01
5.250000000  8.653004934e-01  4.193951447e-01 -4.429171367e-02  5.121518433e-02 -4.429171367e-02  5.121518433e-02  8.653004934e-01  4.193951447e-01
5.255000000  8.678059055e-01  4.146123737e-01 -4.277113947e-02  4.887298463e-02 -4.277113947e-02  4.887298463e-02  8.678059055e-01  4.146123737e-01
5.260000000  8.702779272e-01  4.098101479e-01 -4.127742578e-02  4.651400670e-02 -4.127742578e-02  4.651400670e-02  8.702779272e-01  4.098101479e-01
5.265000000  8.727163716e-01  4.049887470e-01 -3.981075752e-02  4.413852707e-02 -3.981075752e-02  4.413852707e-02  8.727163716e-01  4.049887470e-01
5.270000000  8.751210421e-01  4.001484798e-01 -3.837131825e-02  4.174682239e-02 -3.837131825e-02  4.174682239e-02  8.751210421e-01  4.001484798e-01
5.275000000  8.774917520e-01  3.952896445e-01 -3.695928743e-02  3.933917280e-02 -3.695928743e-02  3.933917280e-02  8.774917520e-01  3.952896445e-01
5.280000000  8.798283176e-01  3.904125411e-01 -3.557484129e-02  3.691586077e-02 -3.557484129e-02  3.691586077e-02  8.798283176e-01  3.904125411e-01
5.285000000  8.821305586e-01  3.855174723e-01 -3.421815284e-02  3.447717100e-02 -3.421815284e-02  3.447717100e-02  8.821305586e-01  3.855174723e-01
5.290000000  8.843982981e-01  3.806047429e-01 -3.288939179e-02  3.202339040e-02 -3.288939179e-02  3.202339040e-02  8.843982981e-01  3.806047429e-01
5.295000000  8.866313623e-01  3.756746599e-01 -3.158872454e-02  2.955480806e-02 -3.158872454e-02  2.955480806e-02  8.866313623e-01  3.756746599e-01
5.300000000  8.888295812e-01  3.707275324e-01 -3.031631414e-02  2.707171518e-02 -3.031631414e-02  2.707171518e-02  8.888295812e-01  3.707275324e-01
5.305000000  8.909927879e-01  3.657636715e-01 -2.907232028e-02  2.457440501e-02 -2.907232028e-02  2.457440501e-02  8.909927879e-01  3.657636715e-01
5.310000000  8.931208191e-01  3.607833905e-01 -2.785689922e-02  2.206317285e-02 -2.785689922e-02  2.206317285e-02  8.931208191e-01  3.607833905e-01
5.315000000  8.952135141e-01  3.557870035e-01 -2.667020330e-02  1.953831662e-02 -2.667020330e-02  1.953831662e-02  8.952135141e-01  3.557870035e-01
5.320000000  8.972707166e-01  3.507748279e-01 -2.551238220e-02  1.700013524e-02 -2.551238220e-02  1.700013524e-02  8.972707166e-01  3.507748279e-01
5.325000000  8.992922742e-01  3.457471835e-01 -2.438358213e-02  1.444892933e-02 -2.438358213e-02  1.444892933e-02  8.992922742e-01  3.457471835e-01
5.330000000  9.012780377e-01  3.407043914e-01 -2.328394544e-02  1.188500182e-02 -2.328394544e-02  1.188500182e-02  9.012780377e-01  3.407043914e-01
5.335000000  9.032278616e-01  3.356467744e-01 -2.221361089e-02  9.308657435e-03 -2.221361089e-02  9.308657435e-03  9.032278616e-01  3.356467744e-01
5.340000000  9.051416039e-01  3.305746570e-01 -2.117271368e-02  6.720202622e-03 -2.117271368e-02  6.720202622e-03  9.051416039e-01  3.305746570e-01
5.345000000  9.070191264e-01  3.254883654e-01 -2.016138540e-02  4.119945521e-03 -2.016138540e-02  4.119945521e-03  9.070191264e-01  3.254883654e-01
5.350000000  9.088602943e-01  3.203882275e-01 -1.917975401e-02  1.508195907e-03 -1.917975401e-02  1.508195907e-03  9.088602943e-01  3.203882275e-01
5.355000000  9.106649769e-01  3.152745728e-01 -1.822794380e-02 -1.114734860e-03 -1.822794380e-02 -1.114734860e-03  9.106649769e-01  3.152745728e-01
5.360000000  9.124330469e-01  3.101477324e-01 -1.730607540e-02 -3.748533885e-03 -1.730607540e-02 -3.748533885e-03  9.124330469e-01  3.101477324e-01
5.365000000  9.141643786e-01  3.050080434e-01 -1.641426571e-02 -6.392886753e-03 -1.641426571e-02 -6.392886753e-03  9.141643786e-01  3.050080434e-01
5.370000000  9.158588452e-01  2.998558536e-01 -1.555262794e-02 -9.047477539e-03 -1.555262794e-02 -9.047477539e-03  9.158588452e-01  2.998558536e-01
5.375000000  9.175163403e-01  2.946914801e-01 -1.472127159e-02 -1.171198920e-02 -1.472127159e-02 -1.171198920e-02  9.175163403e-01  2.946914801e-01
5.380000000  9.191367517e-01  2.895152595e-01 -1.392030232e-02 -1.438610321e-02 -1.392030232e-02 -1.438610321e-02  9.191367517e-01  2.895152595e-01
5.385000000  9.207199713e-01  2.843275301e-01 -1.314982203e-02 -1.706949980e-02 -1.314982203e-02 -1.706949980e-02  9.207199713e-01  2.843275301e-01
5.390000000  9.222658947e-01  2.791286310e-01 -1.240992881e-02 -1.976185794e-02 -1.240992881e-02 -1.976185794e-02  9.222658947e-01  2.791286310e-01
5.395000000  9.237744216e-01  2.739189028e-01 -1.170071695e-02 -2.246285547e-02 -1.170071695e-02 -2.246285547e-02  9.237744216e-01  2.739189028e-01
5.400000000  9.252454551e-01  2.686986870e-01 -1.102227687e-02 -2.517216910e-02 -1.102227687e-02 -2.517216910e-02  9.252454551e-01  2.686986870e-01
5.405000000  9.266789029e-01  2.634683263e-01 -1.037469517e-02 -2.788947449e-02 -1.037469517e-02 -2.788947449e-02  9.266789029e-01  2.634683263e-01
5.410000000  9.280746759e-01  2.582281644e-01 -9.758054564e-03 -3.061444630e-02 -9.758054564e-03 -3.061444630e-02  9.280746759e-01  2.582281644e-01
5.415000000  9.294326895e-01  2.529785459e-01 -9.172433897e-03 -3.334675823e-02 -9.172433897e-03 -3.334675823e-02  9.294326895e-01  2.529785459e-01
5.420000000  9.307528561e-01  2.477198413e-01 -8.617907177e-03 -3.608608331e-02 -8.617907177e-03 -3.608608331e-02  9.307528561e-01  2.477198413e-01
5.425000000  9.320351041e-01  2.424523783e-01 -8.094545996e-03 -3.883209334e-02 -8.094545996e-03 -3.883209334e-02  9.320351041e-01  2.424523783e-01
5.430000000  9.332793621e-01  2.371764982e-01 -7.602417700e-03 -4.158445944e-02 -7.602417700e-03 -4.158445944e-02  9.332793621e-01  2.371764982e-01
5.435000000  9.344855613e-01  2.318925488e-01 -7.141585496e-03 -4.434285210e-02 -7.141585496e-03 -4.434285210e-02  9.344855613e-01  2.318925488e-01
5.440000000  9.356536365e-01  2.266008787e-01 -6.712108655e-03 -4.710694112e-02 -6.712108655e-03 -4.710694112e-02  9.356536365e-01  2.266008787e-01
5.445000000  9.367835269e-01  2.213018374e-01 -6.314042507e-03 -4.987639568e-02 -6.314042507e-03 -4.987639568e-02  9.367835269e-01  2.213018374e-01
5.450000000  9.378751754e-01  2.159957746e-01 -5.947438434e-03 -5.265088441e-02 -5.947438434e-03 -5.265088441e-02  9.378751754e-01  2.159957746e-01
5.455000000  9.389285289e-01  2.106830407e-01 -5.612343863e-03 -5.543007543e-02 -5.612343863e-03 -5.543007543e-02  9.389285289e-01  2.106830407e-01
5.460000000  9.399435387e-01  2.053639866e-01 -5.308802261e-03 -5.821363642e-02 -5.308802261e-03 -5.821363642e-02  9.399435387e-01  2.053639866e-01
5.465000000  9.409201595e-01  2.000389635e-01 -5.036853129e-03 -6.100123466e-02 -5.036853129e-03 -6.100123466e-02  9.409201595e-01  2.000389635e-01
5.470000000  9.418583519e-01  1.947083271e-01 -4.796531181e-03 -6.379253730e-02 -4.796531181e-03 -6.379253730e-02  9.418583519e-01  1.947083271e-01
5.475000000  9.427580798e-01  1.893724313e-01 -4.587867444e-03 -6.658721112e-02 -4.587867444e-03 -6.658721112e-02  9.427580798e-01  1.893724313e-01
5.480000000  9.436193085e-01  1.840316221e-01 -4.410890693e-03 -6.938492229e-02 -4.410890693e-03 -6.938492229e-02  9.436193085e-01  1.840316221e-01
5.485000000  9.444420091e-01  1.786862519e-01 -4.265624551e-03 -7.218533710e-02 -4.265624551e-03 -7.218533710e-02  9.444420091e-01  1.786862519e-01
5.490000000  9.452261567e-01  1.733366731e-01 -4.152088667e-03 -7.498812172e-02 -4.152088667e-03 -7.498812172e-02  9.452261567e-01  1.733366731e-01
5.495000000  9.459717305e-01  1.679832382e-01 -4.070298723e-03 -7.779294227e-02 -4.070298723e-03 -7.779294227e-02  9.459717305e-01  1.679832382e-01
5.500000000  9.466787137e-01  1.626262997e-01 -4.020266430e-03 -8.059946487e-02 -4.020266430e-03 -8.059946487e-02  9.466787137e-01  1.626262997e-01
5.505000000  9.473470934e-01  1.572662101e-01 -4.001999538e-03 -8.340735569e-02 -4.001999538e-03 -8.340735569e-02  9.473470934e-01  1.572662101e-01
5.510000000  9.479768610e-01  1.519033219e-01 -4.015501834e-03 -8.621628103e-02 -4.015501834e-03 -8.621628103e-02  9.479768610e-01  1.519033219e-01
5.515000000  9.485680117e-01  1.465379871e-01 -4.060773149e-03 -8.902590735e-02 -4.060773149e-03 -8.902590735e-02  9.485680117e-01  1.465379871e-01
5.520000000  9.491205446e-01  1.411705579e-01 -4.137809366e-03 -9.183590133e-02 -4.137809366e-03 -9.183590133e-02  9.491205446e-01  1.411705579e-01
5.525000000  9.496344674e-01  1.358013762e-01 -4.246602495e-03 -9.464593010e-02 -4.246602495e-03 -9.464593010e-02  9.496344674e-01  1.358013762e-01
5.530000000  9.501097828e-01  1.304308033e-01 -4.387140480e-03 -9.745566079e-02 -4.387140480e-03 -9.745566079e-02  9.501097828e-01  1.304308033e-01
5.535000000  9.505465022e-01  1.250591901e-01 -4.559407400e-03 -1.002647611e-01 -4.559407400e-03 -1.002647611e-01  9.505465022e-01  1.250591901e-01
5.540000000  9.509446407e-01  1.196868873e-01 -4.763383419e-03 -1.030728991e-01 -4.763383419e-03 -1.030728991e-01  9.509446407e-01  1.196868873e-01
5.545000000  9.513042174e-01  1.143142451e-01 -4.999044794e-03 -1.058797435e-01 -4.999044794e-03 -1.058797435e-01  9.513042174e-01  1.143142451e-01
5.545454545  9.513349948e-01  1.138258183e-01 -5.022038805e-03 -1.061348356e-01 -5.022038805e-03 -1.061348356e-01  9.513349948e-01  1.138258183e-01
5.550000000  9.516252548e-01  1.089416038e-01 -5.266365416e-03 -1.086849631e-01 -5.266365416e-03 -1.086849631e-01  9.516252548e-01  1.089416038e-01
5.555000000  9.519077802e-01  1.035693207e-01 -5.565312468e-03 -1.114882279e-01 -5.565312468e-03 -1.114882279e-01  9.519077802e-01  1.035693207e-01
5.560000000  9.521518247e-01  9.819774520e-02 -5.895850413e-03 -1.142892084e-01 -5.895850413e-03 -1.142892084e-01  9.521518247e-01  9.819774520e-02
5.565000000  9.523574231e-01  9.282722488e-02 -6.257940007e-03 -1.170875758e-01 -6.257940007e-03 -1.170875758e-01  9.523574231e-01  9.282722488e-02
5.570000000  9.525246141e-01  8.745810667e-02 -6.651538164e-03 -1.198830020e-01 -6.651538164e-03 -1.198830020e-01  9.525246141e-01  8.745810667e-02
5.575000000  9.526534353e-01  8.209073246e-02 -7.076600225e-03 -1.226751589e-01 -7.076600225e-03 -1.226751589e-01  9.526534353e-01  8.209073246e-02
5.580000000  9.527439347e-01  7.672544901e-02 -7.533074841e-03 -1.254637202e-01 -7.533074841e-03 -1.254637202e-01  9.527439347e-01  7.672544901e-02
5.585000000  9.527961657e-01  7.136260348e-02 -8.020906030e-03 -1.282483610e-01 -8.020906030e-03 -1.282483610e-01  9.527961657e-01  7.136260348e-02
5.590000000  9.528101825e-01  6.600253927e-02 -8.540035510e-03 -1.310287569e-01 -8.540035510e-03 -1.310287569e-01  9.528101825e-01  6.600253927e-02
5.595000000  9.527860431e-01  6.064559874e-02 -9.090401245e-03 -1.338045843e-01 -9.090401245e-03 -1.338045843e-01  9.527860431e-01  6.064559874e-02
5.600000000  9.527238091e-01  5.529212319e-02 -9.671937467e-03 -1.365755210e-01 -9.671937467e-03 -1.365755210e-01  9.527238091e-01  5.529212319e-02
5.605000000  9.526235461e-01  4.994245283e-02 -1.028457469e-02 -1.393412456e-01 -1.028457469e-02 -1.393412456e-01  9.526235461e-01  4.994245283e-02
5.610000000  9.524853234e-01  4.459692666e-02 -1.092823976e-02 -1.421014380e-01 -1.092823976e-02 -1.421014380e-01  9.524853234e-01  4.459692666e-02
5.615000000  9.523092139e-01  3.925588249e-02 -1.160285581e-02 -1.448557795e-01 -1.160285581e-02 -1.448557795e-01  9.523092139e-01  3.925588249e-02
5.620000000  9.520952942e-01  3.391965686e-02 -1.230834237e-02 -1.476039523e-01 -1.230834237e-02 -1.476039523e-01  9.520952942e-01  3.391965686e-02
5.625000000  9.518436415e-01  2.858858823e-02 -1.304461588e-02 -1.503456398e-01 -1.304461588e-02 -1.503456398e-01  9.518436415e-01  2.858858823e-02
5.630000000  9.515543302e-01  2.326302024e-02 -1.381159029e-02 -1.530805253e-01 -1.381159029e-02 -1.530805253e-01  9.515543302e-01  2.326302024e-02
5.635000000  9.512274605e-01  1.794327255e-02 -1.460917216e-02 -1.558082975e-01 -1.460917216e-02 -1.558082975e-01  9.512274605e-01  1.794327255e-02
5.640000000  9.508631236e-01  1.262967617e-02 -1.543726666e-02 -1.585286442e-01 -1.543726666e-02 -1.585286442e-01  9.508631236e-01  1.262967617e-02
5.645000000  9.504614143e-01  7.322560584e-03 -1.629577544e-02 -1.612412551e-01 -1.629577544e-02 -1.612412551e-01  9.504614143e-01  7.322560584e-03
5.650000000  9.500224310e-01  2.022253757e-03 -1.718459666e-02 -1.639458213e-01 -1.718459666e-02 -1.639458213e-01  9.500224310e-01  2.022253757e-03
5.655000000  9.495462756e-01 -3.270917960e-03 -1.810362502e-02 -1.666420353e-01 -1.810362502e-02 -1.666420353e-01  9.495462756e-01 -3.270917960e-03
5.660000000  9.490330534e-01 -8.556629851e-03 -1.905275178e-02 -1.693295915e-01 -1.905275178e-02 -1.693295915e-01  9.490330534e-01 -8.556629851e-03
5.665000000  9.484828731e-01 -1.383455889e-02 -2.003186480e-02 -1.720081860e-01 -2.003186480e-02 -1.720081860e-01  9.484828731e-01 -1.383455889e-02
5.670000000  9.478958471e-01 -1.910438376e-02 -2.104084856e-02 -1.746775165e-01 -2.104084856e-02 -1.746775165e-01  9.478958471e-01 -1.910438376e-02
5.675000000  9.472720910e-01 -2.436578495e-02 -2.207958419e-02 -1.773372826e-01 -2.207958419e-02 -1.773372826e-01  9.472720910e-01 -2.436578495e-02
5.680000000  9.466117205e-01 -2.961841817e-02 -2.314794594e-02 -1.799871856e-01 -2.314794594e-02 -1.799871856e-01  9.466117205e-01 -2.961841817e-02
5.685000000  9.459148607e-01 -3.486198748e-02 -2.424581090e-02 -1.826269289e-01 -2.424581090e-02 -1.826269289e-01  9.459148607e-01 -3.486198748e-02
5.690000000  9.451816380e-01 -4.009618556e-02 -2.537305126e-02 -1.852562175e-01 -2.537305126e-02 -1.852562175e-01  9.451816380e-01 -4.009618556e-02
5.695000000  9.444121813e-01 -4.532070039e-02 -2.652953511e-02 -1.878747585e-01 -2.652953511e-02 -1.878747585e-01  9.444121813e-01 -4.532070039e-02
5.700000000  9.436066228e-01 -5.053522191e-02 -2.771512733e-02 -1.904822610e-01 -2.771512733e-02 -1.904822610e-01  9.436066228e-01 -5.053522191e-02
5.705000000  9.427650978e-01 -5.573944212e-02 -2.892968968e-02 -1.930784361e-01 -2.892968968e-02 -1.930784361e-01  9.427650978e-01 -5.573944212e-02
5.710000000  9.418877448e-01 -6.093305503e-02 -3.017308081e-02 -1.956629969e-01 -3.017308081e-02 -1.956629969e-01  9.418877448e-01 -6.093305503e-02
5.715000000  9.409747054e-01 -6.611575677e-02 -3.144515627e-02 -1.982356588e-01 -3.144515627e-02 -1.982356588e-01  9.409747054e-01 -6.611575677e-02
5.720000000  9.400261244e-01 -7.128724561e-02 -3.274576860e-02 -2.007961392e-01 -3.274576860e-02 -2.007961392e-01  9.400261244e-01 -7.128724561e-02
5.725000000  9.390421497e-01 -7.644722196e-02 -3.407476730e-02 -2.033441576e-01 -3.407476730e-02 -2.033441576e-01  9.390421497e-01 -7.644722196e-02
5.730000000  9.380229369e-01 -8.159538192e-02 -3.543199595e-02 -2.058794373e-01 -3.543199595e-02 -2.058794373e-01  9.380229369e-01 -8.159538192e-02
5.735000000  9.369686425e-01 -8.673142724e-02 -3.681729656e-02 -2.084017032e-01 -3.681729656e-02 -2.084017032e-01  9.369686425e-01 -8.673142724e-02
5.740000000  9.358794161e-01 -9.185507493e-02 -3.823051434e-02 -2.109106795e-01 -3.823051434e-02 -2.109106795e-01  9.358794161e-01 -9.185507493e-02
5.745000000  9.347554173e-01 -9.696603446e-02 -3.967148717e-02 -2.134060949e-01 -3.967148717e-02 -2.134060949e-01  9.347554173e-01 -9.696603446e-02
5.750000000  9.335968085e-01 -1.020640176e-01 -4.114005011e-02 -2.158876803e-01 -4.114005011e-02 -2.158876803e-01  9.335968085e-01 -1.020640176e-01
5.755000000  9.324037552e-01 -1.071487386e-01 -4.263603545e-02 -2.183551692e-01 -4.263603545e-02 -2.183551692e-01  9.324037552e-01 -1.071487386e-01
5.760000000  9.311764254e-01 -1.122199139e-01 -4.415927275e-02 -2.208082972e-01 -4.415927275e-02 -2.208082972e-01  9.311764254e-01 -1.122199139e-01
5.765000000  9.299149902e-01 -1.172772627e-01 -4.570958885e-02 -2.232468027e-01 -4.570958885e-02 -2.232468027e-01  9.299149902e-01 -1.172772627e-01
5.770000000  9.286196230e-01 -1.223205063e-01 -4.728680797e-02 -2.256704263e-01 -4.728680797e-02 -2.256704263e-01  9.286196230e-01 -1.223205063e-01
5.775000000  9.272905001e-01 -1.273493688e-01 -4.889075168e-02 -2.280789112e-01 -4.889075168e-02 -2.280789112e-01  9.272905001e-01 -1.273493688e-01
5.780000000  9.259278006e-01 -1.323635766e-01 -5.052123898e-02 -2.304720031e-01 -5.052123898e-02 -2.304720031e-01  9.259278006e-01 -1.323635766e-01
5.785000000  9.245317151e-01 -1.373628712e-01 -5.217808527e-02 -2.328494519e-01 -5.217808527e-02 -2.328494519e-01  9.245317151e-01 -1.373628712e-01
5.790000000  9.231024185e-01 -1.423469720e-01 -5.386110562e-02 -2.352110070e-01 -5.386110562e-02 -2.352110070e-01  9.231024185e-01 -1.423469720e-01
5.795000000  9.216400972e-01 -1.473156131e-01 -5.557011157e-02 -2.375564218e-01 -5.557011157e-02 -2.375564218e-01  9.216400972e-01 -1.473156131e-01
5.800000000  9.201449404e-01 -1.522685314e-01 -5.730491223e-02 -2.398854524e-01 -5.730491223e-02 -2.398854524e-01  9.201449404e-01 -1.522685314e-01
5.805000000  9.186171394e-01 -1.572054665e-01 -5.906531437e-02 -2.421978578e-01 -5.906531437e-02 -2.421978578e-01  9.186171394e-01 -1.572054665e-01
5.810000000  9.170568880e-01 -1.621261605e-01 -6.085112243e-02 -2.444933992e-01 -6.085112243e-02 -2.444933992e-01  9.170568880e-01 -1.621261605e-01
5.815000000  9.154643824e-01 -1.670303584e-01 -6.266213854e-02 -2.467718409e-01 -6.266213854e-02 -2.467718409e-01  9.154643824e-01 -1.670303584e-01
5.820000000  9.138398210e-01 -1.719178078e-01 -6.449816263e-02 -2.490329499e-01 -6.449816263e-02 -2.490329499e-01  9.138398210e-01 -1.719178078e-01
5.825000000  9.121834045e-01 -1.767882591e-01 -6.635899242e-02 -2.512764957e-01 -6.635899242e-02 -2.512764957e-01  9.121834045e-01 -1.767882591e-01
5.830000000  9.104953358e-01 -1.816414654e-01 -6.824442347e-02 -2.535022508e-01 -6.824442347e-02 -2.535022508e-01  9.104953358e-01 -1.816414654e-01
5.835000000  9.087758133e-01 -1.864771913e-01 -7.015425310e-02 -2.557099864e-01 -7.015425310e-02 -2.557099864e-01  9.087758133e-01 -1.864771913e-01
5.840000000  9.070250462e-01 -1.912951925e-01 -7.208827140e-02 -2.578994817e-01 -7.208827140e-02 -2.578994817e-01  9.070250462e-01 -1.912951925e-01
5.845000000  9.052432481e-01 -1.960952248e-01 -7.404626517e-02 -2.600705201e-01 -7.404626517e-02 -2.600705201e-01  9.052432481e-01 -1.960952248e-01
5.850000000  9.034306305e-01 -2.008770525e-01 -7.602802180e-02 -2.622228855e-01 -7.602802180e-02 -2.622228855e-01  9.034306305e-01 -2.008770525e-01
5.855000000  9.015874065e-01 -2.056404429e-01 -7.803332674e-02 -2.643563643e-01 -7.803332674e-02 -2.643563643e-01  9.015874065e-01 -2.056404429e-01
5.860000000  8.997137913e-01 -2.103851663e-01 -8.006196358e-02 -2.664707461e-01 -8.006196358e-02 -2.664707461e-01  8.997137913e-01 -2.103851663e-01
5.865000000  8.978100022e-01 -2.151109956e-01 -8.211371403e-02 -2.685658233e-01 -8.211371403e-02 -2.685658233e-01  8.978100022e-01 -2.151109956e-01
5.870000000  8.958762580e-01 -2.198177069e-01 -8.418835803e-02 -2.706413911e-01 -8.418835803e-02 -2.706413911e-01  8.958762580e-01 -2.198177069e-01
5.875000000  8.939127795e-01 -2.245050790e-01 -8.628567374e-02 -2.726972477e-01 -8.628567374e-02 -2.726972477e-01  8.939127795e-01 -2.245050790e-01
5.880000000  8.919197893e-01 -2.291728938e-01 -8.840543763e-02 -2.747331943e-01 -8.840543763e-02 -2.747331943e-01  8.919197893e-01 -2.291728938e-01
5.885000000  8.898975083e-01 -2.338209348e-01 -9.054742528e-02 -2.767490334e-01 -9.054742528e-02 -2.767490334e-01  8.898975083e-01 -2.338209348e-01
5.890000000  8.878461526e-01 -2.384489860e-01 -9.271141218e-02 -2.787445668e-01 -9.271141218e-02 -2.787445668e-01  8.878461526e-01 -2.384489860e-01
5.895000000  8.857659629e-01 -2.430568429e-01 -9.489716669e-02 -2.807196112e-01 -9.489716669e-02 -2.807196112e-01  8.857659629e-01 -2.430568429e-01
5.900000000  8.836571683e-01 -2.476442991e-01 -9.710445886e-02 -2.826739797e-01 -9.710445886e-02 -2.826739797e-01  8.836571683e-01 -2.476442991e-01
5.905000000  8.815199997e-01 -2.522111514e-01 -9.933305724e-02 -2.846074882e-01 -9.933305724e-02 -2.846074882e-01  8.815199997e-01 -2.522111514e-01
5.909090909  8.797504647e-01 -2.559322015e-01 -1.011721408e-01 -2.861738075e-01 -1.011721408e-01 -2.861738075e-01  8.797504647e-01 -2.559322015e-01
5.910000000  8.793546877e-01 -2.567571968e-01 -1.015827289e-01 -2.865199551e-01 -1.015827289e-01 -2.865199551e-01  8.793546877e-01 -2.567571968e-01
5.915000000  8.771614605e-01 -2.612822289e-01 -1.038532392e-01 -2.884111998e-01 -1.038532392e-01 -2.884111998e-01  8.771614605e-01 -2.612822289e-01
5.920000000  8.749405602e-01 -2.657860651e-01 -1.061443528e-01 -2.902810507e-01 -1.061443528e-01 -2.902810507e-01  8.749405602e-01 -2.657860651e-01
5.925000000  8.726922234e-01 -2.702685142e-01 -1.084558328e-01 -2.921293359e-01 -1.084558328e-01 -2.921293359e-01  8.726922234e-01 -2.702685142e-01
5.930000000  8.704166877e-01 -2.747293879e-01 -1.107874409e-01 -2.939558864e-01 -1.107874409e-01 -2.939558864e-01  8.704166877e-01 -2.747293879e-01
5.935000000  8.681141922e-01 -2.791685010e-01 -1.131389376e-01 -2.957605365e-01 -1.131389376e-01 -2.957605365e-01  8.681141922e-01 -2.791685010e-01
5.940000000  8.657849770e-01 -2.835856505e-01 -1.155100778e-01 -2.975431238e-01 -1.155100778e-01 -2.975431238e-01  8.657849770e-01 -2.835856505e-01
5.945000000  8.634292838e-01 -2.879806729e-01 -1.179006230e-01 -2.993034883e-01 -1.179006230e-01 -2.993034883e-01  8.634292838e-01 -2.879806729e-01
5.950000000  8.610473554e-01 -2.923533976e-01 -1.203103315e-01 -3.010414732e-01 -1.203103315e-01 -3.010414732e-01  8.610473554e-01 -2.923533976e-01
5.955000000  8.586394357e-01 -2.967036517e-01 -1.227389594e-01 -3.027569249e-01 -1.227389594e-01 -3.027569249e-01  8.586394357e-01 -2.967036517e-01
5.960000000  8.562057693e-01 -3.010312652e-01 -1.251862617e-01 -3.044496928e-01 -1.251862617e-01 -3.044496928e-01  8.562057693e-01 -3.010312652e-01
5.965000000  8.537466021e-01 -3.053360713e-01 -1.276519927e-01 -3.061196295e-01 -1.276519927e-01 -3.061196295e-01  8.537466021e-01 -3.053360713e-01
5.970000000  8.512621809e-01 -3.096179062e-01 -1.301359054e-01 -3.077665904e-01 -1.301359054e-01 -3.077665904e-01  8.512621809e-01 -3.096179062e-01
5.975000000  8.487527535e-01 -3.138766090e-01 -1.326377522e-01 -3.093904342e-01 -1.326377522e-01 -3.093904342e-01  8.487527535e-01 -3.138766090e-01
5.980000000  8.462185684e-01 -3.181120223e-01 -1.351572845e-01 -3.109910226e-01 -1.351572845e-01 -3.109910226e-01  8.462185684e-01 -3.181120223e-01
5.985000000  8.436598752e-01 -3.223239912e-01 -1.376942531e-01 -3.125682201e-01 -1.376942531e-01 -3.125682201e-01  8.436598752e-01 -3.223239912e-01
5.990000000  8.410769315e-01 -3.265123569e-01 -1.402484039e-01 -3.141218987e-01 -1.402484039e-01 -3.141218987e-01  8.410769315e-01 -3.265123569e-01
5.995000000  8.384699922e-01 -3.306769675e-01 -1.428194841e-01 -3.156519313e-01 -1.428194841e-01 -3.156519313e-01  8.384699922e-01 -3.306769675e-01
6.000000000  8.358392981e-01 -3.348176884e-01 -1.454072482e-01 -3.171581859e-01 -1.454072482e-01 -3.171581859e-01  8.358392981e-01 -3.348176884e-01
6.005000000  8.331851016e-01 -3.389343775e-01 -1.480114443e-01 -3.186405393e-01 -1.480114443e-01 -3.186405393e-01  8.331851016e-01 -3.389343775e-01
6.010000000  8.305076558e-01 -3.430268951e-01 -1.506318196e-01 -3.200988715e-01 -1.506318196e-01 -3.200988715e-01  8.305076558e-01 -3.430268951e-01
6.015000000  8.278072144e-01 -3.470951051e-01 -1.532681210e-01 -3.215330655e-01 -1.532681210e-01 -3.215330655e-01  8.278072144e-01 -3.470951051e-01
6.020000000  8.250840316e-01 -3.511388740e-01 -1.559200946e-01 -3.229430072e-01 -1.559200946e-01 -3.229430072e-01  8.250840316e-01 -3.511388740e-01
6.025000000  8.223383623e-01 -3.551580716e-01 -1.585874864e-01 -3.243285857e-01 -1.585874864e-01 -3.243285857e-01  8.223383623e-01 -3.551580716e-01
6.030000000  8.195704617e-01 -3.591525706e-01 -1.612700417e-01 -3.256896930e-01 -1.612700417e-01 -3.256896930e-01  8.195704617e-01 -3.591525706e-01
6.035000000  8.167805855e-01 -3.631222468e-01 -1.639675055e-01 -3.270262243e-01 -1.639675055e-01 -3.270262243e-01  8.167805855e-01 -3.631222468e-01
6.040000000  8.139689898e-01 -3.670669788e-01 -1.666796225e-01 -3.283380775e-01 -1.666796225e-01 -3.283380775e-01  8.139689898e-01 -3.670669788e-01
6.045000000  8.111359490e-01 -3.709866604e-01 -1.694061340e-01 -3.296251613e-01 -1.694061340e-01 -3.296251613e-01  8.111359490e-01 -3.709866604e-01
6.050000000  8.082817021e-01 -3.748811646e-01 -1.721467872e-01 -3.308873722e-01 -1.721467872e-01 -3.308873722e-01  8.082817021e-01 -3.748811646e-01
6.055000000  8.054065061e-01 -3.787503789e-01 -1.749013259e-01 -3.321246172e-01 -1.749013259e-01 -3.321246172e-01  8.054065061e-01 -3.787503789e-01
6.060000000  8.025106183e-01 -3.825941941e-01 -1.776694938e-01 -3.333368064e-01 -1.776694938e-01 -3.333368064e-01  8.025106183e-01 -3.825941941e-01
6.065000000  7.995942963e-01 -3.864125038e-01 -1.804510343e-01 -3.345238525e-01 -1.804510343e-01 -3.345238525e-01  7.995942963e-01 -3.864125038e-01
6.070000000  7.966577978e-01 -3.902052045e-01 -1.832456909e-01 -3.356856715e-01 -1.832456909e-01 -3.356856715e-01  7.966577978e-01 -3.902052045e-01
6.075000000  7.937013806e-01 -3.939721957e-01 -1.860532068e-01 -3.368221821e-01 -1.860532068e-01 -3.368221821e-01  7.937013806e-01 -3.939721957e-01
6.080000000  7.907253027e-01 -3.977133799e-01 -1.888733252e-01 -3.379333062e-01 -1.888733252e-01 -3.379333062e-01  7.907253027e-01 -3.977133799e-01
6.085000000  7.877298222e-01 -4.014286624e-01 -1.917057894e-01 -3.390189682e-01 -1.917057894e-01 -3.390189682e-01  7.877298222e-01 -4.014286624e-01
6.090000000  7.847151970e-01 -4.051179515e-01 -1.945503426e-01 -3.400790957e-01 -1.945503426e-01 -3.400790957e-01  7.847151970e-01 -4.051179515e-01
6.095000000  7.816816821e-01 -4.087811680e-01 -1.974067302e-01 -3.411136136e-01 -1.974067302e-01 -3.411136136e-01  7.816816821e-01 -4.087811680e-01
6.100000000  7.786295364e-01 -4.124182226e-01 -2.002746947e-01 -3.421224568e-01 -2.002746947e-01 -3.421224568e-01  7.786295364e-01 -4.124182226e-01
6.105000000  7.755590202e-01 -4.160290255e-01 -2.031539783e-01 -3.431055652e-01 -2.031539783e-01 -3.431055652e-01  7.755590202e-01 -4.160290255e-01
6.110000000  7.724703912e-01 -4.196134963e-01 -2.060443246e-01 -3.440628777e-01 -2.060443246e-01 -3.440628777e-01  7.724703912e-01 -4.196134963e-01
6.115000000  7.693639072e-01 -4.231715577e-01 -2.089454777e-01 -3.449943359e-01 -2.089454777e-01 -3.449943359e-01  7.693639072e-01 -4.231715577e-01
6.120000000  7.662398256e-01 -4.267031349e-01 -2.118571815e-01 -3.458998846e-01 -2.118571815e-01 -3.458998846e-01  7.662398256e-01 -4.267031349e-01
6.125000000  7.630984039e-01 -4.302081561e-01 -2.147791804e-01 -3.467794711e-01 -2.147791804e-01 -3.467794711e-01  7.630984039e-01 -4.302081561e-01
6.130000000  7.599398989e-01 -4.336865522e-01 -2.177112192e-01 -3.476330456e-01 -2.177112192e-01 -3.476330456e-01  7.599398989e-01 -4.336865522e-01
6.135000000  7.567645676e-01 -4.371382568e-01 -2.206530427e-01 -3.484605609e-01 -2.206530427e-01 -3.484605609e-01  7.567645676e-01 -4.371382568e-01
6.140000000  7.535726665e-01 -4.405632065e-01 -2.236043965e-01 -3.492619728e-01 -2.236043965e-01 -3.492619728e-01  7.535726665e-01 -4.405632065e-01
6.145000000  7.503644476e-01 -4.439613381e-01 -2.265650259e-01 -3.500372360e-01 -2.265650259e-01 -3.500372360e-01  7.503644476e-01 -4.439613381e-01
6.150000000  7.471401544e-01 -4.473325865e-01 -2.295346761e-01 -3.507863001e-01 -2.295346761e-01 -3.507863001e-01  7.471401544e-01 -4.473325865e-01
6.155000000  7.439000589e-01 -4.506769052e-01 -2.325130947e-01 -3.515091439e-01 -2.325130947e-01 -3.515091439e-01  7.439000589e-01 -4.506769052e-01
6.160000000  7.406444161e-01 -4.539942416e-01 -2.355000286e-01 -3.522057338e-01 -2.355000286e-01 -3.522057338e-01  7.406444161e-01 -4.539942416e-01
6.165000000  7.373734805e-01 -4.572845454e-01 -2.384952254e-01 -3.528760391e-01 -2.384952254e-01 -3.528760391e-01  7.373734805e-01 -4.572845454e-01
6.170000000  7.340875062e-01 -4.605477695e-01 -2.414984334e-01 -3.535200314e-01 -2.414984334e-01 -3.535200314e-01  7.340875062e-01 -4.605477695e-01
6.175000000  7.307867465e-01 -4.637838688e-01 -2.445094011e-01 -3.541376851e-01 -2.445094011e-01 -3.541376851e-01  7.307867465e-01 -4.637838688e-01
6.180000000  7.274714546e-01 -4.669928012e-01 -2.475278779e-01 -3.547289772e-01 -2.475278779e-01 -3.547289772e-01  7.274714546e-01 -4.669928012e-01
6.185000000  7.241418828e-01 -4.701745272e-01 -2.505536137e-01 -3.552938874e-01 -2.505536137e-01 -3.552938874e-01  7.241418828e-01 -4.701745272e-01
6.190000000  7.207982830e-01 -4.733290096e-01 -2.535863591e-01 -3.558323976e-01 -2.535863591e-01 -3.558323976e-01  7.207982830e-01 -4.733290096e-01
6.195000000  7.174409064e-01 -4.764562139e-01 -2.566258654e-01 -3.563444926e-01 -2.566258654e-01 -3.563444926e-01  7.174409064e-01 -4.764562139e-01
6.200000000  7.140699981e-01 -4.795560809e-01 -2.596718764e-01 -3.568301548e-01 -2.596718764e-01 -3.568301548e-01  7.140699981e-01 -4.795560809e-01
6.205000000  7.106858123e-01 -4.826286016e-01 -2.627241506e-01 -3.572893774e-01 -2.627241506e-01 -3.572893774e-01  7.106858123e-01 -4.826286016e-01
6.210000000  7.072885995e-01 -4.856737557e-01 -2.657824435e-01 -3.577221540e-01 -2.657824435e-01 -3.577221540e-01  7.072885995e-01 -4.856737557e-01
6.215000000  7.038786080e-01 -4.886915189e-01 -2.688465092e-01 -3.581284790e-01 -2.688465092e-01 -3.581284790e-01  7.038786080e-01 -4.886915189e-01
6.220000000  7.004560857e-01 -4.916818691e-01 -2.719161029e-01 -3.585083495e-01 -2.719161029e-01 -3.585083495e-01  7.004560857e-01 -4.916818691e-01
6.225000000  6.970212795e-01 -4.946447865e-01 -2.749909803e-01 -3.588617650e-01 -2.749909803e-01 -3.588617650e-01  6.970212795e-01 -4.946447865e-01
6.230000000  6.935744353e-01 -4.975802540e-01 -2.780708981e-01 -3.591887273e-01 -2.780708981e-01 -3.591887273e-01  6.935744353e-01 -4.975802540e-01
6.235000000  6.901157986e-01 -5.004882566e-01 -2.811556141e-01 -3.594892407e-01 -2.811556141e-01 -3.594892407e-01  6.901157986e-01 -5.004882566e-01
6.240000000  6.866456138e-01 -5.033687820e-01 -2.842448865e-01 -3.597633116e-01 -2.842448865e-01 -3.597633116e-01  6.866456138e-01 -5.033687820e-01
6.245000000  6.831641244e-01 -5.062218197e-01 -2.873384749e-01 -3.600109490e-01 -2.873384749e-01 -3.600109490e-01  6.831641244e-01 -5.062218197e-01
6.250000000  6.796715778e-01 -5.090473544e-01 -2.904361365e-01 -3.602321680e-01 -2.904361365e-01 -3.602321680e-01  6.796715778e-01 -5.090473544e-01
6.255000000  6.761682182e-01 -5.118453765e-01 -2.935376311e-01 -3.604269839e-01 -2.935376311e-01 -3.604269839e-01  6.761682182e-01 -5.118453765e-01
6.260000000  6.726542795e-01 -5.146158946e-01 -2.966427257e-01 -3.605954069e-01 -2.966427257e-01 -3.605954069e-01  6.726542795e-01 -5.146158946e-01
6.265000000  6.691300016e-01 -5.173589075e-01 -2.997511836e-01 -3.607374548e-01 -2.997511836e-01 -3.607374548e-01  6.691300016e-01 -5.173589075e-01
6.270000000  6.655956232e-01 -5.200744164e-01 -3.028627691e-01 -3.608531480e-01 -3.028627691e-01 -3.608531480e-01  6.655956232e-01 -5.200744164e-01
6.272727273  6.636636085e-01 -5.215440115e-01 -3.045612318e-01 -3.609051530e-01 -3.045612318e-01 -3.609051530e-01  6.636636085e-01 -5.215440115e-01
6.275000000  6.620513887e-01 -5.227624237e-01 -3.059772464e-01 -3.609425134e-01 -3.059772464e-01 -3.609425134e-01  6.620513887e-01 -5.227624237e-01
6.280000000  6.584975361e-01 -5.254229349e-01 -3.090943820e-01 -3.610055767e-01 -3.090943820e-01 -3.610055767e-01  6.584975361e-01 -5.254229349e-01
6.285000000  6.549342939e-01 -5.280559588e-01 -3.122139446e-01 -3.610423588e-01 -3.122139446e-01 -3.610423588e-01  6.549342939e-01 -5.280559588e-01
6.290000000  6.513618969e-01 -5.306615052e-01 -3.153357031e-01 -3.610528885e-01 -3.153357031e-01 -3.610528885e-01  6.513618969e-01 -5.306615052e-01
6.295000000  6.477805788e-01 -5.332395859e-01 -3.184594270e-01 -3.610371967e-01 -3.184594270e-01 -3.610371967e-01  6.477805788e-01 -5.332395859e-01
6.300000000  6.441905723e-01 -5.357902151e-01 -3.215848874e-01 -3.609953163e-01 -3.215848874e-01 -3.609953163e-01  6.441905723e-01 -5.357902151e-01
6.305000000  6.405921268e-01 -5.383134220e-01 -3.247118571e-01 -3.609272934e-01 -3.247118571e-01 -3.609272934e-01  6.405921268e-01 -5.383134220e-01
6.310000000  6.369854549e-01 -5.408092115e-01 -3.278401086e-01 -3.608331539e-01 -3.278401086e-01 -3.608331539e-01  6.369854549e-01 -5.408092115e-01
6.315000000  6.333707860e-01 -5.432776038e-01 -3.309694164e-01 -3.607129370e-01 -3.309694164e-01 -3.607129370e-01  6.333707860e-01 -5.432776038e-01
6.320000000  6.297483481e-01 -5.457186210e-01 -3.340995561e-01 -3.605666835e-01 -3.340995561e-01 -3.605666835e-01  6.297483481e-01 -5.457186210e-01
6.325000000  6.261183684e-01 -5.481322870e-01 -3.372303046e-01 -3.603944364e-01 -3.372303046e-01 -3.603944364e-01  6.261183684e-01 -5.481322870e-01
6.330000000  6.224810726e-01 -5.505186279e-01 -3.403614398e-01 -3.601962406e-01 -3.403614398e-01 -3.601962406e-01  6.224810726e-01 -5.505186279e-01
6.335000000  6.188366853e-01 -5.528776715e-01 -3.434927411e-01 -3.599721429e-01 -3.434927411e-01 -3.599721429e-01  6.188366853e-01 -5.528776715e-01
6.340000000  6.151854301e-01 -5.552094477e-01 -3.466239890e-01 -3.597221918e-01 -3.466239890e-01 -3.597221918e-01  6.151854301e-01 -5.552094477e-01
6.345000000  6.115275290e-01 -5.575139881e-01 -3.497549655e-01 -3.594464381e-01 -3.497549655e-01 -3.594464381e-01  6.115275290e-01 -5.575139881e-01
6.350000000  6.078632031e-01 -5.597913262e-01 -3.528854536e-01 -3.591449339e-01 -3.528854536e-01 -3.591449339e-01  6.078632031e-01 -5.597913262e-01
6.355000000  6.041926745e-01 -5.620415106e-01 -3.560152386e-01 -3.588177301e-01 -3.560152386e-01 -3.588177301e-01  6.041926745e-01 -5.620415106e-01
6.360000000  6.005161609e-01 -5.642645740e-01 -3.591441059e-01 -3.584648838e-01 -3.591441059e-01 -3.584648838e-01  6.005161609e-01 -5.642645740e-01
6.365000000  5.968338778e-01 -5.664605463e-01 -3.622718421e-01 -3.580864548e-01 -3.622718421e-01 -3.580864548e-01  5.968338778e-01 -5.664605463e-01
6.370000000  5.931460411e-01 -5.686294684e-01 -3.653982355e-01 -3.576825025e-01 -3.653982355e-01 -3.576825025e-01  5.931460411e-01 -5.686294684e-01
6.375000000  5.894528654e-01 -5.707713825e-01 -3.685230760e-01 -3.572530882e-01 -3.685230760e-01 -3.572530882e-01  5.894528654e-01 -5.707713825e-01
6.380000000  5.857545640e-01 -5.728863327e-01 -3.716461546e-01 -3.567982745e-01 -3.716461546e-01 -3.567982745e-01  5.857545640e-01 -5.728863327e-01
6.385000000  5.820513489e-01 -5.749743648e-01 -3.747672638e-01 -3.563181261e-01 -3.747672638e-01 -3.563181261e-01  5.820513489e-01 -5.749743648e-01
6.390000000  5.783434307e-01 -5.770355262e-01 -3.778861976e-01 -3.558127091e-01 -3.778861976e-01 -3.558127091e-01  5.783434307e-01 -5.770355262e-01
6.395000000  5.746310187e-01 -5.790698660e-01 -3.810027513e-01 -3.552820911e-01 -3.810027513e-01 -3.552820911e-01  5.746310187e-01 -5.790698660e-01
6.400000000  5.709143209e-01 -5.810774347e-01 -3.841167214e-01 -3.547263417e-01 -3.841167214e-01 -3.547263417e-01  5.709143209e-01 -5.810774347e-01
6.405000000  5.671935409e-01 -5.830582837e-01 -3.872279041e-01 -3.541455273e-01 -3.872279041e-01 -3.541455273e-01  5.671935409e-01 -5.830582837e-01
6.410000000  5.634688754e-01 -5.850124639e-01 -3.903360924e-01 -3.535397075e-01 -3.903360924e-01 -3.535397075e-01  5.634688754e-01 -5.850124639e-01
6.415000000  5.597405401e-01 -5.869400344e-01 -3.934410952e-01 -3.529089737e-01 -3.934410952e-01 -3.529089737e-01  5.597405401e-01 -5.869400344e-01
6.420000000  5.560087374e-01 -5.888410520e-01 -3.965427149e-01 -3.522534013e-01 -3.965427149e-01 -3.522534013e-01  5.560087374e-01 -5.888410520e-01
6.425000000  5.522736682e-01 -5.907155749e-01 -3.996407554e-01 -3.515730673e-01 -3.996407554e-01 -3.515730673e-01  5.522736682e-01 -5.907155749e-01
6.430000000  5.485355325e-01 -5.925636630e-01 -4.027350218e-01 -3.508680501e-01 -4.027350218e-01 -3.508680501e-01  5.485355325e-01 -5.925636630e-01
6.435000000  5.447945283e-01 -5.943853776e-01 -4.058253210e-01 -3.501384296e-01 -4.058253210e-01 -3.501384296e-01  5.447945283e-01 -5.943853776e-01
6.440000000  5.410508526e-01 -5.961807812e-01 -4.089114611e-01 -3.493842869e-01 -4.089114611e-01 -3.493842869e-01  5.410508526e-01 -5.961807812e-01
6.445000000  5.373047008e-01 -5.979499380e-01 -4.119932517e-01 -3.486057048e-01 -4.119932517e-01 -3.486057048e-01  5.373047008e-01 -5.979499380e-01
6.450000000  5.335562670e-01 -5.996929133e-01 -4.150705040e-01 -3.478027672e-01 -4.150705040e-01 -3.478027672e-01  5.335562670e-01 -5.996929133e-01
6.455000000  5.298057437e-01 -6.014097740e-01 -4.181430305e-01 -3.469755594e-01 -4.181430305e-01 -3.469755594e-01  5.298057437e-01 -6.014097740e-01
6.460000000  5.260533163e-01 -6.031005621e-01 -4.212106301e-01 -3.461241606e-01 -4.212106301e-01 -3.461241606e-01  5.260533163e-01 -6.031005621e-01
6.465000000  5.222991790e-01 -6.047653667e-01 -4.242731295e-01 -3.452486645e-01 -4.242731295e-01 -3.452486645e-01  5.222991790e-01 -6.047653667e-01
6.470000000  5.185435218e-01 -6.064042649e-01 -4.273303496e-01 -3.443491624e-01 -4.273303496e-01 -3.443491624e-01  5.185435218e-01 -6.064042649e-01
6.475000000  5.147865313e-01 -6.080173288e-01 -4.303821090e-01 -3.434257445e-01 -4.303821090e-01 -3.434257445e-01  5.147865313e-01 -6.080173288e-01
6.480000000  5.110283931e-01 -6.096046315e-01 -4.334282277e-01 -3.424785026e-01 -4.334282277e-01 -3.424785026e-01  5.110283931e-01 -6.096046315e-01
6.485000000  5.072692910e-01 -6.111662474e-01 -4.364685274e-01 -3.415075295e-01 -4.364685274e-01 -3.415075295e-01  5.072692910e-01 -6.111662474e-01
6.490000000  5.035094075e-01 -6.127022521e-01 -4.395028311e-01 -3.405129192e-01 -4.395028311e-01 -3.405129192e-01  5.035094075e-01 -6.127022521e-01
6.495000000  4.997489235e-01 -6.142127224e-01 -4.425309636e-01 -3.394947669e-01 -4.425309636e-01 -3.394947669e-01  4.997489235e-01 -6.142127224e-01
6.500000000  4.959880187e-01 -6.156977363e-01 -4.455527509e-01 -3.384531689e-01 -4.455527509e-01 -3.384531689e-01  4.959880187e-01 -6.156977363e-01
6.505000000  4.922268710e-01 -6.171573728e-01 -4.485680206e-01 -3.373882226e-01 -4.485680206e-01 -3.373882226e-01  4.922268710e-01 -6.171573728e-01
6.510000000  4.884656635e-01 -6.185917019e-01 -4.515765982e-01 -3.363000332e-01 -4.515765982e-01 -3.363000332e-01  4.884656635e-01 -6.185917019e-01
6.515000000  4.847045744e-01 -6.200008002e-01 -4.545783124e-01 -3.351887037e-01 -4.545783124e-01 -3.351887037e-01  4.847045744e-01 -6.200008002e-01
6.520000000  4.809437679e-01 -6.213847651e-01 -4.575730014e-01 -3.340543248e-01 -4.575730014e-01 -3.340543248e-01  4.809437679e-01 -6.213847651e-01
6.525000000  4.771834161e-01 -6.227436797e-01 -4.605604989e-01 -3.328969981e-01 -4.605604989e-01 -3.328969981e-01  4.771834161e-01 -6.227436797e-01
6.530000000  4.734236898e-01 -6.240776286e-01 -4.635406401e-01 -3.317168264e-01 -4.635406401e-01 -3.317168264e-01  4.734236898e-01 -6.240776286e-01
6.535000000  4.696647582e-01 -6.253866971e-01 -4.665132619e-01 -3.305139133e-01 -4.665132619e-01 -3.305139133e-01  4.696647582e-01 -6.253866971e-01
6.540000000  4.659067889e-01 -6.266709715e-01 -4.694782026e-01 -3.292883632e-01 -4.694782026e-01 -3.292883632e-01  4.659067889e-01 -6.266709715e-01
6.545000000  4.621499484e-01 -6.279305391e-01 -4.724353021e-01 -3.280402819e-01 -4.724353021e-01 -3.280402819e-01  4.621499484e-01 -6.279305391e-01
6.550000000  4.583944013e-01 -6.291654882e-01 -4.753844017e-01 -3.267697757e-01 -4.753844017e-01 -3.267697757e-01  4.583944013e-01 -6.291654882e-01
6.555000000  4.546403109e-01 -6.303759079e-01 -4.783253445e-01 -3.254769520e-01 -4.783253445e-01 -3.254769520e-01  4.546403109e-01 -6.303759079e-01
6.560000000  4.508878392e-01 -6.315618883e-01 -4.812579748e-01 -3.241619189e-01 -4.812579748e-01 -3.241619189e-01  4.508878392e-01 -6.315618883e-01
6.565000000  4.471371728e-01 -6.327235300e-01 -4.841821459e-01 -3.228248077e-01 -4.841821459e-01 -3.228248077e-01  4.471371728e-01 -6.327235300e-01
6.570000000  4.433884441e-01 -6.338609153e-01 -4.870976983e-01 -3.214657061e-01 -4.870976983e-01 -3.214657061e-01  4.433884441e-01 -6.338609153e-01
6.575000000  4.396418105e-01 -6.349741367e-01 -4.900044812e-01 -3.200847249e-01 -4.900044812e-01 -3.200847249e-01  4.396418105e-01 -6.349741367e-01
6.580000000  4.358974278e-01 -6.360632877e-01 -4.929023451e-01 -3.186819754e-01 -4.929023451e-01 -3.186819754e-01  4.358974278e-01 -6.360632877e-01
6.585000000  4.321554506e-01 -6.371284625e-01 -4.957911420e-01 -3.172575702e-01 -4.957911420e-01 -3.172575702e-01  4.321554506e-01 -6.371284625e-01
6.590000000  4.284160318e-01 -6.381697562e-01 -4.986707256e-01 -3.158116223e-01 -4.986707256e-01 -3.158116223e-01  4.284160318e-01 -6.381697562e-01
6.595000000  4.246793229e-01 -6.391872646e-01 -5.015409510e-01 -3.143442454e-01 -5.015409510e-01 -3.143442454e-01  4.246793229e-01 -6.391872646e-01
6.600000000  4.209454740e-01 -6.401810842e-01 -5.044016749e-01 -3.128555542e-01 -5.044016749e-01 -3.128555542e-01  4.209454740e-01 -6.401810842e-01
6.605000000  4.172146336e-01 -6.411513122e-01 -5.072527554e-01 -3.113456639e-01 -5.072527554e-01 -3.113456639e-01  4.172146336e-01 -6.411513122e-01
6.610000000  4.134869488e-01 -6.420980467e-01 -5.100940522e-01 -3.098146904e-01 -5.100940522e-01 -3.098146904e-01  4.134869488e-01 -6.420980467e-01
6.615000000  4.097625726e-01 -6.430213993e-01 -5.129254303e-01 -3.082627526e-01 -5.129254303e-01 -3.082627526e-01  4.097625726e-01 -6.430213993e-01
6.620000000  4.060416469e-01 -6.439214649e-01 -5.157467512e-01 -3.066899670e-01 -5.157467512e-01 -3.066899670e-01  4.060416469e-01 -6.439214649e-01
6.625000000  4.023243093e-01 -6.447983349e-01 -5.185578765e-01 -3.050964498e-01 -5.185578765e-01 -3.050964498e-01  4.023243093e-01 -6.447983349e-01
6.630000000  3.986107011e-01 -6.456521099e-01 -5.213586720e-01 -3.034823195e-01 -5.213586720e-01 -3.034823195e-01  3.986107011e-01 -6.456521099e-01
6.635000000  3.949009622e-01 -6.464828910e-01 -5.241490047e-01 -3.018476952e-01 -5.241490047e-01 -3.018476952e-01  3.949009622e-01 -6.464828910e-01
6.636363636  3.938899050e-01 -6.467054904e-01 -5.249081715e-01 -3.013983475e-01 -5.249081715e-01 -3.013983475e-01  3.938899050e-01 -6.467054904e-01
6.640000000  3.911952315e-01 -6.472907895e-01 -5.269287422e-01 -3.001926921e-01 -5.269287422e-01 -3.001926921e-01  3.911952315e-01 -6.472907895e-01
6.645000000  3.874936457e-01 -6.480759018e-01 -5.296977554e-01 -2.985174332e-01 -5.296977554e-01 -2.985174332e-01  3.874936457e-01 -6.480759018e-01
6.650000000  3.837963400e-01 -6.488383275e-01 -5.324559162e-01 -2.968220411e-01 -5.324559162e-01 -2.968220411e-01  3.837963400e-01 -6.488383275e-01
6.655000000  3.801034485e-01 -6.495781700e-01 -5.352030980e-01 -2.951066369e-01 -5.352030980e-01 -2.951066369e-01  3.801034485e-01 -6.495781700e-01
6.660000000  3.764151039e-01 -6.502955335e-01 -5.379391753e-01 -2.933713426e-01 -5.379391753e-01 -2.933713426e-01  3.764151039e-01 -6.502955335e-01
6.665000000  3.727314360e-01 -6.509905231e-01 -5.406640212e-01 -2.916162773e-01 -5.406640212e-01 -2.916162773e-01  3.727314360e-01 -6.509905231e-01
6.670000000  3.690525700e-01 -6.516632454e-01 -5.433775036e-01 -2.898415552e-01 -5.433775036e-01 -2.898415552e-01  3.690525700e-01 -6.516632454e-01
6.675000000  3.653786405e-01 -6.523138040e-01 -5.460795140e-01 -2.880473114e-01 -5.460795140e-01 -2.880473114e-01  3.653786405e-01 -6.523138040e-01
6.680000000  3.617097744e-01 -6.529423047e-01 -5.487699328e-01 -2.862336698e-01 -5.487699328e-01 -2.862336698e-01  3.617097744e-01 -6.529423047e-01
6.685000000  3.580460973e-01 -6.535488541e-01 -5.514486421e-01 -2.844007543e-01 -5.514486421e-01 -2.844007543e-01  3.580460973e-01 -6.535488541e-01
6.690000000  3.543877333e-01 -6.541335590e-01 -5.541155252e-01 -2.825486895e-01 -5.541155252e-01 -2.825486895e-01  3.543877333e-01 -6.541335590e-01
6.695000000  3.507348051e-01 -6.546965268e-01 -5.567704669e-01 -2.806776004e-01 -5.567704669e-01 -2.806776004e-01  3.507348051e-01 -6.546965268e-01
6.700000000  3.470874342e-01 -6.552378653e-01 -5.594133537e-01 -2.787876123e-01 -5.594133537e-01 -2.787876123e-01  3.470874342e-01 -6.552378653e-01
6.705000000  3.434457405e-01 -6.557576824e-01 -5.620440732e-01 -2.768788507e-01 -5.620440732e-01 -2.768788507e-01  3.434457405e-01 -6.557576824e-01
6.710000000  3.398098427e-01 -6.562560868e-01 -5.646625146e-01 -2.749514418e-01 -5.646625146e-01 -2.749514418e-01  3.398098427e-01 -6.562560868e-01
6.715000000  3.361798579e-01 -6.567331872e-01 -5.672685685e-01 -2.730055118e-01 -5.672685685e-01 -2.730055118e-01  3.361798579e-01 -6.567331872e-01
6.720000000  3.325558958e-01 -6.571890734e-01 -5.698621023e-01 -2.710411820e-01 -5.698621023e-01 -2.710411820e-01  3.325558958e-01 -6.571890734e-01
6.725000000  3.289380757e-01 -6.576238697e-01 -5.724430276e-01 -2.690585840e-01 -5.724430276e-01 -2.690585840e-01  3.289380757e-01 -6.576238697e-01
6.730000000  3.253265122e-01 -6.580376908e-01 -5.750112454e-01 -2.670578465e-01 -5.750112454e-01 -2.670578465e-01  3.253265122e-01 -6.580376908e-01
6.735000000  3.217213173e-01 -6.584306470e-01 -5.775666519e-01 -2.650390970e-01 -5.775666519e-01 -2.650390970e-01  3.217213173e-01 -6.584306470e-01
6.740000000  3.181226013e-01 -6.588028486e-01 -5.801091447e-01 -2.630024634e-01 -5.801091447e-01 -2.630024634e-01  3.181226013e-01 -6.588028486e-01
6.745000000  3.145304733e-01 -6.591544064e-01 -5.826386228e-01 -2.609480737e-01 -5.826386228e-01 -2.609480737e-01  3.145304733e-01 -6.591544064e-01
6.750000000  3.109450411e-01 -6.594854312e-01 -5.851549867e-01 -2.588760563e-01 -5.851549867e-01 -2.588760563e-01  3.109450411e-01 -6.594854312e-01
6.755000000  3.073664111e-01 -6.597960345e-01 -5.876581381e-01 -2.567865397e-01 -5.876581381e-01 -2.567865397e-01  3.073664111e-01 -6.597960345e-01
6.760000000  3.037946884e-01 -6.600863275e-01 -5.901479802e-01 -2.546796527e-01 -5.901479802e-01 -2.546796527e-01  3.037946884e-01 -6.600863275e-01
6.765000000  3.002299768e-01 -6.603564219e-01 -5.926244174e-01 -2.525555241e-01 -5.926244174e-01 -2.525555241e-01  3.002299768e-01 -6.603564219e-01
6.770000000  2.966723831e-01 -6.606064181e-01 -5.950873498e-01 -2.504142904e-01 -5.950873498e-01 -2.504142904e-01  2.966723831e-01 -6.606064181e-01
6.775000000  2.931220109e-01 -6.608364222e-01 -5.975366820e-01 -2.482560848e-01 -5.975366820e-01 -2.482560848e-01  2.931220109e-01 -6.608364222e-01
6.780000000  2.895789534e-01 -6.610465643e-01 -5.999723310e-01 -2.460810258e-01 -5.999723310e-01 -2.460810258e-01  2.895789534e-01 -6.610465643e-01
6.785000000  2.860433092e-01 -6.612369568e-01 -6.023942067e-01 -2.438892430e-01 -6.023942067e-01 -2.438892430e-01  2.860433092e-01 -6.612369568e-01
6.790000000  2.825151755e-01 -6.614077121e-01 -6.048022204e-01 -2.416808661e-01 -6.048022204e-01 -2.416808661e-01  2.825151755e-01 -6.614077121e-01
6.795000000  2.789946486e-01 -6.615589432e-01 -6.071962846e-01 -2.394560250e-01 -6.071962846e-01 -2.394560250e-01  2.789946486e-01 -6.615589432e-01
6.800000000  2.754818230e-01 -6.616907627e-01 -6.095763132e-01 -2.372148497e-01 -6.095763132e-01 -2.372148497e-01  2.754818230e-01 -6.616907627e-01
6.805000000  2.719767925e-01 -6.618032838e-01 -6.119422212e-01 -2.349574701e-01 -6.119422212e-01 -2.349574701e-01  2.719767925e-01 -6.618032838e-01
6.810000000  2.684796492e-01 -6.618966195e-01 -6.142939252e-01 -2.326840165e-01 -6.142939252e-01 -2.326840165e-01  2.684796492e-01 -6.618966195e-01
6.815000000  2.649904841e-01 -6.619708830e-01 -6.166313428e-01 -2.303946190e-01 -6.166313428e-01 -2.303946190e-01  2.649904841e-01 -6.619708830e-01
6.820000000  2.615093871e-01 -6.620261877e-01 -6.189543931e-01 -2.280894080e-01 -6.189543931e-01 -2.280894080e-01  2.615093871e-01 -6.620261877e-01
6.825000000  2.580364736e-01 -6.620626481e-01 -6.212630103e-01 -2.257685372e-01 -6.212630103e-01 -2.257685372e-01  2.580364736e-01 -6.620626481e-01
6.830000000  2.545718039e-01 -6.620803765e-01 -6.235571023e-01 -2.234321134e-01 -6.235571023e-01 -2.234321134e-01  2.545718039e-01 -6.620803765e-01
6.835000000  2.511154643e-01 -6.620794863e-01 -6.258365919e-01 -2.210802668e-01 -6.258365919e-01 -2.210802668e-01  2.511154643e-01 -6.620794863e-01
6.840000000  2.476675397e-01 -6.620600911e-01 -6.281014032e-01 -2.187131279e-01 -6.281014032e-01 -2.187131279e-01  2.476675397e-01 -6.620600911e-01
6.845000000  2.442281137e-01 -6.620223045e-01 -6.303514615e-01 -2.163308271e-01 -6.303514615e-01 -2.163308271e-01  2.442281137e-01 -6.620223045e-01
6.850000000  2.407972689e-01 -6.619662400e-01 -6.325866934e-01 -2.139334948e-01 -6.325866934e-01 -2.139334948e-01  2.407972689e-01 -6.619662400e-01
6.855000000  2.373750867e-01 -6.618920113e-01 -6.348070266e-01 -2.115212614e-01 -6.348070266e-01 -2.115212614e-01  2.373750867e-01 -6.618920113e-01
6.860000000  2.339616473e-01 -6.617997320e-01 -6.370123902e-01 -2.090942574e-01 -6.370123902e-01 -2.090942574e-01  2.339616473e-01 -6.617997320e-01
6.865000000  2.305570295e-01 -6.616895156e-01 -6.392027143e-01 -2.066526130e-01 -6.392027143e-01 -2.066526130e-01  2.305570295e-01 -6.616895156e-01
6.870000000  2.271613114e-01 -6.615614759e-01 -6.413779305e-01 -2.041964586e-01 -6.413779305e-01 -2.041964586e-01  2.271613114e-01 -6.615614759e-01
6.875000000  2.237745819e-01 -6.614157449e-01 -6.435379806e-01 -2.017259262e-01 -6.435379806e-01 -2.017259262e-01  2.237745819e-01 -6.614157449e-01
6.880000000  2.203969124e-01 -6.612524299e-01 -6.456827954e-01 -1.992411453e-01 -6.456827954e-01 -1.992411453e-01  2.203969124e-01 -6.612524299e-01
6.885000000  2.170283691e-01 -6.610716321e-01 -6.478123037e-01 -1.967422446e-01 -6.478123037e-01 -1.967422446e-01  2.170283691e-01 -6.610716321e-01
6.890000000  2.136690254e-01 -6.608734649e-01 -6.499264416e-01 -1.942293543e-01 -6.499264416e-01 -1.942293543e-01  2.136690254e-01 -6.608734649e-01
6.895000000  2.103189534e-01 -6.606580416e-01 -6.520251465e-01 -1.917026043e-01 -6.520251465e-01 -1.917026043e-01  2.103189534e-01 -6.606580416e-01
6.900000000  2.069782241e-01 -6.604254756e-01 -6.541083568e-01 -1.891621245e-01 -6.541083568e-01 -1.891621245e-01  2.069782241e-01 -6.604254756e-01
6.905000000  2.036469074e-01 -6.601758802e-01 -6.561760121e-01 -1.866080446e-01 -6.561760121e-01 -1.866080446e-01  2.036469074e-01 -6.601758802e-01
6.910000000  2.003250723e-01 -6.599093685e-01 -6.582280534e-01 -1.840404943e-01 -6.582280534e-01 -1.840404943e-01  2.003250723e-01 -6.599093685e-01
6.915000000  1.970127865e-01 -6.596260536e-01 -6.602644225e-01 -1.814596032e-01 -6.602644225e-01 -1.814596032e-01  1.970127865e-01 -6.596260536e-01
6.920000000  1.937101166e-01 -6.593260484e-01 -6.622850624e-01 -1.788655006e-01 -6.622850624e-01 -1.788655006e-01  1.937101166e-01 -6.593260484e-01
6.925000000  1.904171281e-01 -6.590094708e-01 -6.642899144e-01 -1.762583132e-01 -6.642899144e-01 -1.762583132e-01  1.904171281e-01 -6.590094708e-01
6.930000000  1.871338854e-01 -6.586764483e-01 -6.662789146e-01 -1.736381630e-01 -6.662789146e-01 -1.736381630e-01  1.871338854e-01 -6.586764483e-01
6.935000000  1.838604523e-01 -6.583270739e-01 -6.682520213e-01 -1.710051888e-01 -6.682520213e-01 -1.710051888e-01  1.838604523e-01 -6.583270739e-01
6.940000000  1.805968913e-01 -6.579614600e-01 -6.702091820e-01 -1.683595196e-01 -6.702091820e-01 -1.683595196e-01  1.805968913e-01 -6.579614600e-01
6.945000000  1.773432637e-01 -6.575797189e-01 -6.721503452e-01 -1.657012840e-01 -6.721503452e-01 -1.657012840e-01  1.773432637e-01 -6.575797189e-01
6.950000000  1.740996299e-01 -6.571819629e-01 -6.740754605e-01 -1.630306103e-01 -6.740754605e-01 -1.630306103e-01  1.740996299e-01 -6.571819629e-01
6.955000000  1.708660493e-01 -6.567683041e-01 -6.759844786e-01 -1.603476270e-01 -6.759844786e-01 -1.603476270e-01  1.708660493e-01 -6.567683041e-01
6.960000000  1.676425801e-01 -6.563388542e-01 -6.778773514e-01 -1.576524620e-01 -6.778773514e-01 -1.576524620e-01  1.676425801e-01 -6.563388542e-01
6.965000000  1.644292796e-01 -6.558937250e-01 -6.797540316e-01 -1.549452433e-01 -6.797540316e-01 -1.549452433e-01  1.644292796e-01 -6.558937250e-01
6.970000000  1.612262042e-01 -6.554330281e-01 -6.816144731e-01 -1.522260986e-01 -6.816144731e-01 -1.522260986e-01  1.612262042e-01 -6.554330281e-01
6.975000000  1.580334092e-01 -6.549568749e-01 -6.834586307e-01 -1.494951553e-01 -6.834586307e-01 -1.494951553e-01  1.580334092e-01 -6.549568749e-01
6.980000000  1.548509419e-01 -6.544653747e-01 -6.852864380e-01 -1.467525388e-01 -6.852864380e-01 -1.467525388e-01  1.548509419e-01 -6.544653747e-01
6.985000000  1.516788608e-01 -6.539586400e-01 -6.870978686e-01 -1.439983781e-01 -6.870978686e-01 -1.439983781e-01  1.516788608e-01 -6.539586400e-01
6.990000000  1.485172201e-01 -6.534367821e-01 -6.888928861e-01 -1.412328004e-01 -6.888928861e-01 -1.412328004e-01  1.485172201e-01 -6.534367821e-01
6.995000000  1.453660714e-01 -6.528999115e-01 -6.906714496e-01 -1.384559323e-01 -6.906714496e-01 -1.384559323e-01  1.453660714e-01 -6.528999115e-01
7.000000000  1.422254649e-01 -6.523481387e-01 -6.924335190e-01 -1.356679001e-01 -6.924335190e-01 -1.356679001e-01  1.422254649e-01 -6.523481387e-01
