! yapnr rf: line-osh-m-w0p40-l30-m-eq-em528, footprint re-simulated (optimization grid)
! spec sha256 e1df80788586768a1376a87975672cfbac6fb459197fea5440b6dbc662095988
! 2 ports renormalized to 50 ohm, e^(+jwt) convention
# GHz S RI R 50
3.000000000 -1.062541590e-03 -8.340166963e-04 -9.659005365e-01  2.896948790e-02 -9.659005365e-01  2.896948790e-02 -1.062541590e-03 -8.340166963e-04
3.025000000 -1.095403738e-03 -1.303903874e-03 -9.647944120e-01  5.449021469e-02 -9.647944120e-01  5.449021469e-02 -1.095403738e-03 -1.303903874e-03
3.050000000 -1.153180856e-03 -1.771221041e-03 -9.630139393e-01  7.997305439e-02 -9.630139393e-01  7.997305439e-02 -1.153180856e-03 -1.771221041e-03
3.075000000 -1.235592860e-03 -2.234611094e-03 -9.605603448e-01  1.054001261e-01 -9.605603448e-01  1.054001261e-01 -1.235592860e-03 -2.234611094e-03
3.100000000 -1.342684384e-03 -2.692751681e-03 -9.574353160e-01  1.307536609e-01 -9.574353160e-01  1.307536609e-01 -1.342684384e-03 -2.692751681e-03
3.125000000 -1.473866609e-03 -3.144360472e-03 -9.536410308e-01  1.560158870e-01 -9.536410308e-01  1.560158870e-01 -1.473866609e-03 -3.144360472e-03
3.150000000 -1.629065304e-03 -3.588011163e-03 -9.491801416e-01  1.811690347e-01 -9.491801416e-01  1.811690347e-01 -1.629065304e-03 -3.588011163e-03
3.175000000 -1.807559209e-03 -4.022574174e-03 -9.440557557e-01  2.061955755e-01 -9.440557557e-01  2.061955755e-01 -1.807559209e-03 -4.022574174e-03
3.200000000 -2.008933490e-03 -4.446676445e-03 -9.382714802e-01  2.310778721e-01 -9.382714802e-01  2.310778721e-01 -2.008933490e-03 -4.446676445e-03
3.225000000 -2.232485790e-03 -4.859247072e-03 -9.318313424e-01  2.557986156e-01 -9.318313424e-01  2.557986156e-01 -2.232485790e-03 -4.859247072e-03
3.250000000 -2.477526519e-03 -5.259105852e-03 -9.247398603e-01  2.803404687e-01 -9.247398603e-01  2.803404687e-01 -2.477526519e-03 -5.259105852e-03
3.275000000 -2.743333823e-03 -5.645173153e-03 -9.170019838e-01  3.046863088e-01 -9.170019838e-01  3.046863088e-01 -2.743333823e-03 -5.645173153e-03
3.300000000 -3.029173274e-03 -6.016397478e-03 -9.086231144e-01  3.288191380e-01 -9.086231144e-01  3.288191380e-01 -3.029173274e-03 -6.016397478e-03
3.325000000 -3.334198737e-03 -6.371735945e-03 -8.996091129e-01  3.527220748e-01 -8.996091129e-01  3.527220748e-01 -3.334198737e-03 -6.371735945e-03
3.350000000 -3.657675971e-03 -6.710147380e-03 -8.899662752e-01  3.763784134e-01 -8.899662752e-01  3.763784134e-01 -3.657675971e-03 -6.710147380e-03
3.375000000 -3.998643284e-03 -7.030679230e-03 -8.797013460e-01  3.997716057e-01 -8.797013460e-01  3.997716057e-01 -3.998643284e-03 -7.030679230e-03
3.400000000 -4.356186203e-03 -7.332350729e-03 -8.688215203e-01  4.228852535e-01 -8.688215203e-01  4.228852535e-01 -4.356186203e-03 -7.332350729e-03
3.425000000 -4.729300043e-03 -7.614288718e-03 -8.573344097e-01  4.457031918e-01 -8.573344097e-01  4.457031918e-01 -4.729300043e-03 -7.614288718e-03
3.450000000 -5.116795215e-03 -7.875726080e-03 -8.452480652e-01  4.682094420e-01 -8.452480652e-01  4.682094420e-01 -5.116795215e-03 -7.875726080e-03
3.475000000 -5.517611793e-03 -8.115872629e-03 -8.325709573e-01  4.903882425e-01 -8.325709573e-01  4.903882425e-01 -5.517611793e-03 -8.115872629e-03
3.500000000 -5.930449400e-03 -8.334194753e-03 -8.193119273e-01  5.122241422e-01 -8.193119273e-01  5.122241422e-01 -5.930449400e-03 -8.334194753e-03
3.525000000 -6.354121799e-03 -8.530039263e-03 -8.054802947e-01  5.337018064e-01 -8.054802947e-01  5.337018064e-01 -6.354121799e-03 -8.530039263e-03
3.550000000 -6.787399867e-03 -8.702962482e-03 -7.910856801e-01  5.548063087e-01 -7.910856801e-01  5.548063087e-01 -6.787399867e-03 -8.702962482e-03
3.575000000 -7.229047699e-03 -8.852500060e-03 -7.761381593e-01  5.755228832e-01 -7.761381593e-01  5.755228832e-01 -7.229047699e-03 -8.852500060e-03
3.600000000 -7.677830542e-03 -8.978235826e-03 -7.606481716e-01  5.958370672e-01 -7.606481716e-01  5.958370672e-01 -7.677830542e-03 -8.978235826e-03
3.625000000 -8.132605893e-03 -9.079758570e-03 -7.446265406e-01  6.157346676e-01 -7.446265406e-01  6.157346676e-01 -8.132605893e-03 -9.079758570e-03
3.650000000 -8.591940374e-03 -9.156862351e-03 -7.280844835e-01  6.352017650e-01 -7.280844835e-01  6.352017650e-01 -8.591940374e-03 -9.156862351e-03
3.675000000 -9.054823883e-03 -9.209082720e-03 -7.110335841e-01  6.542247293e-01 -7.110335841e-01  6.542247293e-01 -9.054823883e-03 -9.209082720e-03
3.700000000 -9.519616670e-03 -9.236562142e-03 -6.934857511e-01  6.727902954e-01 -6.934857511e-01  6.727902954e-01 -9.519616670e-03 -9.236562142e-03
3.725000000 -9.985270212e-03 -9.238897554e-03 -6.754533385e-01  6.908854024e-01 -6.754533385e-01  6.908854024e-01 -9.985270212e-03 -9.238897554e-03
3.750000000 -1.045019133e-02 -9.216431985e-03 -6.569488758e-01  7.084975023e-01 -6.569488758e-01  7.084975023e-01 -1.045019133e-02 -9.216431985e-03
3.775000000 -1.091312280e-02 -9.169106951e-03 -6.379853955e-01  7.256142067e-01 -6.379853955e-01  7.256142067e-01 -1.091312280e-02 -9.169106951e-03
3.800000000 -1.137270126e-02 -9.097204129e-03 -6.185760704e-01  7.422236445e-01 -6.185760704e-01  7.422236445e-01 -1.137270126e-02 -9.097204129e-03
3.825000000 -1.182760488e-02 -9.000967852e-03 -5.987345047e-01  7.583141877e-01 -5.987345047e-01  7.583141877e-01 -1.182760488e-02 -9.000967852e-03
3.850000000 -1.227656678e-02 -8.880683993e-03 -5.784745283e-01  7.738746322e-01 -5.784745283e-01  7.738746322e-01 -1.227656678e-02 -8.880683993e-03
3.875000000 -1.271838614e-02 -8.736655737e-03 -5.578102893e-01  7.888941179e-01 -5.578102893e-01  7.888941179e-01 -1.271838614e-02 -8.736655737e-03
3.900000000 -1.315177321e-02 -8.569338550e-03 -5.367562239e-01  8.033621590e-01 -5.367562239e-01  8.033621590e-01 -1.315177321e-02 -8.569338550e-03
3.925000000 -1.357563025e-02 -8.379034790e-03 -5.153270476e-01  8.172686448e-01 -5.153270476e-01  8.172686448e-01 -1.357563025e-02 -8.379034790e-03
3.950000000 -1.398867853e-02 -8.166393547e-03 -4.935377237e-01  8.306038705e-01 -4.935377237e-01  8.306038705e-01 -1.398867853e-02 -8.166393547e-03
3.975000000 -1.438979697e-02 -7.931918257e-03 -4.714035056e-01  8.433585033e-01 -4.714035056e-01  8.433585033e-01 -1.438979697e-02 -7.931918257e-03
4.000000000 -1.477781188e-02 -7.676347096e-03 -4.489398379e-01  8.555236469e-01 -4.489398379e-01  8.555236469e-01 -1.477781188e-02 -7.676347096e-03
4.025000000 -1.515163532e-02 -7.400353415e-03 -4.261624791e-01  8.670907715e-01 -4.261624791e-01  8.670907715e-01 -1.515163532e-02 -7.400353415e-03
4.050000000 -1.551014990e-02 -7.104888382e-03 -4.030872720e-01  8.780518359e-01 -4.030872720e-01  8.780518359e-01 -1.551014990e-02 -7.104888382e-03
4.075000000 -1.585233531e-02 -6.790846034e-03 -3.797303291e-01  8.883991846e-01 -3.797303291e-01  8.883991846e-01 -1.585233531e-02 -6.790846034e-03
4.100000000 -1.617723711e-02 -6.459129516e-03 -3.561079680e-01  8.981255858e-01 -3.561079680e-01  8.981255858e-01 -1.617723711e-02 -6.459129516e-03
4.125000000 -1.648396361e-02 -6.110682592e-03 -3.322366379e-01  9.072242604e-01 -3.322366379e-01  9.072242604e-01 -1.648396361e-02 -6.110682592e-03
4.150000000 -1.677166445e-02 -5.746498765e-03 -3.081330093e-01  9.156888453e-01 -3.081330093e-01  9.156888453e-01 -1.677166445e-02 -5.746498765e-03
4.175000000 -1.703955750e-02 -5.367557609e-03 -2.838138951e-01  9.235134255e-01 -2.838138951e-01  9.235134255e-01 -1.703955750e-02 -5.367557609e-03
4.200000000 -1.728692709e-02 -4.974839278e-03 -2.592962753e-01  9.306925248e-01 -2.592962753e-01  9.306925248e-01 -1.728692709e-02 -4.974839278e-03
4.225000000 -1.751304654e-02 -4.569557874e-03 -2.345972651e-01  9.372211195e-01 -2.345972651e-01  9.372211195e-01 -1.751304654e-02 -4.569557874e-03
4.250000000 -1.771732950e-02 -4.152692549e-03 -2.097341314e-01  9.430946311e-01 -2.097341314e-01  9.430946311e-01 -1.771732950e-02 -4.152692549e-03
4.275000000 -1.789918969e-02 -3.725462777e-03 -1.847242578e-01  9.483089410e-01 -1.847242578e-01  9.483089410e-01 -1.789918969e-02 -3.725462777e-03
4.300000000 -1.805810891e-02 -3.289138410e-03 -1.595851196e-01  9.528603942e-01 -1.595851196e-01  9.528603942e-01 -1.805810891e-02 -3.289138410e-03
4.325000000 -1.819363159e-02 -2.845076526e-03 -1.343341859e-01  9.567458122e-01 -1.343341859e-01  9.567458122e-01 -1.819363159e-02 -2.845076526e-03
4.350000000 -1.830539852e-02 -2.394514644e-03 -1.089891860e-01  9.599624500e-01 -1.089891860e-01  9.599624500e-01 -1.830539852e-02 -2.394514644e-03
4.375000000 -1.839311033e-02 -1.938738631e-03 -8.356770222e-02  9.625080575e-01 -8.356770222e-02  9.625080575e-01 -1.839311033e-02 -1.938738631e-03
4.400000000 -1.845653236e-02 -1.479076326e-03 -5.808752592e-02  9.643808301e-01 -5.808752592e-02  9.643808301e-01 -1.845653236e-02 -1.479076326e-03
4.425000000 -1.849551080e-02 -1.016775916e-03 -3.256639835e-02  9.655794387e-01 -3.256639835e-02  9.655794387e-01 -1.849551080e-02 -1.016775916e-03
4.450000000 -1.850994563e-02 -5.530424911e-04 -7.022143461e-03  9.661030181e-01 -7.022143461e-03  9.661030181e-01 -1.850994563e-02 -5.530424911e-04
4.475000000 -1.849981272e-02 -8.925779435e-05  1.852741483e-02  9.659511724e-01  1.852741483e-02  9.659511724e-01 -1.849981272e-02 -8.925779435e-05
4.500000000 -1.846514869e-02  3.734032534e-04  4.406442175e-02  9.651239758e-01  4.406442175e-02  9.651239758e-01 -1.846514869e-02  3.734032534e-04
4.525000000 -1.840605919e-02  8.336828854e-04  6.957102111e-02  9.636219743e-01  6.957102111e-02  9.636219743e-01 -1.840605919e-02  8.336828854e-04
4.550000000 -1.832272819e-02  1.290236229e-03  9.502937719e-02  9.614461854e-01  9.502937719e-02  9.614461854e-01 -1.832272819e-02  1.290236229e-03
4.575000000 -1.821540493e-02  1.741706276e-03  1.204217520e-01  9.585980899e-01  1.204217520e-01  9.585980899e-01 -1.821540493e-02  1.741706276e-03
4.600000000 -1.808441749e-02  2.186817397e-03  1.457303575e-01  9.550796456e-01  1.457303575e-01  9.550796456e-01 -1.808441749e-02  2.186817397e-03
4.625000000 -1.793015024e-02  2.624313982e-03  1.709375484e-01  9.508932673e-01  1.709375484e-01  9.508932673e-01 -1.793015024e-02  2.624313982e-03
4.650000000 -1.775305708e-02  3.052926882e-03  1.960257170e-01  9.460418374e-01  1.960257170e-01  9.460418374e-01 -1.775305708e-02  3.052926882e-03
4.675000000 -1.755365482e-02  3.471474808e-03  2.209773402e-01  9.405287000e-01  2.209773402e-01  9.405287000e-01 -1.755365482e-02  3.471474808e-03
4.700000000 -1.733250310e-02  3.878826598e-03  2.457750006e-01  9.343576562e-01  2.457750006e-01  9.343576562e-01 -1.733250310e-02  3.878826598e-03
4.725000000 -1.709023665e-02  4.273853142e-03  2.704013623e-01  9.275329701e-01  2.704013623e-01  9.275329701e-01 -1.709023665e-02  4.273853142e-03
4.750000000 -1.682755145e-02  4.655485818e-03  2.948392125e-01  9.200593596e-01  2.948392125e-01  9.200593596e-01 -1.682755145e-02  4.655485818e-03
4.775000000 -1.654515126e-02  5.022772117e-03  3.190714363e-01  9.119420060e-01  3.190714363e-01  9.119420060e-01 -1.654515126e-02  5.022772117e-03
4.800000000 -1.624388718e-02  5.374615194e-03  3.430810868e-01  9.031865315e-01  3.430810868e-01  9.031865315e-01 -1.624388718e-02  5.374615194e-03
4.825000000 -1.592459990e-02  5.710100540e-03  3.668513387e-01  8.937990171e-01  3.668513387e-01  8.937990171e-01 -1.592459990e-02  5.710100540e-03
4.850000000 -1.558823186e-02  6.028217986e-03  3.903655840e-01  8.837859646e-01  3.903655840e-01  8.837859646e-01 -1.558823186e-02  6.028217986e-03
4.875000000 -1.523574126e-02  6.328139065e-03  4.136073062e-01  8.731543503e-01  4.136073062e-01  8.731543503e-01 -1.523574126e-02  6.328139065e-03
4.900000000 -1.486813387e-02  6.608984191e-03  4.365603074e-01  8.619115245e-01  4.365603074e-01  8.619115245e-01 -1.486813387e-02  6.608984191e-03
4.925000000 -1.448647151e-02  6.869972905e-03  4.592084591e-01  8.500653249e-01  4.592084591e-01  8.500653249e-01 -1.448647151e-02  6.869972905e-03
4.950000000 -1.409181180e-02  7.110429766e-03  4.815359650e-01  8.376239499e-01  4.815359650e-01  8.376239499e-01 -1.409181180e-02  7.110429766e-03
4.975000000 -1.368525534e-02  7.329671751e-03  5.035271591e-01  8.245960607e-01  5.035271591e-01  8.245960607e-01 -1.368525534e-02  7.329671751e-03
5.000000000 -1.326796546e-02  7.527158427e-03  5.251666550e-01  8.109907015e-01  5.251666550e-01  8.109907015e-01 -1.326796546e-02  7.527158427e-03
5.025000000 -1.284103932e-02  7.702390685e-03  5.464392703e-01  7.968173461e-01  5.464392703e-01  7.968173461e-01 -1.284103932e-02  7.702390685e-03
5.050000000 -1.240575722e-02  7.854878124e-03  5.673301018e-01  7.820858472e-01  5.673301018e-01  7.820858472e-01 -1.240575722e-02  7.854878124e-03
5.075000000 -1.196327298e-02  7.984303015e-03  5.878244499e-01  7.668064963e-01  5.878244499e-01  7.668064963e-01 -1.196327298e-02  7.984303015e-03
5.100000000 -1.151489589e-02  8.090256800e-03  6.079079797e-01  7.509899019e-01  6.079079797e-01  7.509899019e-01 -1.151489589e-02  8.090256800e-03
5.125000000 -1.106187955e-02  8.172530882e-03  6.275665256e-01  7.346471426e-01  6.275665256e-01  7.346471426e-01 -1.106187955e-02  8.172530882e-03
5.150000000 -1.060550518e-02  8.230880665e-03  6.467863503e-01  7.177895596e-01  6.467863503e-01  7.177895596e-01 -1.060550518e-02  8.230880665e-03
5.175000000 -1.014707453e-02  8.265174152e-03  6.655539108e-01  7.004289490e-01  6.655539108e-01  7.004289490e-01 -1.014707453e-02  8.265174152e-03
5.200000000 -9.687853846e-03  8.275355777e-03  6.838560679e-01  6.825773819e-01  6.838560679e-01  6.825773819e-01 -9.687853846e-03  8.275355777e-03
5.225000000 -9.229119188e-03  8.261407205e-03  7.016799577e-01  6.642473176e-01  7.016799577e-01  6.642473176e-01 -9.229119188e-03  8.261407205e-03
5.250000000 -8.772146488e-03  8.223426490e-03  7.190130649e-01  6.454515357e-01  7.190130649e-01  6.454515357e-01 -8.772146488e-03  8.223426490e-03
5.275000000 -8.318161597e-03  8.161528305e-03  7.358432064e-01  6.262031540e-01  7.358432064e-01  6.262031540e-01 -8.318161597e-03  8.161528305e-03
5.300000000 -7.868454947e-03  8.075959274e-03  7.521585501e-01  6.065156064e-01  7.521585501e-01  6.065156064e-01 -7.868454947e-03  8.075959274e-03
5.325000000 -7.424258998e-03  7.967006243e-03  7.679476051e-01  5.864026599e-01  7.679476051e-01  5.864026599e-01 -7.424258998e-03  7.967006243e-03
5.350000000 -6.986811415e-03  7.835009043e-03  7.831992609e-01  5.658783669e-01  7.831992609e-01  5.658783669e-01 -6.986811415e-03  7.835009043e-03
5.375000000 -6.557346866e-03  7.680397592e-03  7.979027660e-01  5.449570937e-01  7.979027660e-01  5.449570937e-01 -6.557346866e-03  7.680397592e-03
5.400000000 -6.137052950e-03  7.503648492e-03  8.120477609e-01  5.236534789e-01  8.120477609e-01  5.236534789e-01 -6.137052950e-03  7.503648492e-03
5.425000000 -5.727101454e-03  7.305290591e-03  8.256242912e-01  5.019824107e-01  8.256242912e-01  5.019824107e-01 -5.727101454e-03  7.305290591e-03
5.450000000 -5.328622799e-03  7.085933233e-03  8.386227745e-01  4.799590790e-01  8.386227745e-01  4.799590790e-01 -5.328622799e-03  7.085933233e-03
5.475000000 -4.942694955e-03  6.846210347e-03  8.510340801e-01  4.575988448e-01  8.510340801e-01  4.575988448e-01 -4.942694955e-03  6.846210347e-03
5.500000000 -4.570369297e-03  6.586832311e-03  8.628494433e-01  4.349173833e-01  8.628494433e-01  4.349173833e-01 -4.570369297e-03  6.586832311e-03
5.525000000 -4.212637407e-03  6.308533036e-03  8.740605440e-01  4.119305480e-01  8.740605440e-01  4.119305480e-01 -4.212637407e-03  6.308533036e-03
5.550000000 -3.870466804e-03  6.012125307e-03  8.846594766e-01  3.886544223e-01  8.846594766e-01  3.886544223e-01 -3.870466804e-03  6.012125307e-03
5.575000000 -3.544803277e-03  5.698518139e-03  8.946387574e-01  3.651053078e-01  8.946387574e-01  3.651053078e-01 -3.544803277e-03  5.698518139e-03
5.600000000 -3.236512996e-03  5.368568846e-03  9.039913324e-01  3.412997154e-01  9.039913324e-01  3.412997154e-01 -3.236512996e-03  5.368568846e-03
5.625000000 -2.946446638e-03  5.023303700e-03  9.127105979e-01  3.172543124e-01  9.127105979e-01  3.172543124e-01 -2.946446638e-03  5.023303700e-03
5.650000000 -2.675401578e-03  4.663717894e-03  9.207903661e-01  2.929860223e-01  9.207903661e-01  2.929860223e-01 -2.675401578e-03  4.663717894e-03
5.675000000 -2.424081529e-03  4.290863390e-03  9.282249494e-01  2.685117827e-01  9.282249494e-01  2.685117827e-01 -2.424081529e-03  4.290863390e-03
5.700000000 -2.193168480e-03  3.905859956e-03  9.350090553e-01  2.438488671e-01  9.350090553e-01  2.438488671e-01 -2.193168480e-03  3.905859956e-03
5.725000000 -1.983244762e-03  3.509784098e-03  9.411379139e-01  2.190144609e-01  9.411379139e-01  2.190144609e-01 -1.983244762e-03  3.509784098e-03
5.750000000 -1.794838405e-03  3.103791134e-03  9.466071695e-01  1.940260411e-01  9.466071695e-01  1.940260411e-01 -1.794838405e-03  3.103791134e-03
5.775000000 -1.628410981e-03  2.689021039e-03  9.514129520e-01  1.689011089e-01  9.514129520e-01  1.689011089e-01 -1.628410981e-03  2.689021039e-03
5.800000000 -1.484375257e-03  2.266622777e-03  9.555518553e-01  1.436572614e-01  9.555518553e-01  1.436572614e-01 -1.484375257e-03  2.266622777e-03
5.825000000 -1.363101435e-03  1.837848389e-03  9.590209366e-01  1.183122032e-01  9.590209366e-01  1.183122032e-01 -1.363101435e-03  1.837848389e-03
5.850000000 -1.264894705e-03  1.403861158e-03  9.618177230e-01  9.288371858e-02  9.618177230e-01  9.288371858e-02 -1.264894705e-03  1.403861158e-03
5.875000000 -1.189976017e-03  9.659477577e-04  9.639402153e-01  6.738965121e-02  9.639402153e-01  6.738965121e-02 -1.189976017e-03  9.659477577e-04
5.900000000 -1.138547066e-03  5.253616483e-04  9.653868868e-01  4.184792950e-02  9.653868868e-01  4.184792950e-02 -1.138547066e-03  5.253616483e-04
5.925000000 -1.110682613e-03  8.337094844e-05  9.661566923e-01  1.627646564e-02  9.661566923e-01  1.627646564e-02 -1.110682613e-03  8.337094845e-05
5.950000000 -1.106404690e-03 -3.587308670e-04  9.662490620e-01 -9.306743172e-03  9.662490620e-01 -9.306743172e-03 -1.106404690e-03 -3.587308670e-04
5.975000000 -1.125662989e-03 -7.996918645e-04  9.656639063e-01 -3.488375155e-02  9.656639063e-01 -3.488375155e-02 -1.125662989e-03 -7.996918645e-04
6.000000000 -1.168315057e-03 -1.238266792e-03  9.644016117e-01 -6.043661827e-02  9.644016117e-01 -6.043661827e-02 -1.168315057e-03 -1.238266792e-03
6.025000000 -1.234138311e-03 -1.673220163e-03  9.624630461e-01 -8.594735486e-02  9.624630461e-01 -8.594735486e-02 -1.234138311e-03 -1.673220163e-03
6.050000000 -1.322905137e-03 -2.103362337e-03  9.598495440e-01 -1.113981234e-01  9.598495440e-01 -1.113981234e-01 -1.322905137e-03 -2.103362337e-03
6.075000000 -1.434290757e-03 -2.527497409e-03  9.565629195e-01 -1.367710477e-01  9.565629195e-01 -1.367710477e-01 -1.434290757e-03 -2.527497409e-03
6.100000000 -1.567966806e-03 -2.944428455e-03  9.526054560e-01 -1.620483331e-01  9.526054560e-01 -1.620483331e-01 -1.567966806e-03 -2.944428455e-03
6.125000000 -1.723508092e-03 -3.353024097e-03  9.479799117e-01 -1.872122329e-01  9.479799117e-01 -1.872122329e-01 -1.723508092e-03 -3.353024097e-03
6.150000000 -1.900436790e-03 -3.752071363e-03  9.426895182e-01 -2.122450663e-01  9.426895182e-01 -2.122450663e-01 -1.900436790e-03 -3.752071363e-03
6.175000000 -2.098269208e-03 -4.140469564e-03  9.367379766e-01 -2.371292411e-01  9.367379766e-01 -2.371292411e-01 -2.098269208e-03 -4.140469564e-03
6.200000000 -2.316309885e-03 -4.517091618e-03  9.301294524e-01 -2.618472902e-01  9.301294524e-01 -2.618472902e-01 -2.316309885e-03 -4.517091618e-03
6.225000000 -2.553960415e-03 -4.880849717e-03  9.228685939e-01 -2.863817879e-01  9.228685939e-01 -2.863817879e-01 -2.553960415e-03 -4.880849717e-03
6.250000000 -2.810402140e-03 -5.230771056e-03  9.149604694e-01 -3.107155872e-01  9.149604694e-01 -3.107155872e-01 -2.810402140e-03 -5.230771056e-03
6.275000000 -3.084822059e-03 -5.565860764e-03  9.064106596e-01 -3.348315006e-01  9.064106596e-01 -3.348315006e-01 -3.084822059e-03 -5.565860764e-03
6.300000000 -3.376423704e-03 -5.885225430e-03  8.972251204e-01 -3.587127140e-01  8.972251204e-01 -3.587127140e-01 -3.376423704e-03 -5.885225430e-03
6.325000000 -3.684211356e-03 -6.188067657e-03  8.874103199e-01 -3.823424020e-01  8.874103199e-01 -3.823424020e-01 -3.684211356e-03 -6.188067657e-03
6.350000000 -4.007380514e-03 -6.473484492e-03  8.769731143e-01 -4.057040410e-01  8.769731143e-01 -4.057040410e-01 -4.007380514e-03 -6.473484492e-03
6.375000000 -4.344953250e-03 -6.740809076e-03  8.659208197e-01 -4.287812402e-01  8.659208197e-01 -4.287812402e-01 -4.344953250e-03 -6.740809076e-03
6.400000000 -4.695943707e-03 -6.989212942e-03  8.542611890e-01 -4.515577970e-01  8.542611890e-01 -4.515577970e-01 -4.695943707e-03 -6.989212942e-03
6.425000000 -5.059440597e-03 -7.218030161e-03  8.420023982e-01 -4.740177245e-01  8.420023982e-01 -4.740177245e-01 -5.059440597e-03 -7.218030161e-03
6.450000000 -5.434273844e-03 -7.426623635e-03  8.291530464e-01 -4.961452623e-01  8.291530464e-01 -4.961452623e-01 -5.434273844e-03 -7.426623635e-03
6.475000000 -5.819438936e-03 -7.614365206e-03  8.157221752e-01 -5.179248335e-01  8.157221752e-01 -5.179248335e-01 -5.819438936e-03 -7.614365206e-03
6.500000000 -6.213724048e-03 -7.780796616e-03  8.017191879e-01 -5.393411916e-01  8.017191879e-01 -5.393411916e-01 -6.213724048e-03 -7.780796616e-03
6.525000000 -6.615957259e-03 -7.925442546e-03  7.871539710e-01 -5.603792212e-01  7.871539710e-01 -5.603792212e-01 -6.615957259e-03 -7.925442546e-03
6.550000000 -7.024935070e-03 -8.047989282e-03  7.720366880e-01 -5.810242486e-01  7.720366880e-01 -5.810242486e-01 -7.024935070e-03 -8.047989282e-03
6.575000000 -7.439394944e-03 -8.148193680e-03  7.563779644e-01 -6.012617670e-01  7.563779644e-01 -6.012617670e-01 -7.439394944e-03 -8.148193680e-03
6.600000000 -7.858162598e-03 -8.225798029e-03  7.401887723e-01 -6.210775972e-01  7.401887723e-01 -6.210775972e-01 -7.858162598e-03 -8.225798029e-03
6.625000000 -8.280040022e-03 -8.280665547e-03  7.234804417e-01 -6.404578700e-01  7.234804417e-01 -6.404578700e-01 -8.280040022e-03 -8.280665547e-03
6.650000000 -8.703811862e-03 -8.312675434e-03  7.062646901e-01 -6.593889911e-01  7.062646901e-01 -6.593889911e-01 -8.703811862e-03 -8.312675434e-03
6.675000000 -9.128339910e-03 -8.321705086e-03  6.885535800e-01 -6.778576905e-01  6.885535800e-01 -6.778576905e-01 -9.128339910e-03 -8.321705086e-03
6.700000000 -9.552410449e-03 -8.307761651e-03  6.703595285e-01 -6.958510162e-01  6.703595285e-01 -6.958510162e-01 -9.552410449e-03 -8.307761651e-03
6.725000000 -9.974807075e-03 -8.270856178e-03  6.516953181e-01 -7.133563248e-01  6.516953181e-01 -7.133563248e-01 -9.974807075e-03 -8.270856178e-03
6.750000000 -1.039436151e-02 -8.211078041e-03  6.325740478e-01 -7.303613308e-01  6.325740478e-01 -7.303613308e-01 -1.039436151e-02 -8.211078041e-03
6.775000000 -1.080976328e-02 -8.128704771e-03  6.130091327e-01 -7.468541085e-01  6.130091327e-01 -7.468541085e-01 -1.080976328e-02 -8.128704771e-03
6.800000000 -1.121984597e-02 -8.023955835e-03  5.930143429e-01 -7.628230555e-01  5.930143429e-01 -7.628230555e-01 -1.121984597e-02 -8.023955835e-03
6.825000000 -1.162336923e-02 -7.897278315e-03  5.726036364e-01 -7.782570302e-01  5.726036364e-01 -7.782570302e-01 -1.162336923e-02 -7.897278315e-03
6.850000000 -1.201911925e-02 -7.749142951e-03  5.517913891e-01 -7.931451671e-01  5.517913891e-01 -7.931451671e-01 -1.201911925e-02 -7.749142951e-03
6.875000000 -1.240604482e-02 -7.579952366e-03  5.305921021e-01 -8.074770930e-01  5.305921021e-01 -8.074770930e-01 -1.240604482e-02 -7.579952366e-03
6.900000000 -1.278296017e-02 -7.390402544e-03  5.090206491e-01 -8.212427506e-01  5.090206491e-01 -8.212427506e-01 -1.278296017e-02 -7.390402544e-03
6.925000000 -1.314890529e-02 -7.180870768e-03  4.870921232e-01 -8.344325008e-01  4.870921232e-01 -8.344325008e-01 -1.314890529e-02 -7.180870768e-03
6.950000000 -1.350286836e-02 -6.952032759e-03  4.648218476e-01 -8.470371163e-01  4.648218476e-01 -8.470371163e-01 -1.350286836e-02 -6.952032759e-03
6.975000000 -1.384381940e-02 -6.704520035e-03  4.422254652e-01 -8.590477326e-01  4.422254652e-01 -8.590477326e-01 -1.384381940e-02 -6.704520035e-03
7.000000000 -1.417088780e-02 -6.438930286e-03  4.193187951e-01 -8.704559278e-01  4.193187951e-01 -8.704559278e-01 -1.417088780e-02 -6.438930286e-03
