! yapnr rf: line-osh-m-w0p70-l10-m-eq-em528, footprint re-simulated (optimization grid)
! spec sha256 95115260e7bca0ab75954ed12e368a36f645f1f0d777a890ce1507a124cb5f00
! 2 ports renormalized to 50 ohm, e^(+jwt) convention
# GHz S RI R 50
3.000000000 -3.034227293e-01 -1.474118037e-01  4.092974532e-01 -8.343642668e-01  4.092974532e-01 -8.343642668e-01 -3.034227293e-01 -1.474118037e-01
3.025000000 -3.059314669e-01 -1.454318672e-01  4.018679492e-01 -8.374120337e-01  4.018679492e-01 -8.374120337e-01 -3.059314669e-01 -1.454318672e-01
3.050000000 -3.084030711e-01 -1.434110507e-01  3.944270137e-01 -8.403967901e-01  3.944270137e-01 -8.403967901e-01 -3.084030711e-01 -1.434110507e-01
3.075000000 -3.108369014e-01 -1.413501761e-01  3.869750525e-01 -8.433188672e-01  3.869750525e-01 -8.433188672e-01 -3.108369014e-01 -1.413501761e-01
3.100000000 -3.132325389e-01 -1.392495184e-01  3.795126156e-01 -8.461784176e-01  3.795126156e-01 -8.461784176e-01 -3.132325389e-01 -1.392495184e-01
3.125000000 -3.155892714e-01 -1.371101913e-01  3.720399855e-01 -8.489758698e-01  3.720399855e-01 -8.489758698e-01 -3.155892714e-01 -1.371101913e-01
3.150000000 -3.179066580e-01 -1.349324920e-01  3.645577689e-01 -8.517113599e-01  3.645577689e-01 -8.517113599e-01 -3.179066580e-01 -1.349324920e-01
3.175000000 -3.201840641e-01 -1.327175117e-01  3.570661625e-01 -8.543853200e-01  3.570661625e-01 -8.543853200e-01 -3.201840641e-01 -1.327175117e-01
3.200000000 -3.224209559e-01 -1.304658632e-01  3.495656844e-01 -8.569979732e-01  3.495656844e-01 -8.569979732e-01 -3.224209559e-01 -1.304658632e-01
3.225000000 -3.246168249e-01 -1.281784019e-01  3.420565609e-01 -8.595496717e-01  3.420565609e-01 -8.595496717e-01 -3.246168249e-01 -1.281784019e-01
3.250000000 -3.267711296e-01 -1.258559438e-01  3.345391639e-01 -8.620407081e-01  3.345391639e-01 -8.620407081e-01 -3.267711296e-01 -1.258559438e-01
3.275000000 -3.288834194e-01 -1.234992002e-01  3.270137867e-01 -8.644713679e-01  3.270137867e-01 -8.644713679e-01 -3.288834194e-01 -1.234992002e-01
3.300000000 -3.309532339e-01 -1.211089065e-01  3.194807447e-01 -8.668419277e-01  3.194807447e-01 -8.668419277e-01 -3.309532339e-01 -1.211089065e-01
3.325000000 -3.329801208e-01 -1.186858000e-01  3.119403461e-01 -8.691526604e-01  3.119403461e-01 -8.691526604e-01 -3.329801208e-01 -1.186858000e-01
3.350000000 -3.349636789e-01 -1.162304880e-01  3.043929381e-01 -8.714037980e-01  3.043929381e-01 -8.714037980e-01 -3.349636789e-01 -1.162304880e-01
3.375000000 -3.369034643e-01 -1.137437472e-01  2.968388075e-01 -8.735956147e-01  2.968388075e-01 -8.735956147e-01 -3.369034643e-01 -1.137437472e-01
3.400000000 -3.387990631e-01 -1.112262579e-01  2.892782976e-01 -8.757283467e-01  2.892782976e-01 -8.757283467e-01 -3.387990631e-01 -1.112262579e-01
3.425000000 -3.406500659e-01 -1.086787606e-01  2.817116960e-01 -8.778022492e-01  2.817116960e-01 -8.778022492e-01 -3.406500659e-01 -1.086787606e-01
3.450000000 -3.424560382e-01 -1.061021199e-01  2.741392543e-01 -8.798175990e-01  2.741392543e-01 -8.798175990e-01 -3.424560382e-01 -1.061021199e-01
3.475000000 -3.442165965e-01 -1.034970561e-01  2.665612760e-01 -8.817746293e-01  2.665612760e-01 -8.817746293e-01 -3.442165965e-01 -1.034970561e-01
3.500000000 -3.459313502e-01 -1.008644570e-01  2.589779120e-01 -8.836736279e-01  2.589779120e-01 -8.836736279e-01 -3.459313502e-01 -1.008644570e-01
3.525000000 -3.475999044e-01 -9.820514228e-02  2.513894737e-01 -8.855148238e-01  2.513894737e-01 -8.855148238e-01 -3.475999044e-01 -9.820514228e-02
3.550000000 -3.492219416e-01 -9.551985240e-02  2.437961043e-01 -8.872984675e-01  2.437961043e-01 -8.872984675e-01 -3.492219416e-01 -9.551985240e-02
3.575000000 -3.507971078e-01 -9.280940273e-02  2.361980440e-01 -8.890247882e-01  2.361980440e-01 -8.890247882e-01 -3.507971078e-01 -9.280940273e-02
3.600000000 -3.523250995e-01 -9.007449142e-02  2.285954987e-01 -8.906940018e-01  2.285954987e-01 -8.906940018e-01 -3.523250995e-01 -9.007449142e-02
3.625000000 -3.538056106e-01 -8.731583738e-02  2.209887172e-01 -8.923063094e-01  2.209887172e-01 -8.923063094e-01 -3.538056106e-01 -8.731583738e-02
3.650000000 -3.552383230e-01 -8.453427074e-02  2.133778675e-01 -8.938619383e-01  2.133778675e-01 -8.938619383e-01 -3.552383230e-01 -8.453427074e-02
3.675000000 -3.566229763e-01 -8.173036392e-02  2.057632733e-01 -8.953610452e-01  2.057632733e-01 -8.953610452e-01 -3.566229763e-01 -8.173036392e-02
3.700000000 -3.579592466e-01 -7.890512789e-02  1.981449835e-01 -8.968038864e-01  1.981449835e-01 -8.968038864e-01 -3.579592466e-01 -7.890512789e-02
3.725000000 -3.592468800e-01 -7.605915438e-02  1.905233781e-01 -8.981905977e-01  1.905233781e-01 -8.981905977e-01 -3.592468800e-01 -7.605915438e-02
3.750000000 -3.604855967e-01 -7.319342237e-02  1.828984337e-01 -8.995214261e-01  1.828984337e-01 -8.995214261e-01 -3.604855967e-01 -7.319342237e-02
3.775000000 -3.616751308e-01 -7.030872795e-02  1.752704472e-01 -9.007965283e-01  1.752704472e-01 -9.007965283e-01 -3.616751308e-01 -7.030872795e-02
3.800000000 -3.628152607e-01 -6.740585167e-02  1.676394631e-01 -9.020160986e-01  1.676394631e-01 -9.020160986e-01 -3.628152607e-01 -6.740585167e-02
3.825000000 -3.639057382e-01 -6.448568026e-02  1.600056688e-01 -9.031803047e-01  1.600056688e-01 -9.031803047e-01 -3.639057382e-01 -6.448568026e-02
3.850000000 -3.649463663e-01 -6.154892442e-02  1.523691808e-01 -9.042893041e-01  1.523691808e-01 -9.042893041e-01 -3.649463663e-01 -6.154892442e-02
3.875000000 -3.659369386e-01 -5.859637023e-02  1.447301647e-01 -9.053432438e-01  1.447301647e-01 -9.053432438e-01 -3.659369386e-01 -5.859637023e-02
3.900000000 -3.668772614e-01 -5.562880023e-02  1.370887425e-01 -9.063422704e-01  1.370887425e-01 -9.063422704e-01 -3.668772614e-01 -5.562880023e-02
3.925000000 -3.677671598e-01 -5.264690471e-02  1.294451159e-01 -9.072865047e-01  1.294451159e-01 -9.072865047e-01 -3.677671598e-01 -5.264690471e-02
3.950000000 -3.686064512e-01 -4.965152986e-02  1.217993781e-01 -9.081760866e-01  1.217993781e-01 -9.081760866e-01 -3.686064512e-01 -4.965152986e-02
3.975000000 -3.693949727e-01 -4.664342517e-02  1.141517140e-01 -9.090111288e-01  1.141517140e-01 -9.090111288e-01 -3.693949727e-01 -4.664342517e-02
4.000000000 -3.701325657e-01 -4.362341726e-02  1.065022175e-01 -9.097917533e-01  1.065022175e-01 -9.097917533e-01 -3.701325657e-01 -4.362341726e-02
4.025000000 -3.708190810e-01 -4.059232644e-02  9.885107973e-02 -9.105180609e-01  9.885107973e-02 -9.105180609e-01 -3.708190810e-01 -4.059232644e-02
4.050000000 -3.714543829e-01 -3.755099598e-02  9.119832597e-02 -9.111901649e-01  9.119832597e-02 -9.111901649e-01 -3.714543829e-01 -3.755099598e-02
4.075000000 -3.720383442e-01 -3.450026519e-02  8.354406180e-02 -9.118081594e-01  8.354406180e-02 -9.118081594e-01 -3.720383442e-01 -3.450026519e-02
4.100000000 -3.725708514e-01 -3.144094601e-02  7.588840681e-02 -9.123721269e-01  7.588840681e-02 -9.123721269e-01 -3.725708514e-01 -3.144094601e-02
4.125000000 -3.730518041e-01 -2.837380314e-02  6.823144031e-02 -9.128821449e-01  6.823144031e-02 -9.128821449e-01 -3.730518041e-01 -2.837380314e-02
4.150000000 -3.734811066e-01 -2.529965903e-02  6.057327663e-02 -9.133382809e-01  6.057327663e-02 -9.133382809e-01 -3.734811066e-01 -2.529965903e-02
4.175000000 -3.738586803e-01 -2.221924466e-02  5.291402049e-02 -9.137405924e-01  5.291402049e-02 -9.137405924e-01 -3.738586803e-01 -2.221924466e-02
4.200000000 -3.741844501e-01 -1.913333571e-02  4.525380538e-02 -9.140891301e-01  4.525380538e-02 -9.140891301e-01 -3.741844501e-01 -1.913333571e-02
4.225000000 -3.744583533e-01 -1.604275350e-02  3.759270036e-02 -9.143839397e-01  3.759270036e-02 -9.143839397e-01 -3.744583533e-01 -1.604275350e-02
4.250000000 -3.746803375e-01 -1.294823820e-02  2.993086793e-02 -9.146250539e-01  2.993086793e-02 -9.146250539e-01 -3.746803375e-01 -1.294823820e-02
4.275000000 -3.748503602e-01 -9.850620720e-03  2.226841378e-02 -9.148125013e-01  2.226841378e-02 -9.148125013e-01 -3.748503602e-01 -9.850620720e-03
4.300000000 -3.749683892e-01 -6.750748402e-03  1.460543206e-02 -9.149463026e-01  1.460543206e-02 -9.149463026e-01 -3.749683892e-01 -6.750748402e-03
4.325000000 -3.750343977e-01 -3.649433626e-03  6.941929710e-03 -9.150264730e-01  6.941929710e-03 -9.150264730e-01 -3.750343977e-01 -3.649433626e-03
4.350000000 -3.750483786e-01 -5.475647107e-04 -7.219128890e-04 -9.150530118e-01 -7.219128890e-04 -9.150530118e-01 -3.750483786e-01 -5.475647107e-04
4.375000000 -3.750103247e-01  2.554148180e-03 -8.386088979e-03 -9.150259156e-01 -8.386088979e-03 -9.150259156e-01 -3.750103247e-01  2.554148180e-03
4.400000000 -3.749202426e-01  5.654792109e-03 -1.605046915e-02 -9.149451701e-01 -1.605046915e-02 -9.149451701e-01 -3.749202426e-01  5.654792109e-03
4.425000000 -3.747781499e-01  8.753673587e-03 -2.371498936e-02 -9.148107515e-01 -2.371498936e-02 -9.148107515e-01 -3.747781499e-01  8.753673587e-03
4.450000000 -3.745840664e-01  1.184998456e-02 -3.137951328e-02 -9.146226327e-01 -3.137951328e-02 -9.146226327e-01 -3.745840664e-01  1.184998456e-02
4.475000000 -3.743380330e-01  1.494293381e-02 -3.904397815e-02 -9.143807715e-01 -3.904397815e-02 -9.143807715e-01 -3.743380330e-01  1.494293381e-02
4.500000000 -3.740400919e-01  1.803176304e-02 -4.670823740e-02 -9.140851244e-01 -4.670823740e-02 -9.140851244e-01 -3.740400919e-01  1.803176304e-02
4.525000000 -3.736903010e-01  2.111568545e-02 -5.437216208e-02 -9.137356383e-01 -5.437216208e-02 -9.137356383e-01 -3.736903010e-01  2.111568545e-02
4.550000000 -3.732887326e-01  2.419386549e-02 -6.203564657e-02 -9.133322491e-01 -6.203564657e-02 -9.133322491e-01 -3.732887326e-01  2.419386549e-02
4.575000000 -3.728354596e-01  2.726548869e-02 -6.969863760e-02 -9.128748840e-01 -6.969863760e-02 -9.128748840e-01 -3.728354596e-01  2.726548869e-02
4.600000000 -3.723305780e-01  3.032970306e-02 -7.736099043e-02 -9.123634636e-01 -7.736099043e-02 -9.123634636e-01 -3.723305780e-01  3.032970306e-02
4.625000000 -3.717741802e-01  3.338572753e-02 -8.502262576e-02 -9.117979004e-01 -8.502262576e-02 -9.117979004e-01 -3.717741802e-01  3.338572753e-02
4.650000000 -3.711663734e-01  3.643271584e-02 -9.268344311e-02 -9.111780978e-01 -9.268344311e-02 -9.111780978e-01 -3.711663734e-01  3.643271584e-02
4.675000000 -3.705072736e-01  3.946988430e-02 -1.003433322e-01 -9.105039527e-01 -1.003433322e-01 -9.105039527e-01 -3.705072736e-01  3.946988430e-02
4.700000000 -3.697969995e-01  4.249645829e-02 -1.080021804e-01 -9.097753568e-01 -1.080021804e-01 -9.097753568e-01 -3.697969995e-01  4.249645829e-02
4.725000000 -3.690356876e-01  4.551163656e-02 -1.156598638e-01 -9.089921919e-01 -1.156598638e-01 -9.089921919e-01 -3.690356876e-01  4.551163656e-02
4.750000000 -3.682234836e-01  4.851465788e-02 -1.233162588e-01 -9.081543321e-01 -1.233162588e-01 -9.081543321e-01 -3.682234836e-01  4.851465788e-02
4.775000000 -3.673605373e-01  5.150475695e-02 -1.309711784e-01 -9.072616562e-01 -1.309711784e-01 -9.072616562e-01 -3.673605373e-01  5.150475695e-02
4.800000000 -3.664470279e-01  5.448111266e-02 -1.386245227e-01 -9.063140139e-01 -1.386245227e-01 -9.063140139e-01 -3.664470279e-01  5.448111266e-02
4.825000000 -3.654831352e-01  5.744294321e-02 -1.462761115e-01 -9.053112644e-01 -1.462761115e-01 -9.053112644e-01 -3.654831352e-01  5.744294321e-02
4.850000000 -3.644690523e-01  6.038941496e-02 -1.539258507e-01 -9.042532416e-01 -1.539258507e-01 -9.042532416e-01 -3.644690523e-01  6.038941496e-02
4.875000000 -3.634049938e-01  6.331971394e-02 -1.615735285e-01 -9.031397896e-01 -1.615735285e-01 -9.031397896e-01 -3.634049938e-01  6.331971394e-02
4.900000000 -3.622911555e-01  6.623305652e-02 -1.692190710e-01 -9.019707281e-01 -1.692190710e-01 -9.019707281e-01 -3.622911555e-01  6.623305652e-02
4.925000000 -3.611277796e-01  6.912857166e-02 -1.768622718e-01 -9.007458811e-01 -1.768622718e-01 -9.007458811e-01 -3.611277796e-01  6.912857166e-02
4.950000000 -3.599150748e-01  7.200555864e-02 -1.845030185e-01 -8.994650618e-01 -1.845030185e-01 -8.994650618e-01 -3.599150748e-01  7.200555864e-02
4.975000000 -3.586532882e-01  7.486314647e-02 -1.921411147e-01 -8.981280822e-01 -1.921411147e-01 -8.981280822e-01 -3.586532882e-01  7.486314647e-02
5.000000000 -3.573426686e-01  7.770063508e-02 -1.997764074e-01 -8.967347398e-01 -1.997764074e-01 -8.967347398e-01 -3.573426686e-01  7.770063508e-02
5.025000000 -3.559834627e-01  8.051722824e-02 -2.074086634e-01 -8.952848495e-01 -2.074086634e-01 -8.952848495e-01 -3.559834627e-01  8.051722824e-02
5.050000000 -3.545759626e-01  8.331214679e-02 -2.150377383e-01 -8.937781811e-01 -2.150377383e-01 -8.937781811e-01 -3.545759626e-01  8.331214679e-02
5.075000000 -3.531204471e-01  8.608464036e-02 -2.226633409e-01 -8.922145466e-01 -2.226633409e-01 -8.922145466e-01 -3.531204471e-01  8.608464036e-02
5.100000000 -3.516172207e-01  8.883389207e-02 -2.302853484e-01 -8.905936972e-01 -2.302853484e-01 -8.905936972e-01 -3.516172207e-01  8.883389207e-02
5.125000000 -3.500666142e-01  9.155910697e-02 -2.379034521e-01 -8.889154239e-01 -2.379034521e-01 -8.889154239e-01 -3.500666142e-01  9.155910697e-02
5.150000000 -3.484689322e-01  9.425951250e-02 -2.455175121e-01 -8.871794747e-01 -2.455175121e-01 -8.871794747e-01 -3.484689322e-01  9.425951250e-02
5.175000000 -3.468245350e-01  9.693426049e-02 -2.531272510e-01 -8.853856135e-01 -2.531272510e-01 -8.853856135e-01 -3.468245350e-01  9.693426049e-02
5.200000000 -3.451337462e-01  9.958262456e-02 -2.607324743e-01 -8.835335895e-01 -2.607324743e-01 -8.835335895e-01 -3.451337462e-01  9.958262456e-02
5.225000000 -3.433969246e-01  1.022037830e-01 -2.683329320e-01 -8.816231518e-01 -2.683329320e-01 -8.816231518e-01 -3.433969246e-01  1.022037830e-01
5.250000000 -3.416144314e-01  1.047970017e-01 -2.759283793e-01 -8.796540436e-01 -2.759283793e-01 -8.796540436e-01 -3.416144314e-01  1.047970017e-01
5.275000000 -3.397866274e-01  1.073614959e-01 -2.835185403e-01 -8.776260162e-01 -2.835185403e-01 -8.776260162e-01 -3.397866274e-01  1.073614959e-01
5.300000000 -3.379139096e-01  1.098965402e-01 -2.911031545e-01 -8.755387972e-01 -2.911031545e-01 -8.755387972e-01 -3.379139096e-01  1.098965402e-01
5.325000000 -3.359966764e-01  1.124013851e-01 -2.986819094e-01 -8.733921307e-01 -2.986819094e-01 -8.733921307e-01 -3.359966764e-01  1.124013851e-01
5.350000000 -3.340353439e-01  1.148752666e-01 -3.062545152e-01 -8.711857420e-01 -3.062545152e-01 -8.711857420e-01 -3.340353439e-01  1.148752666e-01
5.375000000 -3.320303570e-01  1.173174189e-01 -3.138206531e-01 -8.689193534e-01 -3.138206531e-01 -8.689193534e-01 -3.320303570e-01  1.173174189e-01
5.400000000 -3.299821589e-01  1.197270869e-01 -3.213799967e-01 -8.665926890e-01 -3.213799967e-01 -8.665926890e-01 -3.299821589e-01  1.197270869e-01
5.425000000 -3.278912115e-01  1.221034908e-01 -3.289322480e-01 -8.642054500e-01 -3.289322480e-01 -8.642054500e-01 -3.278912115e-01  1.221034908e-01
5.450000000 -3.257579951e-01  1.244458650e-01 -3.364770436e-01 -8.617573552e-01 -3.364770436e-01 -8.617573552e-01 -3.257579951e-01  1.244458650e-01
5.475000000 -3.235829664e-01  1.267534816e-01 -3.440140902e-01 -8.592481001e-01 -3.440140902e-01 -8.592481001e-01 -3.235829664e-01  1.267534816e-01
5.500000000 -3.213666311e-01  1.290255621e-01 -3.515430104e-01 -8.566773939e-01 -3.515430104e-01 -8.566773939e-01 -3.213666311e-01  1.290255621e-01
5.525000000 -3.191094714e-01  1.312613737e-01 -3.590634561e-01 -8.540449403e-01 -3.590634561e-01 -8.540449403e-01 -3.191094714e-01  1.312613737e-01
5.550000000 -3.168119890e-01  1.334602103e-01 -3.665750535e-01 -8.513504444e-01 -3.665750535e-01 -8.513504444e-01 -3.168119890e-01  1.334602103e-01
5.575000000 -3.144747213e-01  1.356213760e-01 -3.740774154e-01 -8.485936000e-01 -3.740774154e-01 -8.485936000e-01 -3.144747213e-01  1.356213760e-01
5.600000000 -3.120981840e-01  1.377441419e-01 -3.815701090e-01 -8.457741322e-01 -3.815701090e-01 -8.457741322e-01 -3.120981840e-01  1.377441419e-01
5.625000000 -3.096829622e-01  1.398277935e-01 -3.890527524e-01 -8.428917077e-01 -3.890527524e-01 -8.428917077e-01 -3.096829622e-01  1.398277935e-01
5.650000000 -3.072296238e-01  1.418716296e-01 -3.965248343e-01 -8.399460685e-01 -3.965248343e-01 -8.399460685e-01 -3.072296238e-01  1.418716296e-01
5.675000000 -3.047387520e-01  1.438749267e-01 -4.039860055e-01 -8.369368613e-01 -4.039860055e-01 -8.369368613e-01 -3.047387520e-01  1.438749267e-01
5.700000000 -3.022109887e-01  1.458369497e-01 -4.114357084e-01 -8.338638200e-01 -4.114357084e-01 -8.338638200e-01 -3.022109887e-01  1.458369497e-01
5.725000000 -2.996468997e-01  1.477570330e-01 -4.188735810e-01 -8.307266023e-01 -4.188735810e-01 -8.307266023e-01 -2.996468997e-01  1.477570330e-01
5.750000000 -2.970471418e-01  1.496344341e-01 -4.262990992e-01 -8.275249154e-01 -4.262990992e-01 -8.275249154e-01 -2.970471418e-01  1.496344341e-01
5.775000000 -2.944123365e-01  1.514684633e-01 -4.337117973e-01 -8.242584481e-01 -4.337117973e-01 -8.242584481e-01 -2.944123365e-01  1.514684633e-01
5.800000000 -2.917431063e-01  1.532584483e-01 -4.411111936e-01 -8.209268973e-01 -4.411111936e-01 -8.209268973e-01 -2.917431063e-01  1.532584483e-01
5.825000000 -2.890401196e-01  1.550037584e-01 -4.484967783e-01 -8.175299543e-01 -4.484967783e-01 -8.175299543e-01 -2.890401196e-01  1.550037584e-01
5.850000000 -2.863040234e-01  1.567037177e-01 -4.558680154e-01 -8.140673373e-01 -4.558680154e-01 -8.140673373e-01 -2.863040234e-01  1.567037177e-01
5.875000000 -2.835355280e-01  1.583576834e-01 -4.632243697e-01 -8.105387337e-01 -4.632243697e-01 -8.105387337e-01 -2.835355280e-01  1.583576834e-01
5.900000000 -2.807353363e-01  1.599650210e-01 -4.705652496e-01 -8.069438722e-01 -4.705652496e-01 -8.069438722e-01 -2.807353363e-01  1.599650210e-01
5.925000000 -2.779041741e-01  1.615250861e-01 -4.778901051e-01 -8.032824437e-01 -4.778901051e-01 -8.032824437e-01 -2.779041741e-01  1.615250861e-01
5.950000000 -2.750428045e-01  1.630372383e-01 -4.851983163e-01 -7.995541692e-01 -4.851983163e-01 -7.995541692e-01 -2.750428045e-01  1.630372383e-01
5.975000000 -2.721519707e-01  1.645008556e-01 -4.924893002e-01 -7.957587548e-01 -4.924893002e-01 -7.957587548e-01 -2.721519707e-01  1.645008556e-01
6.000000000 -2.692324368e-01  1.659153129e-01 -4.997624631e-01 -7.918959039e-01 -4.997624631e-01 -7.918959039e-01 -2.692324368e-01  1.659153129e-01
6.025000000 -2.662850063e-01  1.672799637e-01 -5.070171434e-01 -7.879653512e-01 -5.070171434e-01 -7.879653512e-01 -2.662850063e-01  1.672799637e-01
6.050000000 -2.633104225e-01  1.685942388e-01 -5.142527623e-01 -7.839668002e-01 -5.142527623e-01 -7.839668002e-01 -2.633104225e-01  1.685942388e-01
6.075000000 -2.603094886e-01  1.698575378e-01 -5.214686631e-01 -7.798999834e-01 -5.214686631e-01 -7.798999834e-01 -2.603094886e-01  1.698575378e-01
6.100000000 -2.572830000e-01  1.710693148e-01 -5.286641938e-01 -7.757646348e-01 -5.286641938e-01 -7.757646348e-01 -2.572830000e-01  1.710693148e-01
6.125000000 -2.542317677e-01  1.722289817e-01 -5.358386767e-01 -7.715605026e-01 -5.358386767e-01 -7.715605026e-01 -2.542317677e-01  1.722289817e-01
6.150000000 -2.511566577e-01  1.733360250e-01 -5.429914060e-01 -7.672873316e-01 -5.429914060e-01 -7.672873316e-01 -2.511566577e-01  1.733360250e-01
6.175000000 -2.480585020e-01  1.743898947e-01 -5.501216589e-01 -7.629449008e-01 -5.501216589e-01 -7.629449008e-01 -2.480585020e-01  1.743898947e-01
6.200000000 -2.449382118e-01  1.753900694e-01 -5.572287197e-01 -7.585329461e-01 -5.572287197e-01 -7.585329461e-01 -2.449382118e-01  1.753900694e-01
6.225000000 -2.417966860e-01  1.763360347e-01 -5.643117886e-01 -7.540512842e-01 -5.643117886e-01 -7.540512842e-01 -2.417966860e-01  1.763360347e-01
6.250000000 -2.386348123e-01  1.772272774e-01 -5.713701846e-01 -7.494996396e-01 -5.713701846e-01 -7.494996396e-01 -2.386348123e-01  1.772272774e-01
6.275000000 -2.354535608e-01  1.780632822e-01 -5.784030521e-01 -7.448778493e-01 -5.784030521e-01 -7.448778493e-01 -2.354535608e-01  1.780632822e-01
6.300000000 -2.322537938e-01  1.788435973e-01 -5.854097115e-01 -7.401856547e-01 -5.854097115e-01 -7.401856547e-01 -2.322537938e-01  1.788435973e-01
6.325000000 -2.290364818e-01  1.795676814e-01 -5.923893203e-01 -7.354228894e-01 -5.923893203e-01 -7.354228894e-01 -2.290364818e-01  1.795676814e-01
6.350000000 -2.258025443e-01  1.802351613e-01 -5.993411216e-01 -7.305893401e-01 -5.993411216e-01 -7.305893401e-01 -2.258025443e-01  1.802351613e-01
6.375000000 -2.225529002e-01  1.808455208e-01 -6.062643097e-01 -7.256848423e-01 -6.062643097e-01 -7.256848423e-01 -2.225529002e-01  1.808455208e-01
6.400000000 -2.192885685e-01  1.813984095e-01 -6.131580386e-01 -7.207092210e-01 -6.131580386e-01 -7.207092210e-01 -2.192885685e-01  1.813984095e-01
6.425000000 -2.160104822e-01  1.818933883e-01 -6.200214670e-01 -7.156623482e-01 -6.200214670e-01 -7.156623482e-01 -2.160104822e-01  1.818933883e-01
6.450000000 -2.127196947e-01  1.823300950e-01 -6.268537302e-01 -7.105440593e-01 -6.268537302e-01 -7.105440593e-01 -2.127196947e-01  1.823300950e-01
6.475000000 -2.094172265e-01  1.827081623e-01 -6.336539101e-01 -7.053542676e-01 -6.336539101e-01 -7.053542676e-01 -2.094172265e-01  1.827081623e-01
6.500000000 -2.061041115e-01  1.830272305e-01 -6.404211505e-01 -7.000928229e-01 -6.404211505e-01 -7.000928229e-01 -2.061041115e-01  1.830272305e-01
6.525000000 -2.027814505e-01  1.832869654e-01 -6.471544636e-01 -6.947596818e-01 -6.471544636e-01 -6.947596818e-01 -2.027814505e-01  1.832869654e-01
6.550000000 -1.994502522e-01  1.834870387e-01 -6.538530169e-01 -6.893546950e-01 -6.538530169e-01 -6.893546950e-01 -1.994502522e-01  1.834870387e-01
6.575000000 -1.961115957e-01  1.836271199e-01 -6.605158616e-01 -6.838778036e-01 -6.605158616e-01 -6.838778036e-01 -1.961115957e-01  1.836271199e-01
6.600000000 -1.927665432e-01  1.837069335e-01 -6.671420756e-01 -6.783289371e-01 -6.671420756e-01 -6.783289371e-01 -1.927665432e-01  1.837069335e-01
6.625000000 -1.894161363e-01  1.837261804e-01 -6.737307453e-01 -6.727080335e-01 -6.737307453e-01 -6.727080335e-01 -1.894161363e-01  1.837261804e-01
6.650000000 -1.860614702e-01  1.836846149e-01 -6.802809091e-01 -6.670150613e-01 -6.802809091e-01 -6.670150613e-01 -1.860614702e-01  1.836846149e-01
6.675000000 -1.827036277e-01  1.835820126e-01 -6.867916065e-01 -6.612500035e-01 -6.867916065e-01 -6.612500035e-01 -1.827036277e-01  1.835820126e-01
6.700000000 -1.793437127e-01  1.834181492e-01 -6.932618589e-01 -6.554128611e-01 -6.932618589e-01 -6.554128611e-01 -1.793437127e-01  1.834181492e-01
6.725000000 -1.759828907e-01  1.831928728e-01 -6.996906383e-01 -6.495036676e-01 -6.996906383e-01 -6.495036676e-01 -1.759828907e-01  1.831928728e-01
6.750000000 -1.726222872e-01  1.829060032e-01 -7.060769326e-01 -6.435224735e-01 -7.060769326e-01 -6.435224735e-01 -1.726222872e-01  1.829060032e-01
6.775000000 -1.692630880e-01  1.825574141e-01 -7.124197113e-01 -6.374693261e-01 -7.124197113e-01 -6.374693261e-01 -1.692630880e-01  1.825574141e-01
6.800000000 -1.659064742e-01  1.821469900e-01 -7.187179009e-01 -6.313443442e-01 -7.187179009e-01 -6.313443442e-01 -1.659064742e-01  1.821469900e-01
6.825000000 -1.625535765e-01  1.816746070e-01 -7.249705249e-01 -6.251475637e-01 -7.249705249e-01 -6.251475637e-01 -1.625535765e-01  1.816746070e-01
6.850000000 -1.592056071e-01  1.811401866e-01 -7.311764774e-01 -6.188791520e-01 -7.311764774e-01 -6.188791520e-01 -1.592056071e-01  1.811401866e-01
6.875000000 -1.558636795e-01  1.805436562e-01 -7.373347878e-01 -6.125391700e-01 -7.373347878e-01 -6.125391700e-01 -1.558636795e-01  1.805436562e-01
6.900000000 -1.525289560e-01  1.798849193e-01 -7.434443906e-01 -6.061277879e-01 -7.434443906e-01 -6.061277879e-01 -1.525289560e-01  1.798849193e-01
6.925000000 -1.492026438e-01  1.791640246e-01 -7.495042253e-01 -5.996451522e-01 -7.495042253e-01 -5.996451522e-01 -1.492026438e-01  1.791640246e-01
6.950000000 -1.458858354e-01  1.783808599e-01 -7.555132758e-01 -5.930914351e-01 -7.555132758e-01 -5.930914351e-01 -1.458858354e-01  1.783808599e-01
6.975000000 -1.425798413e-01  1.775355800e-01 -7.614703963e-01 -5.864668645e-01 -7.614703963e-01 -5.864668645e-01 -1.425798413e-01  1.775355800e-01
7.000000000 -1.392858051e-01  1.766281697e-01 -7.673745248e-01 -5.797716743e-01 -7.673745248e-01 -5.797716743e-01 -1.392858051e-01  1.766281697e-01
