! yapnr Order 0 O0-D: O0-D A20 M dL9 (line, family M)
! stackup OSHPARK-4L-EM528, nominal parameters; geometry of the OSHPARK-4L-FR408HR design
! model: 2D quasi-static RLGC (Djordjevic-Sarkar, Huray roughness, Wheeler loss); generated by python -m yapnr.rf.coupons expected --stackup OSHPARK-4L-FR408HR --upload D
! reference planes 10 mm from each end; 50 ohm (from the M line's Zc)
# GHz S DB R 50
0.03 -69.017 6.31 -0.0034191 -0.57 -0.0034191 -0.57 -69.017 6.31
0.06 -66.097 -12.77 -0.0049473 -1.12 -0.0049473 -1.12 -66.097 -12.77
0.09 -63.799 -26.38 -0.006192 -1.67 -0.006192 -1.67 -63.799 -26.38
0.12 -61.838 -36.22 -0.0072915 -2.22 -0.0072915 -2.22 -61.838 -36.22
0.15 -60.144 -43.55 -0.0082996 -2.77 -0.0082996 -2.77 -60.144 -43.55
0.18 -58.669 -49.23 -0.0092436 -3.32 -0.0092436 -3.32 -58.669 -49.23
0.21 -57.372 -53.76 -0.01014 -3.86 -0.01014 -3.86 -57.372 -53.76
0.24 -56.22 -57.50 -0.010999 -4.41 -0.010999 -4.41 -56.22 -57.50
0.27 -55.188 -60.65 -0.011828 -4.96 -0.011828 -4.96 -55.188 -60.65
0.3 -54.255 -63.37 -0.012632 -5.51 -0.012632 -5.51 -54.255 -63.37
0.33 -53.405 -65.76 -0.013415 -6.05 -0.013415 -6.05 -53.405 -65.76
0.36 -52.626 -67.88 -0.01418 -6.60 -0.01418 -6.60 -52.626 -67.88
0.39 -51.907 -69.80 -0.014929 -7.15 -0.014929 -7.15 -51.907 -69.80
0.42 -51.241 -71.55 -0.015665 -7.69 -0.015665 -7.69 -51.241 -71.55
0.45 -50.62 -73.16 -0.016389 -8.24 -0.016389 -8.24 -50.62 -73.16
0.48 -50.04 -74.66 -0.017102 -8.78 -0.017102 -8.78 -50.04 -74.66
0.51 -49.495 -76.06 -0.017806 -9.33 -0.017806 -9.33 -49.495 -76.06
0.54 -48.982 -77.38 -0.018501 -9.88 -0.018501 -9.88 -48.982 -77.38
0.57 -48.497 -78.63 -0.019187 -10.42 -0.019187 -10.42 -48.497 -78.63
0.6 -48.039 -79.82 -0.019867 -10.97 -0.019867 -10.97 -48.039 -79.82
0.63 -47.603 -80.95 -0.02054 -11.51 -0.02054 -11.51 -47.603 -80.95
0.66 -47.188 -82.04 -0.021207 -12.06 -0.021207 -12.06 -47.188 -82.04
0.69 -46.793 -83.09 -0.021868 -12.60 -0.021868 -12.60 -46.793 -83.09
0.72 -46.416 -84.10 -0.022524 -13.15 -0.022524 -13.15 -46.416 -84.10
0.75 -46.054 -85.08 -0.023175 -13.69 -0.023175 -13.69 -46.054 -85.08
0.78 -45.708 -86.03 -0.023822 -14.24 -0.023822 -14.24 -45.708 -86.03
0.81 -45.376 -86.96 -0.024464 -14.78 -0.024464 -14.78 -45.376 -86.96
0.84 -45.056 -87.86 -0.025102 -15.33 -0.025102 -15.33 -45.056 -87.86
0.87 -44.749 -88.74 -0.025737 -15.87 -0.025737 -15.87 -44.749 -88.74
0.9 -44.453 -89.60 -0.026368 -16.42 -0.026368 -16.42 -44.453 -89.60
0.93 -44.167 -90.45 -0.026995 -16.96 -0.026995 -16.96 -44.167 -90.45
0.96 -43.892 -91.28 -0.02762 -17.51 -0.02762 -17.51 -43.892 -91.28
0.99 -43.625 -92.09 -0.028241 -18.05 -0.028241 -18.05 -43.625 -92.09
1.02 -43.368 -92.89 -0.02886 -18.60 -0.02886 -18.60 -43.368 -92.89
1.05 -43.118 -93.68 -0.029476 -19.14 -0.029476 -19.14 -43.118 -93.68
1.08 -42.876 -94.45 -0.030089 -19.69 -0.030089 -19.69 -42.876 -94.45
1.11 -42.642 -95.22 -0.0307 -20.23 -0.0307 -20.23 -42.642 -95.22
1.14 -42.415 -95.97 -0.031308 -20.78 -0.031308 -20.78 -42.415 -95.97
1.17 -42.194 -96.72 -0.031914 -21.32 -0.031914 -21.32 -42.194 -96.72
1.2 -41.98 -97.46 -0.032518 -21.87 -0.032518 -21.87 -41.98 -97.46
1.23 -41.771 -98.19 -0.03312 -22.41 -0.03312 -22.41 -41.771 -98.19
1.26 -41.568 -98.91 -0.03372 -22.95 -0.03372 -22.95 -41.568 -98.91
1.29 -41.371 -99.62 -0.034318 -23.50 -0.034318 -23.50 -41.371 -99.62
1.32 -41.179 -100.33 -0.034914 -24.04 -0.034914 -24.04 -41.179 -100.33
1.35 -40.992 -101.04 -0.035509 -24.59 -0.035509 -24.59 -40.992 -101.04
1.38 -40.81 -101.73 -0.036101 -25.13 -0.036101 -25.13 -40.81 -101.73
1.41 -40.632 -102.42 -0.036692 -25.68 -0.036692 -25.68 -40.632 -102.42
1.44 -40.459 -103.11 -0.037282 -26.22 -0.037282 -26.22 -40.459 -103.11
1.47 -40.29 -103.79 -0.03787 -26.77 -0.03787 -26.77 -40.29 -103.79
1.5 -40.125 -104.47 -0.038456 -27.31 -0.038456 -27.31 -40.125 -104.47
1.53 -39.964 -105.14 -0.039041 -27.85 -0.039041 -27.85 -39.964 -105.14
1.56 -39.807 -105.81 -0.039624 -28.40 -0.039624 -28.40 -39.807 -105.81
1.59 -39.653 -106.47 -0.040206 -28.94 -0.040206 -28.94 -39.653 -106.47
1.62 -39.503 -107.13 -0.040787 -29.49 -0.040787 -29.49 -39.503 -107.13
1.65 -39.356 -107.79 -0.041367 -30.03 -0.041367 -30.03 -39.356 -107.79
1.68 -39.213 -108.44 -0.041945 -30.57 -0.041945 -30.57 -39.213 -108.44
1.71 -39.073 -109.09 -0.042522 -31.12 -0.042522 -31.12 -39.073 -109.09
1.74 -38.935 -109.74 -0.043098 -31.66 -0.043098 -31.66 -38.935 -109.74
1.77 -38.801 -110.38 -0.043672 -32.21 -0.043672 -32.21 -38.801 -110.38
1.8 -38.67 -111.02 -0.044245 -32.75 -0.044245 -32.75 -38.67 -111.02
1.83 -38.541 -111.66 -0.044818 -33.30 -0.044818 -33.30 -38.541 -111.66
1.86 -38.415 -112.30 -0.045389 -33.84 -0.045389 -33.84 -38.415 -112.30
1.89 -38.292 -112.93 -0.045959 -34.38 -0.045959 -34.38 -38.292 -112.93
1.92 -38.171 -113.56 -0.046528 -34.93 -0.046528 -34.93 -38.171 -113.56
1.95 -38.053 -114.19 -0.047096 -35.47 -0.047096 -35.47 -38.053 -114.19
1.98 -37.937 -114.82 -0.047663 -36.02 -0.047663 -36.02 -37.937 -114.82
2.01 -37.824 -115.44 -0.048229 -36.56 -0.048229 -36.56 -37.824 -115.44
2.04 -37.713 -116.06 -0.048794 -37.10 -0.048794 -37.10 -37.713 -116.06
2.07 -37.604 -116.69 -0.049358 -37.65 -0.049358 -37.65 -37.604 -116.69
2.1 -37.497 -117.30 -0.04992 -38.19 -0.04992 -38.19 -37.497 -117.30
2.13 -37.393 -117.92 -0.050482 -38.74 -0.050482 -38.74 -37.393 -117.92
2.16 -37.29 -118.54 -0.051044 -39.28 -0.051044 -39.28 -37.29 -118.54
2.19 -37.19 -119.15 -0.051604 -39.82 -0.051604 -39.82 -37.19 -119.15
2.22 -37.091 -119.76 -0.052163 -40.37 -0.052163 -40.37 -37.091 -119.76
2.25 -36.994 -120.37 -0.052721 -40.91 -0.052721 -40.91 -36.994 -120.37
2.28 -36.9 -120.98 -0.053279 -41.45 -0.053279 -41.45 -36.9 -120.98
2.31 -36.807 -121.59 -0.053835 -42.00 -0.053835 -42.00 -36.807 -121.59
2.34 -36.716 -122.20 -0.054391 -42.54 -0.054391 -42.54 -36.716 -122.20
2.37 -36.626 -122.80 -0.054946 -43.09 -0.054946 -43.09 -36.626 -122.80
2.4 -36.539 -123.41 -0.055499 -43.63 -0.055499 -43.63 -36.539 -123.41
2.43 -36.453 -124.01 -0.056053 -44.17 -0.056053 -44.17 -36.453 -124.01
2.46 -36.369 -124.61 -0.056605 -44.72 -0.056605 -44.72 -36.369 -124.61
2.49 -36.286 -125.21 -0.057156 -45.26 -0.057156 -45.26 -36.286 -125.21
2.52 -36.205 -125.81 -0.057707 -45.80 -0.057707 -45.80 -36.205 -125.81
2.55 -36.125 -126.41 -0.058256 -46.35 -0.058256 -46.35 -36.125 -126.41
2.58 -36.047 -127.00 -0.058805 -46.89 -0.058805 -46.89 -36.047 -127.00
2.61 -35.971 -127.60 -0.059353 -47.44 -0.059353 -47.44 -35.971 -127.60
2.64 -35.896 -128.19 -0.059901 -47.98 -0.059901 -47.98 -35.896 -128.19
2.67 -35.822 -128.79 -0.060447 -48.52 -0.060447 -48.52 -35.822 -128.79
2.7 -35.75 -129.38 -0.060993 -49.07 -0.060993 -49.07 -35.75 -129.38
2.73 -35.68 -129.97 -0.061537 -49.61 -0.061537 -49.61 -35.68 -129.97
2.76 -35.61 -130.56 -0.062081 -50.15 -0.062081 -50.15 -35.61 -130.56
2.79 -35.542 -131.15 -0.062625 -50.70 -0.062625 -50.70 -35.542 -131.15
2.82 -35.476 -131.74 -0.063167 -51.24 -0.063167 -51.24 -35.476 -131.74
2.85 -35.411 -132.33 -0.063708 -51.79 -0.063708 -51.79 -35.411 -132.33
2.88 -35.346 -132.92 -0.064249 -52.33 -0.064249 -52.33 -35.346 -132.92
2.91 -35.284 -133.51 -0.064789 -52.87 -0.064789 -52.87 -35.284 -133.51
2.94 -35.222 -134.09 -0.065329 -53.42 -0.065329 -53.42 -35.222 -134.09
2.97 -35.162 -134.68 -0.065867 -53.96 -0.065867 -53.96 -35.162 -134.68
3 -35.103 -135.26 -0.066405 -54.50 -0.066405 -54.50 -35.103 -135.26
3.03 -35.045 -135.85 -0.066941 -55.05 -0.066941 -55.05 -35.045 -135.85
3.06 -34.989 -136.43 -0.067477 -55.59 -0.067477 -55.59 -34.989 -136.43
3.09 -34.933 -137.01 -0.068013 -56.13 -0.068013 -56.13 -34.933 -137.01
3.12 -34.879 -137.60 -0.068547 -56.68 -0.068547 -56.68 -34.879 -137.60
3.15 -34.826 -138.18 -0.069081 -57.22 -0.069081 -57.22 -34.826 -138.18
3.18 -34.774 -138.76 -0.069614 -57.77 -0.069614 -57.77 -34.774 -138.76
3.21 -34.723 -139.34 -0.070146 -58.31 -0.070146 -58.31 -34.723 -139.34
3.24 -34.673 -139.92 -0.070677 -58.85 -0.070677 -58.85 -34.673 -139.92
3.27 -34.624 -140.50 -0.071208 -59.40 -0.071208 -59.40 -34.624 -140.50
3.3 -34.576 -141.08 -0.071737 -59.94 -0.071737 -59.94 -34.576 -141.08
3.33 -34.53 -141.65 -0.072266 -60.48 -0.072266 -60.48 -34.53 -141.65
3.36 -34.484 -142.23 -0.072794 -61.03 -0.072794 -61.03 -34.484 -142.23
3.39 -34.44 -142.81 -0.073322 -61.57 -0.073322 -61.57 -34.44 -142.81
3.42 -34.396 -143.38 -0.073848 -62.11 -0.073848 -62.11 -34.396 -143.38
3.45 -34.353 -143.96 -0.074374 -62.66 -0.074374 -62.66 -34.353 -143.96
3.48 -34.312 -144.54 -0.074899 -63.20 -0.074899 -63.20 -34.312 -144.54
3.51 -34.271 -145.11 -0.075423 -63.74 -0.075423 -63.74 -34.271 -145.11
3.54 -34.232 -145.68 -0.075947 -64.29 -0.075947 -64.29 -34.232 -145.68
3.57 -34.193 -146.26 -0.076469 -64.83 -0.076469 -64.83 -34.193 -146.26
3.6 -34.156 -146.83 -0.076991 -65.38 -0.076991 -65.38 -34.156 -146.83
3.63 -34.119 -147.40 -0.077512 -65.92 -0.077512 -65.92 -34.119 -147.40
3.66 -34.083 -147.98 -0.078032 -66.46 -0.078032 -66.46 -34.083 -147.98
3.69 -34.049 -148.55 -0.078551 -67.01 -0.078551 -67.01 -34.049 -148.55
3.72 -34.015 -149.12 -0.07907 -67.55 -0.07907 -67.55 -34.015 -149.12
3.75 -33.982 -149.69 -0.079588 -68.09 -0.079588 -68.09 -33.982 -149.69
3.78 -33.95 -150.26 -0.080105 -68.64 -0.080105 -68.64 -33.95 -150.26
3.81 -33.919 -150.83 -0.080621 -69.18 -0.080621 -69.18 -33.919 -150.83
3.84 -33.889 -151.40 -0.081136 -69.72 -0.081136 -69.72 -33.889 -151.40
3.87 -33.86 -151.97 -0.081651 -70.27 -0.081651 -70.27 -33.86 -151.97
3.9 -33.831 -152.54 -0.082164 -70.81 -0.082164 -70.81 -33.831 -152.54
3.93 -33.804 -153.11 -0.082677 -71.35 -0.082677 -71.35 -33.804 -153.11
3.96 -33.777 -153.68 -0.083189 -71.90 -0.083189 -71.90 -33.777 -153.68
3.99 -33.751 -154.25 -0.083701 -72.44 -0.083701 -72.44 -33.751 -154.25
4.02 -33.727 -154.82 -0.084211 -72.98 -0.084211 -72.98 -33.727 -154.82
4.05 -33.703 -155.38 -0.084721 -73.53 -0.084721 -73.53 -33.703 -155.38
4.08 -33.679 -155.95 -0.085229 -74.07 -0.085229 -74.07 -33.679 -155.95
4.11 -33.657 -156.52 -0.085737 -74.62 -0.085737 -74.62 -33.657 -156.52
4.14 -33.636 -157.08 -0.086245 -75.16 -0.086245 -75.16 -33.636 -157.08
4.17 -33.615 -157.65 -0.086751 -75.70 -0.086751 -75.70 -33.615 -157.65
4.2 -33.595 -158.22 -0.087256 -76.25 -0.087256 -76.25 -33.595 -158.22
4.23 -33.576 -158.78 -0.087761 -76.79 -0.087761 -76.79 -33.576 -158.78
4.26 -33.558 -159.35 -0.088265 -77.33 -0.088265 -77.33 -33.558 -159.35
4.29 -33.541 -159.91 -0.088768 -77.88 -0.088768 -77.88 -33.541 -159.91
4.32 -33.524 -160.48 -0.08927 -78.42 -0.08927 -78.42 -33.524 -160.48
4.35 -33.509 -161.04 -0.089772 -78.96 -0.089772 -78.96 -33.509 -161.04
4.38 -33.494 -161.61 -0.090272 -79.51 -0.090272 -79.51 -33.494 -161.61
4.41 -33.48 -162.17 -0.090772 -80.05 -0.090772 -80.05 -33.48 -162.17
4.44 -33.467 -162.73 -0.091271 -80.59 -0.091271 -80.59 -33.467 -162.73
4.47 -33.454 -163.30 -0.091769 -81.14 -0.091769 -81.14 -33.454 -163.30
4.5 -33.443 -163.86 -0.092266 -81.68 -0.092266 -81.68 -33.443 -163.86
4.53 -33.432 -164.42 -0.092763 -82.22 -0.092763 -82.22 -33.432 -164.42
4.56 -33.422 -164.98 -0.093258 -82.77 -0.093258 -82.77 -33.422 -164.98
4.59 -33.413 -165.55 -0.093753 -83.31 -0.093753 -83.31 -33.413 -165.55
4.62 -33.404 -166.11 -0.094247 -83.85 -0.094247 -83.85 -33.404 -166.11
4.65 -33.397 -166.67 -0.09474 -84.40 -0.09474 -84.40 -33.397 -166.67
4.68 -33.39 -167.23 -0.095232 -84.94 -0.095232 -84.94 -33.39 -167.23
4.71 -33.384 -167.79 -0.095724 -85.49 -0.095724 -85.49 -33.384 -167.79
4.74 -33.379 -168.35 -0.096214 -86.03 -0.096214 -86.03 -33.379 -168.35
4.77 -33.374 -168.91 -0.096704 -86.57 -0.096704 -86.57 -33.374 -168.91
4.8 -33.371 -169.47 -0.097193 -87.12 -0.097193 -87.12 -33.371 -169.47
4.83 -33.368 -170.03 -0.097681 -87.66 -0.097681 -87.66 -33.368 -170.03
4.86 -33.366 -170.59 -0.098169 -88.20 -0.098169 -88.20 -33.366 -170.59
4.89 -33.364 -171.15 -0.098655 -88.75 -0.098655 -88.75 -33.364 -171.15
4.92 -33.364 -171.71 -0.099141 -89.29 -0.099141 -89.29 -33.364 -171.71
4.95 -33.364 -172.27 -0.099626 -89.83 -0.099626 -89.83 -33.364 -172.27
4.98 -33.365 -172.83 -0.10011 -90.38 -0.10011 -90.38 -33.365 -172.83
5.01 -33.367 -173.39 -0.10059 -90.92 -0.10059 -90.92 -33.367 -173.39
5.04 -33.37 -173.95 -0.10108 -91.46 -0.10108 -91.46 -33.37 -173.95
5.07 -33.373 -174.50 -0.10156 -92.01 -0.10156 -92.01 -33.373 -174.50
5.1 -33.377 -175.06 -0.10204 -92.55 -0.10204 -92.55 -33.377 -175.06
5.13 -33.382 -175.62 -0.10252 -93.09 -0.10252 -93.09 -33.382 -175.62
5.16 -33.388 -176.18 -0.103 -93.64 -0.103 -93.64 -33.388 -176.18
5.19 -33.394 -176.73 -0.10348 -94.18 -0.10348 -94.18 -33.394 -176.73
5.22 -33.402 -177.29 -0.10395 -94.73 -0.10395 -94.73 -33.402 -177.29
5.25 -33.41 -177.85 -0.10443 -95.27 -0.10443 -95.27 -33.41 -177.85
5.28 -33.419 -178.40 -0.10491 -95.81 -0.10491 -95.81 -33.419 -178.40
5.31 -33.429 -178.96 -0.10538 -96.36 -0.10538 -96.36 -33.429 -178.96
5.34 -33.439 -179.52 -0.10585 -96.90 -0.10585 -96.90 -33.439 -179.52
5.37 -33.45 179.93 -0.10633 -97.44 -0.10633 -97.44 -33.45 179.93
5.4 -33.462 179.37 -0.1068 -97.99 -0.1068 -97.99 -33.462 179.37
5.43 -33.475 178.82 -0.10727 -98.53 -0.10727 -98.53 -33.475 178.82
5.46 -33.489 178.26 -0.10774 -99.07 -0.10774 -99.07 -33.489 178.26
5.49 -33.503 177.71 -0.10821 -99.62 -0.10821 -99.62 -33.503 177.71
5.52 -33.519 177.15 -0.10868 -100.16 -0.10868 -100.16 -33.519 177.15
5.55 -33.535 176.60 -0.10915 -100.70 -0.10915 -100.70 -33.535 176.60
5.58 -33.552 176.04 -0.10962 -101.25 -0.10962 -101.25 -33.552 176.04
5.61 -33.569 175.49 -0.11009 -101.79 -0.11009 -101.79 -33.569 175.49
5.64 -33.588 174.94 -0.11056 -102.34 -0.11056 -102.34 -33.588 174.94
5.67 -33.607 174.38 -0.11102 -102.88 -0.11102 -102.88 -33.607 174.38
5.7 -33.627 173.83 -0.11149 -103.42 -0.11149 -103.42 -33.627 173.83
5.73 -33.648 173.28 -0.11195 -103.97 -0.11195 -103.97 -33.648 173.28
5.76 -33.67 172.72 -0.11241 -104.51 -0.11241 -104.51 -33.67 172.72
5.79 -33.693 172.17 -0.11288 -105.05 -0.11288 -105.05 -33.693 172.17
5.82 -33.717 171.62 -0.11334 -105.60 -0.11334 -105.60 -33.717 171.62
5.85 -33.741 171.06 -0.1138 -106.14 -0.1138 -106.14 -33.741 171.06
5.88 -33.766 170.51 -0.11426 -106.68 -0.11426 -106.68 -33.766 170.51
5.91 -33.792 169.96 -0.11472 -107.23 -0.11472 -107.23 -33.792 169.96
5.94 -33.819 169.41 -0.11518 -107.77 -0.11518 -107.77 -33.819 169.41
5.97 -33.847 168.86 -0.11564 -108.32 -0.11564 -108.32 -33.847 168.86
6 -33.875 168.31 -0.1161 -108.86 -0.1161 -108.86 -33.875 168.31
