! yapnr Order 0 O0-M: O0-M A09 M1.4 30 (variant, family M1.4)
! stackup OSHPARK-4L-FR408HR, nominal parameters; geometry of the OSHPARK-4L-FR408HR design
! model: 2D quasi-static RLGC (Djordjevic-Sarkar, Huray roughness, Wheeler loss); generated by python -m yapnr.rf.coupons expected --stackup OSHPARK-4L-FR408HR --upload M
! reference planes 10 mm from each end; 50 ohm (from the M line's Zc)
# GHz S DB R 50
0.03 -44.836 -83.62 -0.0099638 -1.92 -0.0099638 -1.92 -44.836 -83.62
0.06 -38.575 -88.52 -0.015297 -3.79 -0.015297 -3.79 -38.575 -88.52
0.09 -34.962 -91.64 -0.020207 -5.66 -0.020207 -5.66 -34.962 -91.64
0.12 -32.422 -94.22 -0.025057 -7.53 -0.025057 -7.53 -32.422 -94.22
0.15 -30.467 -96.56 -0.029986 -9.39 -0.029986 -9.39 -30.467 -96.56
0.18 -28.881 -98.77 -0.035059 -11.25 -0.035059 -11.25 -28.881 -98.77
0.21 -27.55 -100.89 -0.04031 -13.10 -0.04031 -13.10 -27.55 -100.89
0.24 -26.406 -102.95 -0.045758 -14.95 -0.045758 -14.95 -26.406 -102.95
0.27 -25.405 -104.97 -0.05141 -16.80 -0.05141 -16.80 -25.405 -104.97
0.3 -24.517 -106.96 -0.05727 -18.65 -0.05727 -18.65 -24.517 -106.96
0.33 -23.721 -108.93 -0.063334 -20.50 -0.063334 -20.50 -23.721 -108.93
0.36 -23.001 -110.88 -0.069596 -22.34 -0.069596 -22.34 -23.001 -110.88
0.39 -22.347 -112.81 -0.076047 -24.18 -0.076047 -24.18 -22.347 -112.81
0.42 -21.747 -114.72 -0.082678 -26.02 -0.082678 -26.02 -21.747 -114.72
0.45 -21.196 -116.63 -0.089474 -27.86 -0.089474 -27.86 -21.196 -116.63
0.48 -20.688 -118.53 -0.096423 -29.70 -0.096423 -29.70 -20.688 -118.53
0.51 -20.216 -120.41 -0.10351 -31.53 -0.10351 -31.53 -20.216 -120.41
0.54 -19.779 -122.29 -0.11072 -33.36 -0.11072 -33.36 -19.779 -122.29
0.57 -19.372 -124.16 -0.11803 -35.19 -0.11803 -35.19 -19.372 -124.16
0.6 -18.992 -126.03 -0.12543 -37.01 -0.12543 -37.01 -18.992 -126.03
0.63 -18.637 -127.88 -0.13289 -38.83 -0.13289 -38.83 -18.637 -127.88
0.66 -18.306 -129.73 -0.14041 -40.66 -0.14041 -40.66 -18.306 -129.73
0.69 -17.996 -131.58 -0.14796 -42.47 -0.14796 -42.47 -17.996 -131.58
0.72 -17.705 -133.42 -0.15552 -44.29 -0.15552 -44.29 -17.705 -133.42
0.75 -17.433 -135.26 -0.16307 -46.10 -0.16307 -46.10 -17.433 -135.26
0.78 -17.179 -137.09 -0.1706 -47.91 -0.1706 -47.91 -17.179 -137.09
0.81 -16.94 -138.91 -0.17808 -49.72 -0.17808 -49.72 -16.94 -138.91
0.84 -16.717 -140.73 -0.1855 -51.53 -0.1855 -51.53 -16.717 -140.73
0.87 -16.508 -142.55 -0.19283 -53.33 -0.19283 -53.33 -16.508 -142.55
0.9 -16.313 -144.36 -0.20006 -55.14 -0.20006 -55.14 -16.313 -144.36
0.93 -16.131 -146.17 -0.20718 -56.94 -0.20718 -56.94 -16.131 -146.17
0.96 -15.962 -147.98 -0.21415 -58.73 -0.21415 -58.73 -15.962 -147.98
0.99 -15.804 -149.78 -0.22098 -60.53 -0.22098 -60.53 -15.804 -149.78
1.02 -15.658 -151.58 -0.22763 -62.32 -0.22763 -62.32 -15.658 -151.58
1.05 -15.523 -153.38 -0.2341 -64.11 -0.2341 -64.11 -15.523 -153.38
1.08 -15.399 -155.17 -0.24036 -65.90 -0.24036 -65.90 -15.399 -155.17
1.11 -15.285 -156.96 -0.24642 -67.69 -0.24642 -67.69 -15.285 -156.96
1.14 -15.181 -158.74 -0.25224 -69.48 -0.25224 -69.48 -15.181 -158.74
1.17 -15.086 -160.53 -0.25783 -71.27 -0.25783 -71.27 -15.086 -160.53
1.2 -15.002 -162.31 -0.26316 -73.05 -0.26316 -73.05 -15.002 -162.31
1.23 -14.926 -164.08 -0.26824 -74.83 -0.26824 -74.83 -14.926 -164.08
1.26 -14.86 -165.86 -0.27304 -76.61 -0.27304 -76.61 -14.86 -165.86
1.29 -14.802 -167.63 -0.27756 -78.39 -0.27756 -78.39 -14.802 -167.63
1.32 -14.754 -169.40 -0.2818 -80.17 -0.2818 -80.17 -14.754 -169.40
1.35 -14.714 -171.17 -0.28574 -81.95 -0.28574 -81.95 -14.714 -171.17
1.38 -14.682 -172.94 -0.28938 -83.73 -0.28938 -83.73 -14.682 -172.94
1.41 -14.659 -174.70 -0.29272 -85.51 -0.29272 -85.51 -14.659 -174.70
1.44 -14.645 -176.47 -0.29576 -87.28 -0.29576 -87.28 -14.645 -176.47
1.47 -14.639 -178.23 -0.29849 -89.06 -0.29849 -89.06 -14.639 -178.23
1.5 -14.641 -179.99 -0.30091 -90.84 -0.30091 -90.84 -14.641 -179.99
1.53 -14.652 178.25 -0.30302 -92.61 -0.30302 -92.61 -14.652 178.25
1.56 -14.671 176.50 -0.30483 -94.39 -0.30483 -94.39 -14.671 176.50
1.59 -14.698 174.74 -0.30633 -96.17 -0.30633 -96.17 -14.698 174.74
1.62 -14.734 172.99 -0.30753 -97.95 -0.30753 -97.95 -14.734 172.99
1.65 -14.778 171.23 -0.30844 -99.72 -0.30844 -99.72 -14.778 171.23
1.68 -14.831 169.48 -0.30906 -101.50 -0.30906 -101.50 -14.831 169.48
1.71 -14.893 167.73 -0.3094 -103.28 -0.3094 -103.28 -14.893 167.73
1.74 -14.964 165.98 -0.30947 -105.06 -0.30947 -105.06 -14.964 165.98
1.77 -15.043 164.23 -0.30927 -106.84 -0.30927 -106.84 -15.043 164.23
1.8 -15.132 162.48 -0.30881 -108.62 -0.30881 -108.62 -15.132 162.48
1.83 -15.23 160.73 -0.30812 -110.40 -0.30812 -110.40 -15.23 160.73
1.86 -15.338 158.99 -0.30719 -112.19 -0.30719 -112.19 -15.338 158.99
1.89 -15.456 157.24 -0.30604 -113.97 -0.30604 -113.97 -15.456 157.24
1.92 -15.584 155.50 -0.30469 -115.76 -0.30469 -115.76 -15.584 155.50
1.95 -15.723 153.76 -0.30314 -117.55 -0.30314 -117.55 -15.723 153.76
1.98 -15.872 152.01 -0.30143 -119.34 -0.30143 -119.34 -15.872 152.01
2.01 -16.033 150.28 -0.29955 -121.13 -0.29955 -121.13 -16.033 150.28
2.04 -16.205 148.54 -0.29752 -122.92 -0.29752 -122.92 -16.205 148.54
2.07 -16.39 146.80 -0.29537 -124.72 -0.29537 -124.72 -16.39 146.80
2.1 -16.587 145.07 -0.29312 -126.51 -0.29312 -126.51 -16.587 145.07
2.13 -16.798 143.34 -0.29077 -128.31 -0.29077 -128.31 -16.798 143.34
2.16 -17.023 141.61 -0.28834 -130.11 -0.28834 -130.11 -17.023 141.61
2.19 -17.263 139.89 -0.28587 -131.91 -0.28587 -131.91 -17.263 139.89
2.22 -17.519 138.17 -0.28336 -133.72 -0.28336 -133.72 -17.519 138.17
2.25 -17.791 136.45 -0.28083 -135.52 -0.28083 -135.52 -17.791 136.45
2.28 -18.081 134.75 -0.2783 -137.33 -0.2783 -137.33 -18.081 134.75
2.31 -18.391 133.04 -0.27579 -139.14 -0.27579 -139.14 -18.391 133.04
2.34 -18.721 131.35 -0.27333 -140.95 -0.27333 -140.95 -18.721 131.35
2.37 -19.073 129.67 -0.27092 -142.76 -0.27092 -142.76 -19.073 129.67
2.4 -19.449 127.99 -0.26859 -144.58 -0.26859 -144.58 -19.449 127.99
2.43 -19.851 126.33 -0.26636 -146.40 -0.26636 -146.40 -19.851 126.33
2.46 -20.282 124.69 -0.26424 -148.22 -0.26424 -148.22 -20.282 124.69
2.49 -20.745 123.06 -0.26225 -150.04 -0.26225 -150.04 -20.745 123.06
2.52 -21.244 121.46 -0.26041 -151.86 -0.26041 -151.86 -21.244 121.46
2.55 -21.782 119.89 -0.25873 -153.68 -0.25873 -153.68 -21.782 119.89
2.58 -22.365 118.35 -0.25723 -155.51 -0.25723 -155.51 -22.365 118.35
2.61 -22.999 116.85 -0.25593 -157.34 -0.25593 -157.34 -22.999 116.85
2.64 -23.693 115.41 -0.25484 -159.16 -0.25484 -159.16 -23.693 115.41
2.67 -24.456 114.05 -0.25396 -160.99 -0.25396 -160.99 -24.456 114.05
2.7 -25.301 112.77 -0.25333 -162.82 -0.25333 -162.82 -25.301 112.77
2.73 -26.247 111.63 -0.25293 -164.66 -0.25293 -164.66 -26.247 111.63
2.76 -27.316 110.67 -0.2528 -166.49 -0.2528 -166.49 -27.316 110.67
2.79 -28.543 109.97 -0.25293 -168.32 -0.25293 -168.32 -28.543 109.97
2.82 -29.977 109.68 -0.25333 -170.16 -0.25333 -170.16 -29.977 109.68
2.85 -31.695 110.07 -0.25401 -171.99 -0.25401 -171.99 -31.695 110.07
2.88 -33.822 111.70 -0.25498 -173.83 -0.25498 -173.83 -33.822 111.70
2.91 -36.58 115.96 -0.25624 -175.66 -0.25624 -175.66 -36.58 115.96
2.94 -40.323 127.09 -0.25779 -177.50 -0.25779 -177.50 -40.323 127.09
2.97 -44.652 159.90 -0.25964 -179.34 -0.25964 -179.34 -44.652 159.90
3 -43.544 -146.54 -0.26179 178.83 -0.26179 178.83 -43.544 -146.54
3.03 -39.117 -122.59 -0.26423 176.99 -0.26423 176.99 -39.117 -122.59
3.06 -35.706 -114.27 -0.26697 175.16 -0.26697 175.16 -35.706 -114.27
3.09 -33.169 -111.01 -0.27 173.32 -0.27 173.32 -33.169 -111.01
3.12 -31.183 -109.83 -0.27331 171.48 -0.27331 171.48 -31.183 -109.83
3.15 -29.563 -109.67 -0.27691 169.65 -0.27691 169.65 -29.563 -109.67
3.18 -28.201 -110.10 -0.28078 167.82 -0.28078 167.82 -28.201 -110.10
3.21 -27.03 -110.88 -0.28492 165.98 -0.28492 165.98 -27.03 -110.88
3.24 -26.004 -111.89 -0.28932 164.15 -0.28932 164.15 -26.004 -111.89
3.27 -25.095 -113.07 -0.29397 162.32 -0.29397 162.32 -25.095 -113.07
3.3 -24.28 -114.37 -0.29886 160.49 -0.29886 160.49 -24.28 -114.37
3.33 -23.544 -115.75 -0.30398 158.66 -0.30398 158.66 -23.544 -115.75
3.36 -22.873 -117.20 -0.30931 156.83 -0.30931 156.83 -22.873 -117.20
3.39 -22.26 -118.70 -0.31484 155.01 -0.31484 155.01 -22.26 -118.70
3.42 -21.695 -120.23 -0.32055 153.18 -0.32055 153.18 -21.695 -120.23
3.45 -21.174 -121.81 -0.32644 151.36 -0.32644 151.36 -21.174 -121.81
3.48 -20.692 -123.40 -0.33249 149.54 -0.33249 149.54 -20.692 -123.40
3.51 -20.243 -125.02 -0.33867 147.72 -0.33867 147.72 -20.243 -125.02
3.54 -19.826 -126.65 -0.34497 145.90 -0.34497 145.90 -19.826 -126.65
3.57 -19.436 -128.30 -0.35138 144.09 -0.35138 144.09 -19.436 -128.30
3.6 -19.072 -129.96 -0.35788 142.27 -0.35788 142.27 -19.072 -129.96
3.63 -18.732 -131.63 -0.36444 140.46 -0.36444 140.46 -18.732 -131.63
3.66 -18.413 -133.31 -0.37106 138.65 -0.37106 138.65 -18.413 -133.31
3.69 -18.115 -134.99 -0.37771 136.84 -0.37771 136.84 -18.115 -134.99
3.72 -17.835 -136.68 -0.38438 135.04 -0.38438 135.04 -17.835 -136.68
3.75 -17.572 -138.38 -0.39104 133.23 -0.39104 133.23 -17.572 -138.38
3.78 -17.326 -140.08 -0.39768 131.43 -0.39768 131.43 -17.326 -140.08
3.81 -17.095 -141.78 -0.40428 129.63 -0.40428 129.63 -17.095 -141.78
3.84 -16.88 -143.48 -0.41083 127.83 -0.41083 127.83 -16.88 -143.48
3.87 -16.677 -145.19 -0.41729 126.04 -0.41729 126.04 -16.677 -145.19
3.9 -16.489 -146.90 -0.42367 124.24 -0.42367 124.24 -16.489 -146.90
3.93 -16.312 -148.61 -0.42994 122.45 -0.42994 122.45 -16.312 -148.61
3.96 -16.148 -150.32 -0.43608 120.66 -0.43608 120.66 -16.148 -150.32
3.99 -15.996 -152.03 -0.44209 118.87 -0.44209 118.87 -15.996 -152.03
4.02 -15.854 -153.74 -0.44793 117.08 -0.44793 117.08 -15.854 -153.74
4.05 -15.724 -155.45 -0.45361 115.29 -0.45361 115.29 -15.724 -155.45
4.08 -15.603 -157.16 -0.45911 113.51 -0.45911 113.51 -15.603 -157.16
4.11 -15.493 -158.87 -0.4644 111.72 -0.4644 111.72 -15.493 -158.87
4.14 -15.393 -160.58 -0.46949 109.94 -0.46949 109.94 -15.393 -160.58
4.17 -15.302 -162.29 -0.47436 108.16 -0.47436 108.16 -15.302 -162.29
4.2 -15.221 -164.00 -0.47899 106.38 -0.47899 106.38 -15.221 -164.00
4.23 -15.148 -165.71 -0.48339 104.60 -0.48339 104.60 -15.148 -165.71
4.26 -15.085 -167.42 -0.48754 102.82 -0.48754 102.82 -15.085 -167.42
4.29 -15.031 -169.13 -0.49143 101.04 -0.49143 101.04 -15.031 -169.13
4.32 -14.985 -170.84 -0.49505 99.26 -0.49505 99.26 -14.985 -170.84
4.35 -14.947 -172.54 -0.49841 97.49 -0.49841 97.49 -14.947 -172.54
4.38 -14.919 -174.25 -0.5015 95.71 -0.5015 95.71 -14.919 -174.25
4.41 -14.898 -175.95 -0.5043 93.94 -0.5043 93.94 -14.898 -175.95
4.44 -14.886 -177.66 -0.50683 92.16 -0.50683 92.16 -14.886 -177.66
4.47 -14.883 -179.36 -0.50908 90.39 -0.50908 90.39 -14.883 -179.36
4.5 -14.887 178.93 -0.51104 88.61 -0.51104 88.61 -14.887 178.93
4.53 -14.9 177.23 -0.51272 86.83 -0.51272 86.83 -14.9 177.23
4.56 -14.921 175.53 -0.51413 85.06 -0.51413 85.06 -14.921 175.53
4.59 -14.951 173.83 -0.51525 83.28 -0.51525 83.28 -14.951 173.83
4.62 -14.989 172.13 -0.51611 81.51 -0.51611 81.51 -14.989 172.13
4.65 -15.036 170.43 -0.51669 79.73 -0.51669 79.73 -15.036 170.43
4.68 -15.091 168.74 -0.51702 77.95 -0.51702 77.95 -15.091 168.74
4.71 -15.155 167.04 -0.51708 76.17 -0.51708 76.17 -15.155 167.04
4.74 -15.228 165.35 -0.5169 74.40 -0.5169 74.40 -15.228 165.35
4.77 -15.31 163.65 -0.51649 72.62 -0.51649 72.62 -15.31 163.65
4.8 -15.402 161.96 -0.51584 70.83 -0.51584 70.83 -15.402 161.96
4.83 -15.502 160.27 -0.51497 69.05 -0.51497 69.05 -15.502 160.27
4.86 -15.613 158.59 -0.51389 67.27 -0.51389 67.27 -15.613 158.59
4.89 -15.733 156.90 -0.51262 65.48 -0.51262 65.48 -15.733 156.90
4.92 -15.863 155.22 -0.51117 63.70 -0.51117 63.70 -15.863 155.22
4.95 -16.005 153.54 -0.50955 61.91 -0.50955 61.91 -16.005 153.54
4.98 -16.157 151.86 -0.50777 60.12 -0.50777 60.12 -16.157 151.86
5.01 -16.32 150.19 -0.50585 58.33 -0.50585 58.33 -16.32 150.19
5.04 -16.495 148.52 -0.50381 56.54 -0.50381 56.54 -16.495 148.52
5.07 -16.683 146.86 -0.50166 54.74 -0.50166 54.74 -16.683 146.86
5.1 -16.883 145.20 -0.49942 52.95 -0.49942 52.95 -16.883 145.20
5.13 -17.097 143.54 -0.4971 51.15 -0.4971 51.15 -17.097 143.54
5.16 -17.326 141.90 -0.49472 49.35 -0.49472 49.35 -17.326 141.90
5.19 -17.569 140.26 -0.4923 47.55 -0.4923 47.55 -17.569 140.26
5.22 -17.828 138.63 -0.48986 45.74 -0.48986 45.74 -17.828 138.63
5.25 -18.104 137.01 -0.48742 43.94 -0.48742 43.94 -18.104 137.01
5.28 -18.398 135.40 -0.48498 42.13 -0.48498 42.13 -18.398 135.40
5.31 -18.712 133.81 -0.48258 40.32 -0.48258 40.32 -18.712 133.81
5.34 -19.046 132.23 -0.48022 38.51 -0.48022 38.51 -19.046 132.23
5.37 -19.402 130.67 -0.47793 36.70 -0.47793 36.70 -19.402 130.67
5.4 -19.783 129.13 -0.47571 34.88 -0.47571 34.88 -19.783 129.13
5.43 -20.191 127.62 -0.4736 33.07 -0.4736 33.07 -20.191 127.62
5.46 -20.627 126.14 -0.4716 31.25 -0.4716 31.25 -20.627 126.14
5.49 -21.096 124.69 -0.46974 29.43 -0.46974 29.43 -21.096 124.69
5.52 -21.601 123.29 -0.46802 27.61 -0.46802 27.61 -21.601 123.29
5.55 -22.145 121.94 -0.46646 25.79 -0.46646 25.79 -22.145 121.94
5.58 -22.735 120.66 -0.46509 23.96 -0.46509 23.96 -22.735 120.66
5.61 -23.376 119.47 -0.4639 22.14 -0.4639 22.14 -23.376 119.47
5.64 -24.077 118.37 -0.46291 20.31 -0.46291 20.31 -24.077 118.37
5.67 -24.848 117.42 -0.46214 18.48 -0.46214 18.48 -24.848 117.42
5.7 -25.701 116.64 -0.46159 16.65 -0.46159 16.65 -25.701 116.64
5.73 -26.652 116.10 -0.46128 14.82 -0.46128 14.82 -26.652 116.10
5.76 -27.724 115.91 -0.46122 12.99 -0.46122 12.99 -27.724 115.91
5.79 -28.947 116.21 -0.46141 11.16 -0.46141 11.16 -28.947 116.21
5.82 -30.362 117.27 -0.46186 9.33 -0.46186 9.33 -30.362 117.27
5.85 -32.025 119.56 -0.46258 7.49 -0.46258 7.49 -32.025 119.56
5.88 -34.008 124.00 -0.46357 5.66 -0.46357 5.66 -34.008 124.00
5.91 -36.362 132.55 -0.46483 3.83 -0.46483 3.83 -36.362 132.55
5.94 -38.887 149.14 -0.46638 1.99 -0.46638 1.99 -38.887 149.14
5.97 -40.365 177.36 -0.4682 0.16 -0.4682 0.16 -40.365 177.36
6 -39.23 -153.10 -0.47031 -1.68 -0.47031 -1.68 -39.23 -153.10
