! yapnr Order 0 O0-M: O0-M A10 M-MK 30 (variant, family M-MK)
! stackup OSHPARK-4L-FR408HR, nominal parameters; geometry of the OSHPARK-4L-FR408HR design
! model: 2D quasi-static RLGC (Djordjevic-Sarkar, Huray roughness, Wheeler loss); generated by python -m yapnr.rf.coupons expected --stackup OSHPARK-4L-FR408HR --upload M
! reference planes 10 mm from each end; 50 ohm (from the M line's Zc)
# GHz S DB R 50
0.03 -61.016 -5.80 -0.010298 -1.90 -0.010298 -1.90 -61.016 -5.80
0.06 -57.829 -28.76 -0.015291 -3.76 -0.015291 -3.76 -57.829 -28.76
0.09 -55.275 -44.01 -0.019514 -5.61 -0.019514 -5.61 -55.275 -44.01
0.12 -53.172 -54.71 -0.023341 -7.46 -0.023341 -7.46 -53.172 -54.71
0.15 -51.419 -62.74 -0.026918 -9.30 -0.026918 -9.30 -51.419 -62.74
0.18 -49.936 -69.13 -0.030322 -11.15 -0.030322 -11.15 -49.936 -69.13
0.21 -48.661 -74.46 -0.033596 -12.99 -0.033596 -12.99 -48.661 -74.46
0.24 -47.549 -79.07 -0.03677 -14.82 -0.03677 -14.82 -47.549 -79.07
0.27 -46.569 -83.16 -0.039862 -16.66 -0.039862 -16.66 -46.569 -83.16
0.3 -45.695 -86.87 -0.042887 -18.50 -0.042887 -18.50 -45.695 -86.87
0.33 -44.91 -90.30 -0.045856 -20.33 -0.045856 -20.33 -44.91 -90.30
0.36 -44.199 -93.50 -0.048776 -22.17 -0.048776 -22.17 -44.199 -93.50
0.39 -43.552 -96.52 -0.051655 -24.00 -0.051655 -24.00 -43.552 -96.52
0.42 -42.96 -99.40 -0.054497 -25.84 -0.054497 -25.84 -42.96 -99.40
0.45 -42.416 -102.16 -0.057306 -27.67 -0.057306 -27.67 -42.416 -102.16
0.48 -41.915 -104.83 -0.060086 -29.50 -0.060086 -29.50 -41.915 -104.83
0.51 -41.451 -107.41 -0.06284 -31.33 -0.06284 -31.33 -41.451 -107.41
0.54 -41.021 -109.92 -0.06557 -33.16 -0.06557 -33.16 -41.021 -109.92
0.57 -40.622 -112.37 -0.068278 -34.99 -0.068278 -34.99 -40.622 -112.37
0.6 -40.25 -114.77 -0.070966 -36.82 -0.070966 -36.82 -40.25 -114.77
0.63 -39.904 -117.12 -0.073635 -38.65 -0.073635 -38.65 -39.904 -117.12
0.66 -39.581 -119.43 -0.076286 -40.48 -0.076286 -40.48 -39.581 -119.43
0.69 -39.279 -121.71 -0.078921 -42.31 -0.078921 -42.31 -39.279 -121.71
0.72 -38.997 -123.96 -0.081541 -44.14 -0.081541 -44.14 -38.997 -123.96
0.75 -38.734 -126.17 -0.084145 -45.97 -0.084145 -45.97 -38.734 -126.17
0.78 -38.489 -128.36 -0.086736 -47.80 -0.086736 -47.80 -38.489 -128.36
0.81 -38.259 -130.53 -0.089313 -49.62 -0.089313 -49.62 -38.259 -130.53
0.84 -38.046 -132.68 -0.091878 -51.45 -0.091878 -51.45 -38.046 -132.68
0.87 -37.847 -134.81 -0.09443 -53.28 -0.09443 -53.28 -37.847 -134.81
0.9 -37.661 -136.92 -0.096971 -55.11 -0.096971 -55.11 -37.661 -136.92
0.93 -37.489 -139.02 -0.0995 -56.93 -0.0995 -56.93 -37.489 -139.02
0.96 -37.33 -141.10 -0.10202 -58.76 -0.10202 -58.76 -37.33 -141.10
0.99 -37.183 -143.17 -0.10452 -60.58 -0.10452 -60.58 -37.183 -143.17
1.02 -37.048 -145.22 -0.10702 -62.41 -0.10702 -62.41 -37.048 -145.22
1.05 -36.924 -147.27 -0.10951 -64.24 -0.10951 -64.24 -36.924 -147.27
1.08 -36.81 -149.30 -0.11198 -66.06 -0.11198 -66.06 -36.81 -149.30
1.11 -36.708 -151.32 -0.11445 -67.89 -0.11445 -67.89 -36.708 -151.32
1.14 -36.615 -153.33 -0.11691 -69.71 -0.11691 -69.71 -36.615 -153.33
1.17 -36.533 -155.34 -0.11935 -71.54 -0.11935 -71.54 -36.533 -155.34
1.2 -36.461 -157.33 -0.12179 -73.36 -0.12179 -73.36 -36.461 -157.33
1.23 -36.398 -159.32 -0.12422 -75.19 -0.12422 -75.19 -36.398 -159.32
1.26 -36.344 -161.30 -0.12664 -77.01 -0.12664 -77.01 -36.344 -161.30
1.29 -36.3 -163.28 -0.12905 -78.84 -0.12905 -78.84 -36.3 -163.28
1.32 -36.265 -165.24 -0.13146 -80.66 -0.13146 -80.66 -36.265 -165.24
1.35 -36.239 -167.20 -0.13385 -82.48 -0.13385 -82.48 -36.239 -167.20
1.38 -36.221 -169.16 -0.13624 -84.31 -0.13624 -84.31 -36.221 -169.16
1.41 -36.213 -171.10 -0.13862 -86.13 -0.13862 -86.13 -36.213 -171.10
1.44 -36.213 -173.05 -0.14099 -87.95 -0.14099 -87.95 -36.213 -173.05
1.47 -36.222 -174.98 -0.14335 -89.78 -0.14335 -89.78 -36.222 -174.98
1.5 -36.24 -176.91 -0.14571 -91.60 -0.14571 -91.60 -36.24 -176.91
1.53 -36.267 -178.84 -0.14805 -93.42 -0.14805 -93.42 -36.267 -178.84
1.56 -36.302 179.24 -0.15039 -95.25 -0.15039 -95.25 -36.302 179.24
1.59 -36.346 177.32 -0.15273 -97.07 -0.15273 -97.07 -36.346 177.32
1.62 -36.399 175.41 -0.15506 -98.89 -0.15506 -98.89 -36.399 175.41
1.65 -36.461 173.50 -0.15738 -100.72 -0.15738 -100.72 -36.461 173.50
1.68 -36.532 171.60 -0.15969 -102.54 -0.15969 -102.54 -36.532 171.60
1.71 -36.612 169.70 -0.162 -104.36 -0.162 -104.36 -36.612 169.70
1.74 -36.702 167.81 -0.1643 -106.18 -0.1643 -106.18 -36.702 167.81
1.77 -36.801 165.92 -0.16659 -108.01 -0.16659 -108.01 -36.801 165.92
1.8 -36.909 164.04 -0.16888 -109.83 -0.16888 -109.83 -36.909 164.04
1.83 -37.028 162.16 -0.17116 -111.65 -0.17116 -111.65 -37.028 162.16
1.86 -37.156 160.28 -0.17344 -113.47 -0.17344 -113.47 -37.156 160.28
1.89 -37.295 158.41 -0.17571 -115.29 -0.17571 -115.29 -37.295 158.41
1.92 -37.444 156.55 -0.17798 -117.12 -0.17798 -117.12 -37.444 156.55
1.95 -37.605 154.68 -0.18025 -118.94 -0.18025 -118.94 -37.605 154.68
1.98 -37.777 152.83 -0.1825 -120.76 -0.1825 -120.76 -37.777 152.83
2.01 -37.96 150.98 -0.18476 -122.58 -0.18476 -122.58 -37.96 150.98
2.04 -38.156 149.13 -0.18701 -124.40 -0.18701 -124.40 -38.156 149.13
2.07 -38.365 147.29 -0.18925 -126.23 -0.18925 -126.23 -38.365 147.29
2.1 -38.587 145.46 -0.19149 -128.05 -0.19149 -128.05 -38.587 145.46
2.13 -38.823 143.63 -0.19373 -129.87 -0.19373 -129.87 -38.823 143.63
2.16 -39.074 141.81 -0.19597 -131.69 -0.19597 -131.69 -39.074 141.81
2.19 -39.341 140.00 -0.1982 -133.51 -0.1982 -133.51 -39.341 140.00
2.22 -39.624 138.20 -0.20043 -135.33 -0.20043 -135.33 -39.624 138.20
2.25 -39.925 136.40 -0.20265 -137.15 -0.20265 -137.15 -39.925 136.40
2.28 -40.245 134.62 -0.20488 -138.98 -0.20488 -138.98 -40.245 134.62
2.31 -40.584 132.84 -0.2071 -140.80 -0.2071 -140.80 -40.584 132.84
2.34 -40.946 131.08 -0.20931 -142.62 -0.20931 -142.62 -40.946 131.08
2.37 -41.332 129.33 -0.21153 -144.44 -0.21153 -144.44 -41.332 129.33
2.4 -41.743 127.60 -0.21374 -146.26 -0.21374 -146.26 -41.743 127.60
2.43 -42.182 125.88 -0.21595 -148.08 -0.21595 -148.08 -42.182 125.88
2.46 -42.653 124.19 -0.21817 -149.90 -0.21817 -149.90 -42.653 124.19
2.49 -43.158 122.52 -0.22037 -151.72 -0.22037 -151.72 -43.158 122.52
2.52 -43.702 120.88 -0.22258 -153.54 -0.22258 -153.54 -43.702 120.88
2.55 -44.29 119.27 -0.22479 -155.37 -0.22479 -155.37 -44.29 119.27
2.58 -44.927 117.71 -0.22699 -157.19 -0.22699 -157.19 -44.927 117.71
2.61 -45.622 116.20 -0.2292 -159.01 -0.2292 -159.01 -45.622 116.20
2.64 -46.385 114.77 -0.2314 -160.83 -0.2314 -160.83 -46.385 114.77
2.67 -47.227 113.42 -0.2336 -162.65 -0.2336 -162.65 -47.227 113.42
2.7 -48.166 112.20 -0.2358 -164.47 -0.2358 -164.47 -48.166 112.20
2.73 -49.224 111.15 -0.23801 -166.29 -0.23801 -166.29 -49.224 111.15
2.76 -50.433 110.34 -0.24021 -168.11 -0.24021 -168.11 -50.433 110.34
2.79 -51.839 109.91 -0.24241 -169.93 -0.24241 -169.93 -51.839 109.91
2.82 -53.513 110.10 -0.24461 -171.75 -0.24461 -171.75 -53.513 110.10
2.85 -55.572 111.38 -0.24681 -173.57 -0.24681 -173.57 -55.572 111.38
2.88 -58.217 114.93 -0.24901 -175.39 -0.24901 -175.39 -58.217 114.93
2.91 -61.793 124.18 -0.2512 -177.21 -0.2512 -177.21 -61.793 124.18
2.94 -66.304 151.53 -0.2534 -179.03 -0.2534 -179.03 -66.304 151.53
2.97 -66.505 -153.43 -0.2556 179.15 -0.2556 179.15 -66.505 -153.43
3 -62.03 -124.58 -0.2578 177.33 -0.2578 177.33 -62.03 -124.58
3.03 -58.421 -114.86 -0.26 175.51 -0.26 175.51 -58.421 -114.86
3.06 -55.763 -111.15 -0.2622 173.69 -0.2622 173.69 -55.763 -111.15
3.09 -53.705 -109.78 -0.2644 171.87 -0.2644 171.87 -53.705 -109.78
3.12 -52.038 -109.55 -0.26659 170.05 -0.26659 170.05 -52.038 -109.55
3.15 -50.644 -109.94 -0.26879 168.23 -0.26879 168.23 -50.644 -109.94
3.18 -49.45 -110.72 -0.27099 166.41 -0.27099 166.41 -49.45 -110.72
3.21 -48.409 -111.75 -0.27318 164.59 -0.27318 164.59 -48.409 -111.75
3.24 -47.487 -112.94 -0.27538 162.77 -0.27538 162.77 -47.487 -112.94
3.27 -46.664 -114.26 -0.27758 160.95 -0.27758 160.95 -46.664 -114.26
3.3 -45.921 -115.67 -0.27977 159.13 -0.27977 159.13 -45.921 -115.67
3.33 -45.245 -117.15 -0.28197 157.31 -0.28197 157.31 -45.245 -117.15
3.36 -44.628 -118.68 -0.28416 155.49 -0.28416 155.49 -44.628 -118.68
3.39 -44.061 -120.25 -0.28636 153.67 -0.28636 153.67 -44.061 -120.25
3.42 -43.538 -121.86 -0.28855 151.85 -0.28855 151.85 -43.538 -121.86
3.45 -43.054 -123.49 -0.29074 150.03 -0.29074 150.03 -43.054 -123.49
3.48 -42.605 -125.15 -0.29293 148.21 -0.29293 148.21 -42.605 -125.15
3.51 -42.188 -126.82 -0.29512 146.39 -0.29512 146.39 -42.188 -126.82
3.54 -41.798 -128.51 -0.29731 144.57 -0.29731 144.57 -41.798 -128.51
3.57 -41.435 -130.22 -0.2995 142.75 -0.2995 142.75 -41.435 -130.22
3.6 -41.095 -131.93 -0.30168 140.93 -0.30168 140.93 -41.095 -131.93
3.63 -40.777 -133.66 -0.30387 139.11 -0.30387 139.11 -40.777 -133.66
3.66 -40.479 -135.39 -0.30605 137.29 -0.30605 137.29 -40.479 -135.39
3.69 -40.201 -137.13 -0.30823 135.47 -0.30823 135.47 -40.201 -137.13
3.72 -39.94 -138.88 -0.31041 133.65 -0.31041 133.65 -39.94 -138.88
3.75 -39.695 -140.63 -0.31259 131.83 -0.31259 131.83 -39.695 -140.63
3.78 -39.467 -142.39 -0.31477 130.01 -0.31477 130.01 -39.467 -142.39
3.81 -39.253 -144.15 -0.31694 128.20 -0.31694 128.20 -39.253 -144.15
3.84 -39.053 -145.92 -0.31911 126.38 -0.31911 126.38 -39.053 -145.92
3.87 -38.867 -147.68 -0.32128 124.56 -0.32128 124.56 -38.867 -147.68
3.9 -38.694 -149.45 -0.32345 122.74 -0.32345 122.74 -38.694 -149.45
3.93 -38.533 -151.23 -0.32561 120.92 -0.32561 120.92 -38.533 -151.23
3.96 -38.384 -153.00 -0.32777 119.10 -0.32777 119.10 -38.384 -153.00
3.99 -38.246 -154.78 -0.32993 117.28 -0.32993 117.28 -38.246 -154.78
4.02 -38.119 -156.55 -0.33209 115.46 -0.33209 115.46 -38.119 -156.55
4.05 -38.003 -158.33 -0.33424 113.64 -0.33424 113.64 -38.003 -158.33
4.08 -37.897 -160.11 -0.3364 111.82 -0.3364 111.82 -37.897 -160.11
4.11 -37.802 -161.89 -0.33854 110.00 -0.33854 110.00 -37.802 -161.89
4.14 -37.716 -163.67 -0.34069 108.19 -0.34069 108.19 -37.716 -163.67
4.17 -37.64 -165.45 -0.34283 106.37 -0.34283 106.37 -37.64 -165.45
4.2 -37.573 -167.23 -0.34497 104.55 -0.34497 104.55 -37.573 -167.23
4.23 -37.516 -169.02 -0.34711 102.73 -0.34711 102.73 -37.516 -169.02
4.26 -37.468 -170.80 -0.34924 100.91 -0.34924 100.91 -37.468 -170.80
4.29 -37.429 -172.58 -0.35137 99.09 -0.35137 99.09 -37.429 -172.58
4.32 -37.398 -174.36 -0.3535 97.27 -0.3535 97.27 -37.398 -174.36
4.35 -37.377 -176.14 -0.35563 95.45 -0.35563 95.45 -37.377 -176.14
4.38 -37.364 -177.92 -0.35775 93.64 -0.35775 93.64 -37.364 -177.92
4.41 -37.361 -179.69 -0.35987 91.82 -0.35987 91.82 -37.361 -179.69
4.44 -37.365 178.53 -0.36198 90.00 -0.36198 90.00 -37.365 178.53
4.47 -37.379 176.75 -0.3641 88.18 -0.3641 88.18 -37.379 176.75
4.5 -37.401 174.98 -0.36621 86.36 -0.36621 86.36 -37.401 174.98
4.53 -37.432 173.21 -0.36831 84.54 -0.36831 84.54 -37.432 173.21
4.56 -37.472 171.43 -0.37042 82.72 -0.37042 82.72 -37.472 171.43
4.59 -37.521 169.66 -0.37252 80.90 -0.37252 80.90 -37.521 169.66
4.62 -37.578 167.90 -0.37462 79.09 -0.37462 79.09 -37.578 167.90
4.65 -37.645 166.13 -0.37671 77.27 -0.37671 77.27 -37.645 166.13
4.68 -37.721 164.37 -0.3788 75.45 -0.3788 75.45 -37.721 164.37
4.71 -37.806 162.61 -0.38089 73.63 -0.38089 73.63 -37.806 162.61
4.74 -37.9 160.85 -0.38298 71.81 -0.38298 71.81 -37.9 160.85
4.77 -38.004 159.09 -0.38507 69.99 -0.38507 69.99 -38.004 159.09
4.8 -38.118 157.34 -0.38715 68.17 -0.38715 68.17 -38.118 157.34
4.83 -38.242 155.59 -0.38923 66.35 -0.38923 66.35 -38.242 155.59
4.86 -38.377 153.85 -0.39131 64.54 -0.39131 64.54 -38.377 153.85
4.89 -38.522 152.11 -0.39339 62.72 -0.39339 62.72 -38.522 152.11
4.92 -38.678 150.38 -0.39546 60.90 -0.39546 60.90 -38.678 150.38
4.95 -38.845 148.65 -0.39753 59.08 -0.39753 59.08 -38.845 148.65
4.98 -39.025 146.92 -0.3996 57.26 -0.3996 57.26 -39.025 146.92
5.01 -39.216 145.20 -0.40167 55.44 -0.40167 55.44 -39.216 145.20
5.04 -39.421 143.49 -0.40374 53.62 -0.40374 53.62 -39.421 143.49
5.07 -39.638 141.79 -0.40581 51.81 -0.40581 51.81 -39.638 141.79
5.1 -39.87 140.09 -0.40787 49.99 -0.40787 49.99 -39.87 140.09
5.13 -40.117 138.41 -0.40994 48.17 -0.40994 48.17 -40.117 138.41
5.16 -40.379 136.73 -0.412 46.35 -0.412 46.35 -40.379 136.73
5.19 -40.658 135.07 -0.41406 44.53 -0.41406 44.53 -40.658 135.07
5.22 -40.954 133.42 -0.41612 42.71 -0.41612 42.71 -40.954 133.42
5.25 -41.269 131.78 -0.41818 40.89 -0.41818 40.89 -41.269 131.78
5.28 -41.604 130.16 -0.42024 39.07 -0.42024 39.07 -41.604 130.16
5.31 -41.961 128.56 -0.4223 37.26 -0.4223 37.26 -41.961 128.56
5.34 -42.342 126.99 -0.42436 35.44 -0.42436 35.44 -42.342 126.99
5.37 -42.748 125.44 -0.42642 33.62 -0.42642 33.62 -42.748 125.44
5.4 -43.182 123.92 -0.42847 31.80 -0.42847 31.80 -43.182 123.92
5.43 -43.646 122.43 -0.43053 29.98 -0.43053 29.98 -43.646 122.43
5.46 -44.145 120.99 -0.43259 28.16 -0.43259 28.16 -44.145 120.99
5.49 -44.682 119.60 -0.43464 26.34 -0.43464 26.34 -44.682 119.60
5.52 -45.262 118.27 -0.4367 24.52 -0.4367 24.52 -45.262 118.27
5.55 -45.891 117.02 -0.43876 22.71 -0.43876 22.71 -45.891 117.02
5.58 -46.576 115.87 -0.44082 20.89 -0.44082 20.89 -46.576 115.87
5.61 -47.326 114.84 -0.44287 19.07 -0.44287 19.07 -47.326 114.84
5.64 -48.152 113.97 -0.44493 17.25 -0.44493 17.25 -48.152 113.97
5.67 -49.07 113.32 -0.44699 15.43 -0.44699 15.43 -49.07 113.32
5.7 -50.099 112.96 -0.44905 13.61 -0.44905 13.61 -50.099 112.96
5.73 -51.265 113.04 -0.45111 11.79 -0.45111 11.79 -51.265 113.04
5.76 -52.605 113.75 -0.45317 9.97 -0.45317 9.97 -52.605 113.75
5.79 -54.169 115.46 -0.45523 8.15 -0.45523 8.15 -54.169 115.46
5.82 -56.022 118.89 -0.45729 6.34 -0.45729 6.34 -56.022 118.89
5.85 -58.234 125.48 -0.45935 4.52 -0.45935 4.52 -58.234 125.48
5.88 -60.761 138.25 -0.46141 2.70 -0.46141 2.70 -60.761 138.25
5.91 -62.9 161.95 -0.46347 0.88 -0.46347 0.88 -62.9 161.95
5.94 -62.826 -166.80 -0.46553 -0.94 -0.46553 -0.94 -62.826 -166.80
5.97 -60.635 -143.81 -0.46759 -2.76 -0.46759 -2.76 -60.635 -143.81
6 -58.135 -131.52 -0.46966 -4.58 -0.46966 -4.58 -58.135 -131.52
