! yapnr rf coupon B: B02 S L2.5 (line, family S)
! stackup JLC06161H-2116C, nominal parameters; reference planes 10 mm from each end; 50 ohm (renormalized from the line's Zc)
! model: 2D quasi-static RLGC (Djordjevic-Sarkar, Huray roughness, Wheeler loss); generated by python -m yapnr.rf.coupons expected
# GHz S DB R 50
0.1 -76.98 20.35 -0.002866 -0.65 -0.002866 -0.65 -76.98 20.35
0.2 -76.53 31.36 -0.004527 -1.29 -0.004527 -1.29 -76.53 31.36
0.3 -75.98 48.24 -0.006038 -1.92 -0.006038 -1.92 -75.98 48.24
0.4 -74.53 65.87 -0.00747 -2.55 -0.00747 -2.55 -74.53 65.87
0.5 -72.45 79.47 -0.008853 -3.18 -0.008853 -3.18 -72.45 79.47
0.6 -70.26 88.43 -0.0102 -3.81 -0.0102 -3.81 -70.26 88.43
0.7 -68.21 94.09 -0.01152 -4.44 -0.01152 -4.44 -68.21 94.09
0.8 -66.38 97.64 -0.01282 -5.07 -0.01282 -5.07 -66.38 97.64
0.9 -64.75 99.89 -0.0141 -5.70 -0.0141 -5.70 -64.75 99.89
1 -63.3 101.29 -0.01537 -6.33 -0.01537 -6.33 -63.3 101.29
1.1 -62 102.13 -0.01662 -6.96 -0.01662 -6.96 -62 102.13
1.2 -60.82 102.58 -0.01786 -7.58 -0.01786 -7.58 -60.82 102.58
1.3 -59.74 102.76 -0.0191 -8.21 -0.0191 -8.21 -59.74 102.76
1.4 -58.76 102.75 -0.02032 -8.84 -0.02032 -8.84 -58.76 102.75
1.5 -57.85 102.60 -0.02154 -9.46 -0.02154 -9.46 -57.85 102.60
1.6 -57.01 102.33 -0.02275 -10.09 -0.02275 -10.09 -57.01 102.33
1.7 -56.22 101.99 -0.02396 -10.71 -0.02396 -10.71 -56.22 101.99
1.8 -55.49 101.57 -0.02516 -11.34 -0.02516 -11.34 -55.49 101.57
1.9 -54.8 101.11 -0.02635 -11.96 -0.02635 -11.96 -54.8 101.11
2 -54.15 100.61 -0.02754 -12.59 -0.02754 -12.59 -54.15 100.61
2.1 -53.53 100.08 -0.02873 -13.21 -0.02873 -13.21 -53.53 100.08
2.2 -52.95 99.52 -0.02991 -13.84 -0.02991 -13.84 -52.95 99.52
2.3 -52.4 98.94 -0.03109 -14.46 -0.03109 -14.46 -52.4 98.94
2.4 -51.88 98.35 -0.03226 -15.08 -0.03226 -15.08 -51.88 98.35
2.5 -51.38 97.74 -0.03343 -15.71 -0.03343 -15.71 -51.38 97.74
2.6 -50.9 97.12 -0.0346 -16.33 -0.0346 -16.33 -50.9 97.12
2.7 -50.44 96.49 -0.03576 -16.96 -0.03576 -16.96 -50.44 96.49
2.8 -50 95.86 -0.03692 -17.58 -0.03692 -17.58 -50 95.86
2.9 -49.58 95.22 -0.03808 -18.20 -0.03808 -18.20 -49.58 95.22
3 -49.18 94.57 -0.03924 -18.82 -0.03924 -18.82 -49.18 94.57
3.1 -48.79 93.92 -0.04039 -19.45 -0.04039 -19.45 -48.79 93.92
3.2 -48.41 93.26 -0.04154 -20.07 -0.04154 -20.07 -48.41 93.26
3.3 -48.05 92.60 -0.04269 -20.69 -0.04269 -20.69 -48.05 92.60
3.4 -47.7 91.94 -0.04384 -21.32 -0.04384 -21.32 -47.7 91.94
3.5 -47.37 91.28 -0.04498 -21.94 -0.04498 -21.94 -47.37 91.28
3.6 -47.04 90.62 -0.04612 -22.56 -0.04612 -22.56 -47.04 90.62
3.7 -46.72 89.95 -0.04726 -23.18 -0.04726 -23.18 -46.72 89.95
3.8 -46.42 89.29 -0.0484 -23.80 -0.0484 -23.80 -46.42 89.29
3.9 -46.12 88.62 -0.04954 -24.43 -0.04954 -24.43 -46.12 88.62
4 -45.83 87.96 -0.05067 -25.05 -0.05067 -25.05 -45.83 87.96
4.1 -45.55 87.29 -0.05181 -25.67 -0.05181 -25.67 -45.55 87.29
4.2 -45.28 86.62 -0.05294 -26.29 -0.05294 -26.29 -45.28 86.62
4.3 -45.02 85.96 -0.05407 -26.91 -0.05407 -26.91 -45.02 85.96
4.4 -44.76 85.29 -0.0552 -27.53 -0.0552 -27.53 -44.76 85.29
4.5 -44.51 84.62 -0.05632 -28.15 -0.05632 -28.15 -44.51 84.62
4.6 -44.27 83.96 -0.05745 -28.78 -0.05745 -28.78 -44.27 83.96
4.7 -44.03 83.29 -0.05857 -29.40 -0.05857 -29.40 -44.03 83.29
4.8 -43.8 82.62 -0.0597 -30.02 -0.0597 -30.02 -43.8 82.62
4.9 -43.58 81.96 -0.06082 -30.64 -0.06082 -30.64 -43.58 81.96
5 -43.36 81.29 -0.06194 -31.26 -0.06194 -31.26 -43.36 81.29
5.1 -43.15 80.63 -0.06306 -31.88 -0.06306 -31.88 -43.15 80.63
5.2 -42.94 79.96 -0.06418 -32.50 -0.06418 -32.50 -42.94 79.96
5.3 -42.74 79.30 -0.0653 -33.12 -0.0653 -33.12 -42.74 79.30
5.4 -42.54 78.64 -0.06641 -33.74 -0.06641 -33.74 -42.54 78.64
5.5 -42.34 77.98 -0.06753 -34.36 -0.06753 -34.36 -42.34 77.98
5.6 -42.15 77.31 -0.06864 -34.98 -0.06864 -34.98 -42.15 77.31
5.7 -41.97 76.65 -0.06976 -35.60 -0.06976 -35.60 -41.97 76.65
5.8 -41.79 75.99 -0.07087 -36.22 -0.07087 -36.22 -41.79 75.99
5.9 -41.61 75.33 -0.07198 -36.84 -0.07198 -36.84 -41.61 75.33
6 -41.44 74.67 -0.07309 -37.46 -0.07309 -37.46 -41.44 74.67
6.1 -41.27 74.01 -0.0742 -38.08 -0.0742 -38.08 -41.27 74.01
6.2 -41.11 73.36 -0.07531 -38.70 -0.07531 -38.70 -41.11 73.36
6.3 -40.94 72.70 -0.07642 -39.32 -0.07642 -39.32 -40.94 72.70
6.4 -40.79 72.04 -0.07752 -39.94 -0.07752 -39.94 -40.79 72.04
6.5 -40.63 71.38 -0.07863 -40.56 -0.07863 -40.56 -40.63 71.38
6.6 -40.48 70.73 -0.07973 -41.18 -0.07973 -41.18 -40.48 70.73
6.7 -40.33 70.07 -0.08084 -41.80 -0.08084 -41.80 -40.33 70.07
6.8 -40.19 69.42 -0.08194 -42.42 -0.08194 -42.42 -40.19 69.42
6.9 -40.04 68.76 -0.08305 -43.04 -0.08305 -43.04 -40.04 68.76
7 -39.9 68.11 -0.08415 -43.66 -0.08415 -43.66 -39.9 68.11
7.1 -39.77 67.46 -0.08525 -44.28 -0.08525 -44.28 -39.77 67.46
7.2 -39.63 66.81 -0.08635 -44.90 -0.08635 -44.90 -39.63 66.81
7.3 -39.5 66.15 -0.08745 -45.52 -0.08745 -45.52 -39.5 66.15
7.4 -39.38 65.50 -0.08855 -46.14 -0.08855 -46.14 -39.38 65.50
7.5 -39.25 64.85 -0.08965 -46.76 -0.08965 -46.76 -39.25 64.85
7.6 -39.13 64.20 -0.09075 -47.38 -0.09075 -47.38 -39.13 64.20
7.7 -39.01 63.55 -0.09185 -47.99 -0.09185 -47.99 -39.01 63.55
7.8 -38.89 62.90 -0.09294 -48.61 -0.09294 -48.61 -38.89 62.90
7.9 -38.77 62.25 -0.09404 -49.23 -0.09404 -49.23 -38.77 62.25
8 -38.66 61.61 -0.09514 -49.85 -0.09514 -49.85 -38.66 61.61
8.1 -38.55 60.96 -0.09623 -50.47 -0.09623 -50.47 -38.55 60.96
8.2 -38.44 60.31 -0.09732 -51.09 -0.09732 -51.09 -38.44 60.31
8.3 -38.33 59.66 -0.09842 -51.71 -0.09842 -51.71 -38.33 59.66
8.4 -38.23 59.02 -0.09951 -52.33 -0.09951 -52.33 -38.23 59.02
8.5 -38.12 58.37 -0.1006 -52.95 -0.1006 -52.95 -38.12 58.37
8.6 -38.02 57.73 -0.1017 -53.56 -0.1017 -53.56 -38.02 57.73
8.7 -37.93 57.08 -0.1028 -54.18 -0.1028 -54.18 -37.93 57.08
8.8 -37.83 56.44 -0.1039 -54.80 -0.1039 -54.80 -37.83 56.44
8.9 -37.74 55.79 -0.105 -55.42 -0.105 -55.42 -37.74 55.79
9 -37.64 55.15 -0.1061 -56.04 -0.1061 -56.04 -37.64 55.15
9.1 -37.55 54.51 -0.1071 -56.66 -0.1071 -56.66 -37.55 54.51
9.2 -37.46 53.86 -0.1082 -57.27 -0.1082 -57.27 -37.46 53.86
9.3 -37.38 53.22 -0.1093 -57.89 -0.1093 -57.89 -37.38 53.22
9.4 -37.29 52.58 -0.1104 -58.51 -0.1104 -58.51 -37.29 52.58
9.5 -37.21 51.94 -0.1115 -59.13 -0.1115 -59.13 -37.21 51.94
9.6 -37.13 51.30 -0.1126 -59.75 -0.1126 -59.75 -37.13 51.30
9.7 -37.05 50.66 -0.1137 -60.36 -0.1137 -60.36 -37.05 50.66
9.8 -36.97 50.02 -0.1148 -60.98 -0.1148 -60.98 -36.97 50.02
9.9 -36.89 49.38 -0.1158 -61.60 -0.1158 -61.60 -36.89 49.38
10 -36.82 48.74 -0.1169 -62.22 -0.1169 -62.22 -36.82 48.74
10.1 -36.74 48.10 -0.118 -62.84 -0.118 -62.84 -36.74 48.10
10.2 -36.67 47.46 -0.1191 -63.45 -0.1191 -63.45 -36.67 47.46
10.3 -36.6 46.82 -0.1202 -64.07 -0.1202 -64.07 -36.6 46.82
10.4 -36.53 46.19 -0.1213 -64.69 -0.1213 -64.69 -36.53 46.19
10.5 -36.46 45.55 -0.1223 -65.31 -0.1223 -65.31 -36.46 45.55
10.6 -36.4 44.91 -0.1234 -65.93 -0.1234 -65.93 -36.4 44.91
10.7 -36.33 44.28 -0.1245 -66.54 -0.1245 -66.54 -36.33 44.28
10.8 -36.27 43.64 -0.1256 -67.16 -0.1256 -67.16 -36.27 43.64
10.9 -36.21 43.00 -0.1267 -67.78 -0.1267 -67.78 -36.21 43.00
11 -36.15 42.37 -0.1277 -68.40 -0.1277 -68.40 -36.15 42.37
11.1 -36.09 41.73 -0.1288 -69.01 -0.1288 -69.01 -36.09 41.73
11.2 -36.04 41.10 -0.1299 -69.63 -0.1299 -69.63 -36.04 41.10
11.3 -35.98 40.46 -0.131 -70.25 -0.131 -70.25 -35.98 40.46
11.4 -35.93 39.83 -0.1321 -70.86 -0.1321 -70.86 -35.93 39.83
11.5 -35.87 39.20 -0.1331 -71.48 -0.1331 -71.48 -35.87 39.20
11.6 -35.82 38.56 -0.1342 -72.10 -0.1342 -72.10 -35.82 38.56
11.7 -35.77 37.93 -0.1353 -72.72 -0.1353 -72.72 -35.77 37.93
11.8 -35.72 37.30 -0.1364 -73.33 -0.1364 -73.33 -35.72 37.30
11.9 -35.68 36.67 -0.1374 -73.95 -0.1374 -73.95 -35.68 36.67
12 -35.63 36.03 -0.1385 -74.57 -0.1385 -74.57 -35.63 36.03
12.1 -35.59 35.40 -0.1396 -75.19 -0.1396 -75.19 -35.59 35.40
12.2 -35.54 34.77 -0.1406 -75.80 -0.1406 -75.80 -35.54 34.77
12.3 -35.5 34.14 -0.1417 -76.42 -0.1417 -76.42 -35.5 34.14
12.4 -35.46 33.51 -0.1428 -77.04 -0.1428 -77.04 -35.46 33.51
12.5 -35.42 32.88 -0.1439 -77.65 -0.1439 -77.65 -35.42 32.88
12.6 -35.38 32.25 -0.1449 -78.27 -0.1449 -78.27 -35.38 32.25
12.7 -35.34 31.62 -0.146 -78.89 -0.146 -78.89 -35.34 31.62
12.8 -35.31 30.99 -0.1471 -79.50 -0.1471 -79.50 -35.31 30.99
12.9 -35.27 30.36 -0.1481 -80.12 -0.1481 -80.12 -35.27 30.36
13 -35.24 29.73 -0.1492 -80.74 -0.1492 -80.74 -35.24 29.73
13.1 -35.21 29.11 -0.1503 -81.35 -0.1503 -81.35 -35.21 29.11
13.2 -35.18 28.48 -0.1513 -81.97 -0.1513 -81.97 -35.18 28.48
13.3 -35.15 27.85 -0.1524 -82.59 -0.1524 -82.59 -35.15 27.85
13.4 -35.12 27.22 -0.1535 -83.20 -0.1535 -83.20 -35.12 27.22
13.5 -35.09 26.60 -0.1545 -83.82 -0.1545 -83.82 -35.09 26.60
13.6 -35.06 25.97 -0.1556 -84.44 -0.1556 -84.44 -35.06 25.97
13.7 -35.04 25.34 -0.1566 -85.05 -0.1566 -85.05 -35.04 25.34
13.8 -35.01 24.72 -0.1577 -85.67 -0.1577 -85.67 -35.01 24.72
13.9 -34.99 24.09 -0.1588 -86.29 -0.1588 -86.29 -34.99 24.09
14 -34.97 23.47 -0.1598 -86.90 -0.1598 -86.90 -34.97 23.47
14.1 -34.95 22.84 -0.1609 -87.52 -0.1609 -87.52 -34.95 22.84
14.2 -34.93 22.22 -0.1619 -88.14 -0.1619 -88.14 -34.93 22.22
14.3 -34.91 21.59 -0.163 -88.75 -0.163 -88.75 -34.91 21.59
14.4 -34.89 20.97 -0.1641 -89.37 -0.1641 -89.37 -34.89 20.97
14.5 -34.88 20.35 -0.1651 -89.98 -0.1651 -89.98 -34.88 20.35
14.6 -34.86 19.72 -0.1662 -90.60 -0.1662 -90.60 -34.86 19.72
14.7 -34.85 19.10 -0.1672 -91.22 -0.1672 -91.22 -34.85 19.10
14.8 -34.84 18.48 -0.1683 -91.83 -0.1683 -91.83 -34.84 18.48
14.9 -34.83 17.85 -0.1693 -92.45 -0.1693 -92.45 -34.83 17.85
15 -34.82 17.23 -0.1704 -93.07 -0.1704 -93.07 -34.82 17.23
15.1 -34.81 16.61 -0.1714 -93.68 -0.1714 -93.68 -34.81 16.61
15.2 -34.8 15.99 -0.1725 -94.30 -0.1725 -94.30 -34.8 15.99
15.3 -34.79 15.37 -0.1735 -94.91 -0.1735 -94.91 -34.79 15.37
15.4 -34.79 14.75 -0.1746 -95.53 -0.1746 -95.53 -34.79 14.75
15.5 -34.78 14.13 -0.1756 -96.15 -0.1756 -96.15 -34.78 14.13
15.6 -34.78 13.51 -0.1767 -96.76 -0.1767 -96.76 -34.78 13.51
15.7 -34.78 12.89 -0.1777 -97.38 -0.1777 -97.38 -34.78 12.89
15.8 -34.77 12.27 -0.1788 -97.99 -0.1788 -97.99 -34.77 12.27
15.9 -34.77 11.65 -0.1798 -98.61 -0.1798 -98.61 -34.77 11.65
16 -34.78 11.03 -0.1809 -99.23 -0.1809 -99.23 -34.78 11.03
16.1 -34.78 10.41 -0.1819 -99.84 -0.1819 -99.84 -34.78 10.41
16.2 -34.78 9.79 -0.183 -100.46 -0.183 -100.46 -34.78 9.79
16.3 -34.79 9.17 -0.184 -101.07 -0.184 -101.07 -34.79 9.17
16.4 -34.79 8.56 -0.185 -101.69 -0.185 -101.69 -34.79 8.56
16.5 -34.8 7.94 -0.1861 -102.30 -0.1861 -102.30 -34.8 7.94
16.6 -34.81 7.32 -0.1871 -102.92 -0.1871 -102.92 -34.81 7.32
16.7 -34.82 6.71 -0.1882 -103.54 -0.1882 -103.54 -34.82 6.71
16.8 -34.83 6.09 -0.1892 -104.15 -0.1892 -104.15 -34.83 6.09
16.9 -34.84 5.47 -0.1902 -104.77 -0.1902 -104.77 -34.84 5.47
17 -34.85 4.86 -0.1913 -105.38 -0.1913 -105.38 -34.85 4.86
17.1 -34.86 4.24 -0.1923 -106.00 -0.1923 -106.00 -34.86 4.24
17.2 -34.88 3.63 -0.1933 -106.61 -0.1933 -106.61 -34.88 3.63
17.3 -34.9 3.02 -0.1944 -107.23 -0.1944 -107.23 -34.9 3.02
17.4 -34.91 2.40 -0.1954 -107.84 -0.1954 -107.84 -34.91 2.40
17.5 -34.93 1.79 -0.1964 -108.46 -0.1964 -108.46 -34.93 1.79
17.6 -34.95 1.18 -0.1975 -109.08 -0.1975 -109.08 -34.95 1.18
17.7 -34.97 0.56 -0.1985 -109.69 -0.1985 -109.69 -34.97 0.56
17.8 -34.99 -0.05 -0.1995 -110.31 -0.1995 -110.31 -34.99 -0.05
17.9 -35.02 -0.66 -0.2006 -110.92 -0.2006 -110.92 -35.02 -0.66
18 -35.04 -1.27 -0.2016 -111.54 -0.2016 -111.54 -35.04 -1.27
