! yapnr rf coupon B: B03 S L6.5 (line, family S)
! stackup JLC06161H-2116C, nominal parameters; reference planes 10 mm from each end; 50 ohm (renormalized from the line's Zc)
! model: 2D quasi-static RLGC (Djordjevic-Sarkar, Huray roughness, Wheeler loss); generated by python -m yapnr.rf.coupons expected
# GHz S DB R 50
0.1 -68.69 19.31 -0.007452 -1.69 -0.007452 -1.69 -68.69 19.31
0.2 -68.24 29.31 -0.01177 -3.34 -0.01177 -3.34 -68.24 29.31
0.3 -67.7 45.17 -0.0157 -4.99 -0.0157 -4.99 -67.7 45.17
0.4 -66.26 61.79 -0.01942 -6.64 -0.01942 -6.64 -66.26 61.79
0.5 -64.19 74.38 -0.02302 -8.28 -0.02302 -8.28 -64.19 74.38
0.6 -62.01 82.34 -0.02652 -9.92 -0.02652 -9.92 -62.01 82.34
0.7 -59.98 86.99 -0.02995 -11.56 -0.02995 -11.56 -59.98 86.99
0.8 -58.17 89.54 -0.03333 -13.19 -0.03333 -13.19 -58.17 89.54
0.9 -56.56 90.78 -0.03666 -14.82 -0.03666 -14.82 -56.56 90.78
1 -55.13 91.18 -0.03996 -16.46 -0.03996 -16.46 -55.13 91.18
1.1 -53.85 91.02 -0.04322 -18.09 -0.04322 -18.09 -53.85 91.02
1.2 -52.69 90.48 -0.04646 -19.72 -0.04646 -19.72 -52.69 90.48
1.3 -51.65 89.66 -0.04967 -21.35 -0.04967 -21.35 -51.65 89.66
1.4 -50.69 88.66 -0.05287 -22.97 -0.05287 -22.97 -50.69 88.66
1.5 -49.81 87.50 -0.05604 -24.60 -0.05604 -24.60 -49.81 87.50
1.6 -49 86.24 -0.0592 -26.23 -0.0592 -26.23 -49 86.24
1.7 -48.25 84.90 -0.06234 -27.85 -0.06234 -27.85 -48.25 84.90
1.8 -47.56 83.50 -0.06546 -29.48 -0.06546 -29.48 -47.56 83.50
1.9 -46.91 82.04 -0.06858 -31.10 -0.06858 -31.10 -46.91 82.04
2 -46.3 80.55 -0.07168 -32.73 -0.07168 -32.73 -46.3 80.55
2.1 -45.73 79.03 -0.07477 -34.35 -0.07477 -34.35 -45.73 79.03
2.2 -45.2 77.48 -0.07786 -35.98 -0.07786 -35.98 -45.2 77.48
2.3 -44.69 75.91 -0.08093 -37.60 -0.08093 -37.60 -44.69 75.91
2.4 -44.22 74.33 -0.08399 -39.22 -0.08399 -39.22 -44.22 74.33
2.5 -43.77 72.73 -0.08705 -40.84 -0.08705 -40.84 -43.77 72.73
2.6 -43.35 71.12 -0.0901 -42.46 -0.0901 -42.46 -43.35 71.12
2.7 -42.95 69.51 -0.09314 -44.08 -0.09314 -44.08 -42.95 69.51
2.8 -42.57 67.88 -0.09618 -45.70 -0.09618 -45.70 -42.57 67.88
2.9 -42.21 66.25 -0.09921 -47.32 -0.09921 -47.32 -42.21 66.25
3 -41.87 64.62 -0.1022 -48.94 -0.1022 -48.94 -41.87 64.62
3.1 -41.54 62.99 -0.1052 -50.56 -0.1052 -50.56 -41.54 62.99
3.2 -41.24 61.35 -0.1083 -52.18 -0.1083 -52.18 -41.24 61.35
3.3 -40.95 59.71 -0.1113 -53.80 -0.1113 -53.80 -40.95 59.71
3.4 -40.67 58.06 -0.1143 -55.42 -0.1143 -55.42 -40.67 58.06
3.5 -40.41 56.42 -0.1173 -57.04 -0.1173 -57.04 -40.41 56.42
3.6 -40.16 54.77 -0.1203 -58.65 -0.1203 -58.65 -40.16 54.77
3.7 -39.93 53.13 -0.1232 -60.27 -0.1232 -60.27 -39.93 53.13
3.8 -39.7 51.48 -0.1262 -61.89 -0.1262 -61.89 -39.7 51.48
3.9 -39.49 49.84 -0.1292 -63.51 -0.1292 -63.51 -39.49 49.84
4 -39.29 48.19 -0.1322 -65.12 -0.1322 -65.12 -39.29 48.19
4.1 -39.11 46.55 -0.1352 -66.74 -0.1352 -66.74 -39.11 46.55
4.2 -38.93 44.91 -0.1381 -68.35 -0.1381 -68.35 -38.93 44.91
4.3 -38.76 43.26 -0.1411 -69.97 -0.1411 -69.97 -38.76 43.26
4.4 -38.61 41.62 -0.144 -71.59 -0.144 -71.59 -38.61 41.62
4.5 -38.46 39.98 -0.147 -73.20 -0.147 -73.20 -38.46 39.98
4.6 -38.32 38.34 -0.15 -74.82 -0.15 -74.82 -38.32 38.34
4.7 -38.19 36.70 -0.1529 -76.43 -0.1529 -76.43 -38.19 36.70
4.8 -38.07 35.06 -0.1558 -78.04 -0.1558 -78.04 -38.07 35.06
4.9 -37.96 33.43 -0.1588 -79.66 -0.1588 -79.66 -37.96 33.43
5 -37.86 31.79 -0.1617 -81.27 -0.1617 -81.27 -37.86 31.79
5.1 -37.77 30.16 -0.1647 -82.89 -0.1647 -82.89 -37.77 30.16
5.2 -37.69 28.53 -0.1676 -84.50 -0.1676 -84.50 -37.69 28.53
5.3 -37.61 26.90 -0.1705 -86.11 -0.1705 -86.11 -37.61 26.90
5.4 -37.54 25.27 -0.1734 -87.73 -0.1734 -87.73 -37.54 25.27
5.5 -37.48 23.64 -0.1763 -89.34 -0.1763 -89.34 -37.48 23.64
5.6 -37.43 22.01 -0.1793 -90.95 -0.1793 -90.95 -37.43 22.01
5.7 -37.39 20.39 -0.1822 -92.56 -0.1822 -92.56 -37.39 20.39
5.8 -37.36 18.77 -0.1851 -94.18 -0.1851 -94.18 -37.36 18.77
5.9 -37.33 17.15 -0.188 -95.79 -0.188 -95.79 -37.33 17.15
6 -37.31 15.53 -0.1909 -97.40 -0.1909 -97.40 -37.31 15.53
6.1 -37.3 13.91 -0.1938 -99.01 -0.1938 -99.01 -37.3 13.91
6.2 -37.3 12.30 -0.1966 -100.62 -0.1966 -100.62 -37.3 12.30
6.3 -37.3 10.69 -0.1995 -102.23 -0.1995 -102.23 -37.3 10.69
6.4 -37.32 9.08 -0.2024 -103.85 -0.2024 -103.85 -37.32 9.08
6.5 -37.34 7.47 -0.2053 -105.46 -0.2053 -105.46 -37.34 7.47
6.6 -37.37 5.87 -0.2081 -107.07 -0.2081 -107.07 -37.37 5.87
6.7 -37.4 4.26 -0.211 -108.68 -0.211 -108.68 -37.4 4.26
6.8 -37.45 2.66 -0.2139 -110.29 -0.2139 -110.29 -37.45 2.66
6.9 -37.51 1.07 -0.2167 -111.90 -0.2167 -111.90 -37.51 1.07
7 -37.57 -0.53 -0.2196 -113.51 -0.2196 -113.51 -37.57 -0.53
7.1 -37.64 -2.12 -0.2224 -115.12 -0.2224 -115.12 -37.64 -2.12
7.2 -37.73 -3.71 -0.2253 -116.73 -0.2253 -116.73 -37.73 -3.71
7.3 -37.82 -5.29 -0.2281 -118.34 -0.2281 -118.34 -37.82 -5.29
7.4 -37.92 -6.87 -0.231 -119.95 -0.231 -119.95 -37.92 -6.87
7.5 -38.03 -8.45 -0.2338 -121.56 -0.2338 -121.56 -38.03 -8.45
7.6 -38.15 -10.02 -0.2366 -123.17 -0.2366 -123.17 -38.15 -10.02
7.7 -38.28 -11.59 -0.2394 -124.77 -0.2394 -124.77 -38.28 -11.59
7.8 -38.42 -13.15 -0.2423 -126.38 -0.2423 -126.38 -38.42 -13.15
7.9 -38.57 -14.71 -0.2451 -127.99 -0.2451 -127.99 -38.57 -14.71
8 -38.74 -16.27 -0.2479 -129.60 -0.2479 -129.60 -38.74 -16.27
8.1 -38.91 -17.82 -0.2507 -131.21 -0.2507 -131.21 -38.91 -17.82
8.2 -39.1 -19.36 -0.2535 -132.82 -0.2535 -132.82 -39.1 -19.36
8.3 -39.3 -20.89 -0.2563 -134.43 -0.2563 -134.43 -39.3 -20.89
8.4 -39.52 -22.42 -0.2591 -136.03 -0.2591 -136.03 -39.52 -22.42
8.5 -39.75 -23.94 -0.2619 -137.64 -0.2619 -137.64 -39.75 -23.94
8.6 -39.99 -25.45 -0.2647 -139.25 -0.2647 -139.25 -39.99 -25.45
8.7 -40.26 -26.95 -0.2675 -140.86 -0.2675 -140.86 -40.26 -26.95
8.8 -40.54 -28.43 -0.2703 -142.47 -0.2703 -142.47 -40.54 -28.43
8.9 -40.83 -29.91 -0.273 -144.07 -0.273 -144.07 -40.83 -29.91
9 -41.15 -31.37 -0.2758 -145.68 -0.2758 -145.68 -41.15 -31.37
9.1 -41.49 -32.81 -0.2786 -147.29 -0.2786 -147.29 -41.49 -32.81
9.2 -41.86 -34.23 -0.2814 -148.90 -0.2814 -148.90 -41.86 -34.23
9.3 -42.24 -35.63 -0.2841 -150.50 -0.2841 -150.50 -42.24 -35.63
9.4 -42.66 -37.01 -0.2869 -152.11 -0.2869 -152.11 -42.66 -37.01
9.5 -43.11 -38.36 -0.2897 -153.72 -0.2897 -153.72 -43.11 -38.36
9.6 -43.59 -39.66 -0.2924 -155.32 -0.2924 -155.32 -43.59 -39.66
9.7 -44.12 -40.93 -0.2952 -156.93 -0.2952 -156.93 -44.12 -40.93
9.8 -44.68 -42.14 -0.2979 -158.54 -0.2979 -158.54 -44.68 -42.14
9.9 -45.3 -43.29 -0.3007 -160.14 -0.3007 -160.14 -45.3 -43.29
10 -45.97 -44.35 -0.3034 -161.75 -0.3034 -161.75 -45.97 -44.35
10.1 -46.71 -45.31 -0.3062 -163.36 -0.3062 -163.36 -46.71 -45.31
10.2 -47.53 -46.12 -0.3089 -164.96 -0.3089 -164.96 -47.53 -46.12
10.3 -48.45 -46.75 -0.3117 -166.57 -0.3117 -166.57 -48.45 -46.75
10.4 -49.48 -47.12 -0.3144 -168.18 -0.3144 -168.18 -49.48 -47.12
10.5 -50.67 -47.12 -0.3172 -169.78 -0.3172 -169.78 -50.67 -47.12
10.6 -52.04 -46.53 -0.3199 -171.39 -0.3199 -171.39 -52.04 -46.53
10.7 -53.67 -45.02 -0.3226 -172.99 -0.3226 -172.99 -53.67 -45.02
10.8 -55.65 -41.85 -0.3254 -174.60 -0.3254 -174.60 -55.65 -41.85
10.9 -58.1 -35.44 -0.3281 -176.20 -0.3281 -176.20 -58.1 -35.44
11 -61.08 -21.84 -0.3309 -177.81 -0.3309 -177.81 -61.08 -21.84
11.1 -63.72 6.77 -0.3336 -179.42 -0.3336 -179.42 -63.72 6.77
11.2 -63.09 44.75 -0.3363 178.98 -0.3363 178.98 -63.09 44.75
11.3 -60.07 68.01 -0.3391 177.37 -0.3391 177.37 -60.07 68.01
11.4 -57.2 78.77 -0.3418 175.77 -0.3418 175.77 -57.2 78.77
11.5 -54.86 83.93 -0.3445 174.16 -0.3445 174.16 -54.86 83.93
11.6 -52.96 86.49 -0.3473 172.56 -0.3473 172.56 -52.96 86.49
11.7 -51.38 87.68 -0.35 170.95 -0.35 170.95 -51.38 87.68
11.8 -50.03 88.07 -0.3527 169.35 -0.3527 169.35 -50.03 88.07
11.9 -48.85 87.95 -0.3555 167.74 -0.3555 167.74 -48.85 87.95
12 -47.82 87.51 -0.3582 166.14 -0.3582 166.14 -47.82 87.51
12.1 -46.89 86.82 -0.361 164.53 -0.361 164.53 -46.89 86.82
12.2 -46.06 85.97 -0.3637 162.93 -0.3637 162.93 -46.06 85.97
12.3 -45.3 85.00 -0.3664 161.33 -0.3664 161.33 -45.3 85.00
12.4 -44.6 83.92 -0.3692 159.72 -0.3692 159.72 -44.6 83.92
12.5 -43.96 82.77 -0.3719 158.12 -0.3719 158.12 -43.96 82.77
12.6 -43.37 81.56 -0.3746 156.51 -0.3746 156.51 -43.37 81.56
12.7 -42.82 80.30 -0.3774 154.91 -0.3774 154.91 -42.82 80.30
12.8 -42.31 79.01 -0.3801 153.30 -0.3801 153.30 -42.31 79.01
12.9 -41.83 77.67 -0.3829 151.70 -0.3829 151.70 -41.83 77.67
13 -41.38 76.32 -0.3856 150.10 -0.3856 150.10 -41.38 76.32
13.1 -40.95 74.93 -0.3883 148.49 -0.3883 148.49 -40.95 74.93
13.2 -40.55 73.53 -0.3911 146.89 -0.3911 146.89 -40.55 73.53
13.3 -40.18 72.11 -0.3938 145.29 -0.3938 145.29 -40.18 72.11
13.4 -39.83 70.68 -0.3966 143.68 -0.3966 143.68 -39.83 70.68
13.5 -39.49 69.23 -0.3993 142.08 -0.3993 142.08 -39.49 69.23
13.6 -39.17 67.77 -0.4021 140.47 -0.4021 140.47 -39.17 67.77
13.7 -38.87 66.31 -0.4048 138.87 -0.4048 138.87 -38.87 66.31
13.8 -38.59 64.83 -0.4075 137.27 -0.4075 137.27 -38.59 64.83
13.9 -38.32 63.35 -0.4103 135.67 -0.4103 135.67 -38.32 63.35
14 -38.06 61.86 -0.413 134.06 -0.413 134.06 -38.06 61.86
14.1 -37.82 60.36 -0.4158 132.46 -0.4158 132.46 -37.82 60.36
14.2 -37.59 58.86 -0.4185 130.86 -0.4185 130.86 -37.59 58.86
14.3 -37.37 57.36 -0.4213 129.25 -0.4213 129.25 -37.37 57.36
14.4 -37.17 55.85 -0.424 127.65 -0.424 127.65 -37.17 55.85
14.5 -36.97 54.33 -0.4268 126.05 -0.4268 126.05 -36.97 54.33
14.6 -36.79 52.82 -0.4295 124.45 -0.4295 124.45 -36.79 52.82
14.7 -36.61 51.30 -0.4322 122.84 -0.4322 122.84 -36.61 51.30
14.8 -36.45 49.78 -0.435 121.24 -0.435 121.24 -36.45 49.78
14.9 -36.29 48.26 -0.4377 119.64 -0.4377 119.64 -36.29 48.26
15 -36.15 46.73 -0.4405 118.04 -0.4405 118.04 -36.15 46.73
15.1 -36.01 45.20 -0.4432 116.43 -0.4432 116.43 -36.01 45.20
15.2 -35.88 43.68 -0.446 114.83 -0.446 114.83 -35.88 43.68
15.3 -35.76 42.15 -0.4487 113.23 -0.4487 113.23 -35.76 42.15
15.4 -35.65 40.62 -0.4514 111.63 -0.4514 111.63 -35.65 40.62
15.5 -35.54 39.09 -0.4542 110.03 -0.4542 110.03 -35.54 39.09
15.6 -35.44 37.55 -0.4569 108.43 -0.4569 108.43 -35.44 37.55
15.7 -35.35 36.02 -0.4596 106.82 -0.4596 106.82 -35.35 36.02
15.8 -35.27 34.49 -0.4624 105.22 -0.4624 105.22 -35.27 34.49
15.9 -35.2 32.96 -0.4651 103.62 -0.4651 103.62 -35.2 32.96
16 -35.13 31.43 -0.4678 102.02 -0.4678 102.02 -35.13 31.43
16.1 -35.07 29.89 -0.4705 100.42 -0.4705 100.42 -35.07 29.89
16.2 -35.02 28.36 -0.4733 98.82 -0.4733 98.82 -35.02 28.36
16.3 -34.97 26.83 -0.476 97.22 -0.476 97.22 -34.97 26.83
16.4 -34.93 25.30 -0.4787 95.62 -0.4787 95.62 -34.93 25.30
16.5 -34.9 23.77 -0.4814 94.01 -0.4814 94.01 -34.9 23.77
16.6 -34.88 22.24 -0.4841 92.41 -0.4841 92.41 -34.88 22.24
16.7 -34.86 20.71 -0.4869 90.81 -0.4869 90.81 -34.86 20.71
16.8 -34.85 19.19 -0.4896 89.21 -0.4896 89.21 -34.85 19.19
16.9 -34.84 17.66 -0.4923 87.61 -0.4923 87.61 -34.84 17.66
17 -34.85 16.13 -0.495 86.01 -0.495 86.01 -34.85 16.13
17.1 -34.86 14.61 -0.4977 84.41 -0.4977 84.41 -34.86 14.61
17.2 -34.87 13.09 -0.5004 82.81 -0.5004 82.81 -34.87 13.09
17.3 -34.9 11.57 -0.5031 81.21 -0.5031 81.21 -34.9 11.57
17.4 -34.93 10.05 -0.5058 79.61 -0.5058 79.61 -34.93 10.05
17.5 -34.96 8.54 -0.5085 78.01 -0.5085 78.01 -34.96 8.54
17.6 -35.01 7.02 -0.5111 76.41 -0.5111 76.41 -35.01 7.02
17.7 -35.06 5.51 -0.5138 74.81 -0.5138 74.81 -35.06 5.51
17.8 -35.12 4.01 -0.5165 73.21 -0.5165 73.21 -35.12 4.01
17.9 -35.18 2.50 -0.5192 71.61 -0.5192 71.61 -35.18 2.50
18 -35.26 1.00 -0.5218 70.01 -0.5218 70.01 -35.26 1.00
