! yapnr rf coupon B: B04 S L16 (line, family S)
! stackup JLC06161H-2116C, nominal parameters; reference planes 10 mm from each end; 50 ohm (renormalized from the line's Zc)
! model: 2D quasi-static RLGC (Djordjevic-Sarkar, Huray roughness, Wheeler loss); generated by python -m yapnr.rf.coupons expected
# GHz S DB R 50
0.1 -60.88 16.85 -0.01834 -4.15 -0.01834 -4.15 -60.88 16.85
0.2 -60.46 24.43 -0.02897 -8.23 -0.02897 -8.23 -60.46 24.43
0.3 -59.95 37.88 -0.03864 -12.29 -0.03864 -12.29 -59.95 37.88
0.4 -58.56 52.11 -0.04781 -16.34 -0.04781 -16.34 -58.56 52.11
0.5 -56.55 62.31 -0.05667 -20.38 -0.05667 -20.38 -56.55 62.31
0.6 -54.44 67.89 -0.06529 -24.41 -0.06529 -24.41 -54.44 67.89
0.7 -52.5 70.17 -0.07375 -28.44 -0.07375 -28.44 -52.5 70.17
0.8 -50.79 70.35 -0.08207 -32.47 -0.08207 -32.47 -50.79 70.35
0.9 -49.29 69.23 -0.09028 -36.49 -0.09028 -36.49 -49.29 69.23
1 -47.98 67.26 -0.09841 -40.51 -0.09841 -40.51 -47.98 67.26
1.1 -46.83 64.75 -0.1065 -44.52 -0.1065 -44.52 -46.83 64.75
1.2 -45.83 61.85 -0.1144 -48.53 -0.1144 -48.53 -45.83 61.85
1.3 -44.95 58.69 -0.1224 -52.54 -0.1224 -52.54 -44.95 58.69
1.4 -44.17 55.33 -0.1303 -56.55 -0.1303 -56.55 -44.17 55.33
1.5 -43.48 51.84 -0.1381 -60.56 -0.1381 -60.56 -43.48 51.84
1.6 -42.88 48.25 -0.1459 -64.56 -0.1459 -64.56 -42.88 48.25
1.7 -42.36 44.57 -0.1537 -68.56 -0.1537 -68.56 -42.36 44.57
1.8 -41.9 40.84 -0.1614 -72.57 -0.1614 -72.57 -41.9 40.84
1.9 -41.51 37.07 -0.1691 -76.56 -0.1691 -76.56 -41.51 37.07
2 -41.18 33.26 -0.1767 -80.56 -0.1767 -80.56 -41.18 33.26
2.1 -40.91 29.43 -0.1844 -84.56 -0.1844 -84.56 -40.91 29.43
2.2 -40.69 25.58 -0.192 -88.55 -0.192 -88.55 -40.69 25.58
2.3 -40.53 21.71 -0.1996 -92.55 -0.1996 -92.55 -40.53 21.71
2.4 -40.42 17.84 -0.2072 -96.54 -0.2072 -96.54 -40.42 17.84
2.5 -40.36 13.97 -0.2147 -100.53 -0.2147 -100.53 -40.36 13.97
2.6 -40.35 10.09 -0.2222 -104.52 -0.2222 -104.52 -40.35 10.09
2.7 -40.39 6.22 -0.2297 -108.51 -0.2297 -108.51 -40.39 6.22
2.8 -40.49 2.35 -0.2372 -112.50 -0.2372 -112.50 -40.49 2.35
2.9 -40.64 -1.50 -0.2446 -116.49 -0.2446 -116.49 -40.64 -1.50
3 -40.85 -5.34 -0.252 -120.47 -0.252 -120.47 -40.85 -5.34
3.1 -41.13 -9.17 -0.2594 -124.46 -0.2594 -124.46 -41.13 -9.17
3.2 -41.47 -12.97 -0.2668 -128.44 -0.2668 -128.44 -41.47 -12.97
3.3 -41.88 -16.73 -0.2742 -132.43 -0.2742 -132.43 -41.88 -16.73
3.4 -42.37 -20.46 -0.2815 -136.41 -0.2815 -136.41 -42.37 -20.46
3.5 -42.96 -24.14 -0.2888 -140.39 -0.2888 -140.39 -42.96 -24.14
3.6 -43.65 -27.74 -0.2961 -144.37 -0.2961 -144.37 -43.65 -27.74
3.7 -44.47 -31.25 -0.3034 -148.35 -0.3034 -148.35 -44.47 -31.25
3.8 -45.44 -34.62 -0.3107 -152.33 -0.3107 -152.33 -45.44 -34.62
3.9 -46.6 -37.78 -0.3179 -156.31 -0.3179 -156.31 -46.6 -37.78
4 -48.03 -40.61 -0.3251 -160.29 -0.3251 -160.29 -48.03 -40.61
4.1 -49.82 -42.87 -0.3324 -164.27 -0.3324 -164.27 -49.82 -42.87
4.2 -52.16 -43.99 -0.3396 -168.25 -0.3396 -168.25 -52.16 -43.99
4.3 -55.44 -42.37 -0.3468 -172.22 -0.3468 -172.22 -55.44 -42.37
4.4 -60.54 -31.17 -0.354 -176.20 -0.354 -176.20 -60.54 -31.17
4.5 -65.89 27.51 -0.3611 179.82 -0.3611 179.82 -65.89 27.51
4.6 -59.76 78.99 -0.3683 175.85 -0.3683 175.85 -59.76 78.99
4.7 -54.78 88.41 -0.3755 171.87 -0.3755 171.87 -54.78 88.41
4.8 -51.5 89.62 -0.3826 167.90 -0.3826 167.90 -51.5 89.62
4.9 -49.1 88.35 -0.3898 163.93 -0.3898 163.93 -49.1 88.35
5 -47.22 86.04 -0.397 159.95 -0.397 159.95 -47.22 86.04
5.1 -45.7 83.20 -0.4041 155.98 -0.4041 155.98 -45.7 83.20
5.2 -44.42 80.05 -0.4113 152.01 -0.4113 152.01 -44.42 80.05
5.3 -43.33 76.71 -0.4184 148.04 -0.4184 148.04 -43.33 76.71
5.4 -42.39 73.24 -0.4256 144.07 -0.4256 144.07 -42.39 73.24
5.5 -41.57 69.68 -0.4327 140.10 -0.4327 140.10 -41.57 69.68
5.6 -40.86 66.06 -0.4398 136.13 -0.4398 136.13 -40.86 66.06
5.7 -40.23 62.39 -0.447 132.16 -0.447 132.16 -40.23 62.39
5.8 -39.68 58.69 -0.4541 128.19 -0.4541 128.19 -39.68 58.69
5.9 -39.19 54.96 -0.4613 124.22 -0.4613 124.22 -39.19 54.96
6 -38.77 51.22 -0.4684 120.25 -0.4684 120.25 -38.77 51.22
6.1 -38.41 47.46 -0.4755 116.28 -0.4755 116.28 -38.41 47.46
6.2 -38.1 43.69 -0.4826 112.32 -0.4826 112.32 -38.1 43.69
6.3 -37.83 39.92 -0.4898 108.35 -0.4898 108.35 -37.83 39.92
6.4 -37.62 36.14 -0.4969 104.38 -0.4969 104.38 -37.62 36.14
6.5 -37.45 32.36 -0.504 100.42 -0.504 100.42 -37.45 32.36
6.6 -37.32 28.59 -0.5111 96.45 -0.5111 96.45 -37.32 28.59
6.7 -37.24 24.81 -0.5181 92.49 -0.5181 92.49 -37.24 24.81
6.8 -37.2 21.05 -0.5252 88.52 -0.5252 88.52 -37.2 21.05
6.9 -37.2 17.29 -0.5323 84.56 -0.5323 84.56 -37.2 17.29
7 -37.24 13.54 -0.5393 80.60 -0.5393 80.60 -37.24 13.54
7.1 -37.33 9.80 -0.5463 76.63 -0.5463 76.63 -37.33 9.80
7.2 -37.46 6.08 -0.5533 72.67 -0.5533 72.67 -37.46 6.08
7.3 -37.64 2.38 -0.5603 68.71 -0.5603 68.71 -37.64 2.38
7.4 -37.86 -1.29 -0.5673 64.75 -0.5673 64.75 -37.86 -1.29
7.5 -38.14 -4.94 -0.5743 60.79 -0.5743 60.79 -38.14 -4.94
7.6 -38.47 -8.55 -0.5813 56.82 -0.5813 56.82 -38.47 -8.55
7.7 -38.86 -12.12 -0.5882 52.86 -0.5882 52.86 -38.86 -12.12
7.8 -39.32 -15.63 -0.5951 48.90 -0.5951 48.90 -39.32 -15.63
7.9 -39.84 -19.07 -0.602 44.94 -0.602 44.94 -39.84 -19.07
8 -40.45 -22.43 -0.6089 40.98 -0.6089 40.98 -40.45 -22.43
8.1 -41.16 -25.67 -0.6158 37.02 -0.6158 37.02 -41.16 -25.67
8.2 -41.97 -28.75 -0.6227 33.06 -0.6227 33.06 -41.97 -28.75
8.3 -42.92 -31.61 -0.6296 29.10 -0.6296 29.10 -42.92 -31.61
8.4 -44.04 -34.15 -0.6364 25.15 -0.6364 25.15 -44.04 -34.15
8.5 -45.37 -36.20 -0.6433 21.19 -0.6433 21.19 -45.37 -36.20
8.6 -46.98 -37.45 -0.6502 17.23 -0.6502 17.23 -46.98 -37.45
8.7 -48.99 -37.23 -0.657 13.27 -0.657 13.27 -48.99 -37.23
8.8 -51.58 -34.03 -0.6638 9.31 -0.6638 9.31 -51.58 -34.03
8.9 -54.94 -23.54 -0.6707 5.36 -0.6707 5.36 -54.94 -23.54
9 -58.33 5.65 -0.6775 1.40 -0.6775 1.40 -58.33 5.65
9.1 -57.42 48.68 -0.6844 -2.56 -0.6844 -2.56 -57.42 48.68
9.2 -53.71 70.27 -0.6912 -6.52 -0.6912 -6.52 -53.71 70.27
9.3 -50.56 77.64 -0.6981 -10.47 -0.6981 -10.47 -50.56 77.64
9.4 -48.13 79.63 -0.7049 -14.43 -0.7049 -14.43 -48.13 79.63
9.5 -46.22 79.30 -0.7118 -18.39 -0.7118 -18.39 -46.22 79.30
9.6 -44.66 77.78 -0.7186 -22.34 -0.7186 -22.34 -44.66 77.78
9.7 -43.36 75.58 -0.7255 -26.30 -0.7255 -26.30 -43.36 75.58
9.8 -42.26 72.96 -0.7324 -30.25 -0.7324 -30.25 -42.26 72.96
9.9 -41.31 70.06 -0.7392 -34.21 -0.7392 -34.21 -41.31 70.06
10 -40.48 66.98 -0.7461 -38.16 -0.7461 -38.16 -40.48 66.98
10.1 -39.76 63.75 -0.753 -42.12 -0.753 -42.12 -39.76 63.75
10.2 -39.13 60.43 -0.7599 -46.07 -0.7599 -46.07 -39.13 60.43
10.3 -38.58 57.03 -0.7668 -50.02 -0.7668 -50.02 -38.58 57.03
10.4 -38.1 53.58 -0.7736 -53.98 -0.7736 -53.98 -38.1 53.58
10.5 -37.68 50.08 -0.7805 -57.93 -0.7805 -57.93 -37.68 50.08
10.6 -37.32 46.55 -0.7874 -61.88 -0.7874 -61.88 -37.32 46.55
10.7 -37.01 42.99 -0.7943 -65.84 -0.7943 -65.84 -37.01 42.99
10.8 -36.75 39.42 -0.8012 -69.79 -0.8012 -69.79 -36.75 39.42
10.9 -36.54 35.83 -0.8081 -73.74 -0.8081 -73.74 -36.54 35.83
11 -36.37 32.24 -0.8149 -77.69 -0.8149 -77.69 -36.37 32.24
11.1 -36.24 28.63 -0.8218 -81.64 -0.8218 -81.64 -36.24 28.63
11.2 -36.16 25.03 -0.8286 -85.59 -0.8286 -85.59 -36.16 25.03
11.3 -36.12 21.43 -0.8355 -89.55 -0.8355 -89.55 -36.12 21.43
11.4 -36.12 17.84 -0.8423 -93.50 -0.8423 -93.50 -36.12 17.84
11.5 -36.16 14.25 -0.8491 -97.45 -0.8491 -97.45 -36.16 14.25
11.6 -36.24 10.68 -0.8559 -101.40 -0.8559 -101.40 -36.24 10.68
11.7 -36.37 7.13 -0.8627 -105.35 -0.8627 -105.35 -36.37 7.13
11.8 -36.54 3.60 -0.8695 -109.30 -0.8695 -109.30 -36.54 3.60
11.9 -36.75 0.10 -0.8763 -113.24 -0.8763 -113.24 -36.75 0.10
12 -37.02 -3.36 -0.883 -117.19 -0.883 -117.19 -37.02 -3.36
12.1 -37.33 -6.79 -0.8898 -121.14 -0.8898 -121.14 -37.33 -6.79
12.2 -37.7 -10.16 -0.8965 -125.09 -0.8965 -125.09 -37.7 -10.16
12.3 -38.13 -13.46 -0.9032 -129.04 -0.9032 -129.04 -38.13 -13.46
12.4 -38.63 -16.67 -0.9099 -132.99 -0.9099 -132.99 -38.63 -16.67
12.5 -39.2 -19.78 -0.9166 -136.94 -0.9166 -136.94 -39.2 -19.78
12.6 -39.86 -22.75 -0.9232 -140.88 -0.9232 -140.88 -39.86 -22.75
12.7 -40.61 -25.53 -0.9299 -144.83 -0.9299 -144.83 -40.61 -25.53
12.8 -41.48 -28.06 -0.9366 -148.78 -0.9366 -148.78 -41.48 -28.06
12.9 -42.48 -30.23 -0.9432 -152.73 -0.9432 -152.73 -42.48 -30.23
13 -43.65 -31.87 -0.9499 -156.67 -0.9499 -156.67 -43.65 -31.87
13.1 -45.04 -32.70 -0.9565 -160.62 -0.9565 -160.62 -45.04 -32.70
13.2 -46.71 -32.18 -0.9631 -164.57 -0.9631 -164.57 -46.71 -32.18
13.3 -48.72 -29.26 -0.9698 -168.52 -0.9698 -168.52 -48.72 -29.26
13.4 -51.12 -21.69 -0.9764 -172.46 -0.9764 -172.46 -51.12 -21.69
13.5 -53.62 -5.00 -0.9831 -176.41 -0.9831 -176.41 -53.62 -5.00
13.6 -54.69 23.28 -0.9897 179.64 -0.9897 179.64 -54.69 23.28
13.7 -53.1 49.55 -0.9964 175.70 -0.9964 175.70 -53.1 49.55
13.8 -50.53 63.80 -1.003 171.75 -1.003 171.75 -50.53 63.80
13.9 -48.18 70.08 -1.01 167.81 -1.01 167.81 -48.18 70.08
14 -46.22 72.36 -1.016 163.86 -1.016 163.86 -46.22 72.36
14.1 -44.6 72.54 -1.023 159.91 -1.023 159.91 -44.6 72.54
14.2 -43.24 71.53 -1.03 155.97 -1.03 155.97 -43.24 71.53
14.3 -42.09 69.79 -1.036 152.02 -1.036 152.02 -42.09 69.79
14.4 -41.09 67.57 -1.043 148.08 -1.043 148.08 -41.09 67.57
14.5 -40.23 65.02 -1.05 144.13 -1.05 144.13 -40.23 65.02
14.6 -39.47 62.24 -1.057 140.19 -1.057 140.19 -39.47 62.24
14.7 -38.81 59.29 -1.063 136.24 -1.063 136.24 -38.81 59.29
14.8 -38.24 56.21 -1.07 132.30 -1.07 132.30 -38.24 56.21
14.9 -37.73 53.04 -1.077 128.35 -1.077 128.35 -37.73 53.04
15 -37.29 49.79 -1.083 124.41 -1.083 124.41 -37.29 49.79
15.1 -36.91 46.49 -1.09 120.47 -1.09 120.47 -36.91 46.49
15.2 -36.58 43.14 -1.097 116.52 -1.097 116.52 -36.58 43.14
15.3 -36.3 39.76 -1.104 112.58 -1.104 112.58 -36.3 39.76
15.4 -36.07 36.35 -1.11 108.64 -1.11 108.64 -36.07 36.35
15.5 -35.89 32.92 -1.117 104.69 -1.117 104.69 -35.89 32.92
15.6 -35.75 29.48 -1.124 100.75 -1.124 100.75 -35.75 29.48
15.7 -35.65 26.04 -1.13 96.81 -1.13 96.81 -35.65 26.04
15.8 -35.59 22.59 -1.137 92.87 -1.137 92.87 -35.59 22.59
15.9 -35.57 19.15 -1.144 88.93 -1.144 88.93 -35.57 19.15
16 -35.59 15.71 -1.15 84.99 -1.15 84.99 -35.59 15.71
16.1 -35.65 12.28 -1.157 81.04 -1.157 81.04 -35.65 12.28
16.2 -35.76 8.88 -1.164 77.10 -1.164 77.10 -35.76 8.88
16.3 -35.91 5.49 -1.17 73.16 -1.17 73.16 -35.91 5.49
16.4 -36.1 2.14 -1.177 69.22 -1.177 69.22 -36.1 2.14
16.5 -36.33 -1.18 -1.184 65.28 -1.184 65.28 -36.33 -1.18
16.6 -36.62 -4.45 -1.19 61.34 -1.19 61.34 -36.62 -4.45
16.7 -36.96 -7.66 -1.197 57.40 -1.197 57.40 -36.96 -7.66
16.8 -37.35 -10.79 -1.203 53.46 -1.203 53.46 -37.35 -10.79
16.9 -37.8 -13.84 -1.21 49.52 -1.21 49.52 -37.8 -13.84
17 -38.32 -16.77 -1.216 45.58 -1.216 45.58 -38.32 -16.77
17.1 -38.91 -19.55 -1.223 41.64 -1.223 41.64 -38.91 -19.55
17.2 -39.59 -22.13 -1.229 37.70 -1.229 37.70 -39.59 -22.13
17.3 -40.37 -24.46 -1.236 33.76 -1.236 33.76 -40.37 -24.46
17.4 -41.25 -26.43 -1.242 29.82 -1.242 29.82 -41.25 -26.43
17.5 -42.28 -27.91 -1.249 25.88 -1.249 25.88 -42.28 -27.91
17.6 -43.46 -28.65 -1.255 21.94 -1.255 21.94 -43.46 -28.65
17.7 -44.84 -28.28 -1.262 18.00 -1.262 18.00 -44.84 -28.28
17.8 -46.45 -26.11 -1.268 14.06 -1.268 14.06 -46.45 -26.11
17.9 -48.29 -20.90 -1.275 10.12 -1.275 10.12 -48.29 -20.90
18 -50.24 -10.57 -1.281 6.18 -1.281 6.18 -50.24 -10.57
