! yapnr rf coupon B: B05 S L40 (line, family S)
! stackup JLC06161H-2116C, nominal parameters; reference planes 10 mm from each end; 50 ohm (renormalized from the line's Zc)
! model: 2D quasi-static RLGC (Djordjevic-Sarkar, Huray roughness, Wheeler loss); generated by python -m yapnr.rf.coupons expected
# GHz S DB R 50
0.1 -52.99 10.64 -0.04584 -10.38 -0.04584 -10.38 -52.99 10.64
0.2 -52.7 12.13 -0.07241 -20.58 -0.07241 -20.58 -52.7 12.13
0.3 -52.41 19.54 -0.0966 -30.73 -0.0966 -30.73 -52.41 19.54
0.4 -51.31 27.77 -0.1195 -40.85 -0.1195 -40.85 -51.31 27.77
0.5 -49.67 31.99 -0.1417 -50.95 -0.1417 -50.95 -49.67 31.99
0.6 -48.03 31.62 -0.1633 -61.04 -0.1633 -61.04 -48.03 31.62
0.7 -46.65 27.98 -0.1844 -71.11 -0.1844 -71.11 -46.65 27.98
0.8 -45.61 22.29 -0.2053 -81.17 -0.2053 -81.17 -45.61 22.29
0.9 -44.91 15.33 -0.2258 -91.22 -0.2258 -91.22 -44.91 15.33
1 -44.54 7.59 -0.2461 -101.27 -0.2461 -101.27 -44.54 7.59
1.1 -44.52 -0.64 -0.2663 -111.30 -0.2663 -111.30 -44.52 -0.64
1.2 -44.86 -9.14 -0.2862 -121.33 -0.2862 -121.33 -44.86 -9.14
1.3 -45.61 -17.73 -0.306 -131.36 -0.306 -131.36 -45.61 -17.73
1.4 -46.87 -26.24 -0.3257 -141.38 -0.3257 -141.38 -46.87 -26.24
1.5 -48.86 -34.32 -0.3452 -151.39 -0.3452 -151.39 -48.86 -34.32
1.6 -52.07 -41.03 -0.3646 -161.40 -0.3646 -161.40 -52.07 -41.03
1.7 -58.11 -41.58 -0.3839 -171.41 -0.3839 -171.41 -58.11 -41.58
1.8 -67.33 50.28 -0.4031 178.59 -0.4031 178.59 -67.33 50.28
1.9 -55.35 88.95 -0.4223 168.59 -0.4223 168.59 -55.35 88.95
2 -50 85.23 -0.4414 158.60 -0.4414 158.60 -50 85.23
2.1 -46.77 77.75 -0.4604 148.61 -0.4604 148.61 -46.77 77.75
2.2 -44.54 69.20 -0.4794 138.62 -0.4794 138.62 -44.54 69.20
2.3 -42.94 60.21 -0.4983 128.63 -0.4983 128.63 -42.94 60.21
2.4 -41.79 51.02 -0.5172 118.65 -0.5172 118.65 -41.79 51.02
2.5 -40.98 41.72 -0.5361 108.67 -0.5361 108.67 -40.98 41.72
2.6 -40.48 32.37 -0.5549 98.70 -0.5549 98.70 -40.48 32.37
2.7 -40.26 23.03 -0.5736 88.72 -0.5736 88.72 -40.26 23.03
2.8 -40.31 13.74 -0.5923 78.75 -0.5923 78.75 -40.31 13.74
2.9 -40.63 4.53 -0.6109 68.79 -0.6109 68.79 -40.63 4.53
3 -41.27 -4.52 -0.6294 58.82 -0.6294 58.82 -41.27 -4.52
3.1 -42.27 -13.30 -0.6479 48.86 -0.6479 48.86 -42.27 -13.30
3.2 -43.73 -21.60 -0.6663 38.90 -0.6663 38.90 -43.73 -21.60
3.3 -45.85 -28.93 -0.6847 28.94 -0.6847 28.94 -45.85 -28.93
3.4 -49.07 -33.81 -0.703 18.98 -0.703 18.98 -49.07 -33.81
3.5 -54.51 -29.47 -0.7212 9.02 -0.7212 9.02 -54.51 -29.47
3.6 -60.64 33.82 -0.7395 -0.93 -0.7395 -0.93 -60.64 33.82
3.7 -52.97 78.63 -0.7577 -10.88 -0.7577 -10.88 -52.97 78.63
3.8 -47.98 79.80 -0.7759 -20.84 -0.7759 -20.84 -47.98 79.80
3.9 -44.88 74.28 -0.7941 -30.78 -0.7941 -30.78 -44.88 74.28
4 -42.75 66.81 -0.8124 -40.73 -0.8124 -40.73 -42.75 66.81
4.1 -41.23 58.53 -0.8306 -50.68 -0.8306 -50.68 -41.23 58.53
4.2 -40.15 49.86 -0.8488 -60.62 -0.8488 -60.62 -40.15 49.86
4.3 -39.41 41.00 -0.867 -70.56 -0.867 -70.56 -39.41 41.00
4.4 -38.96 32.04 -0.8851 -80.50 -0.8851 -80.50 -38.96 32.04
4.5 -38.79 23.08 -0.9033 -90.44 -0.9033 -90.44 -38.79 23.08
4.6 -38.88 14.15 -0.9213 -100.38 -0.9213 -100.38 -38.88 14.15
4.7 -39.23 5.34 -0.9393 -110.31 -0.9393 -110.31 -39.23 5.34
4.8 -39.89 -3.26 -0.9573 -120.25 -0.9573 -120.25 -39.89 -3.26
4.9 -40.88 -11.51 -0.9752 -130.18 -0.9752 -130.18 -40.88 -11.51
5 -42.32 -19.13 -0.993 -140.11 -0.993 -140.11 -42.32 -19.13
5.1 -44.35 -25.50 -1.011 -150.04 -1.011 -150.04 -44.35 -25.50
5.2 -47.32 -28.93 -1.029 -159.97 -1.029 -159.97 -47.32 -28.93
5.3 -51.9 -22.88 -1.046 -169.90 -1.046 -169.90 -51.9 -22.88
5.4 -56.64 21.78 -1.064 -179.83 -1.064 -179.83 -56.64 21.78
5.5 -51.93 67.45 -1.082 170.25 -1.082 170.25 -51.93 67.45
5.6 -47.23 73.87 -1.1 160.32 -1.1 160.32 -47.23 73.87
5.7 -44.16 70.61 -1.117 150.40 -1.117 150.40 -44.16 70.61
5.8 -42.03 64.38 -1.135 140.48 -1.135 140.48 -42.03 64.38
5.9 -40.51 56.92 -1.153 130.56 -1.153 130.56 -40.51 56.92
6 -39.42 48.87 -1.171 120.64 -1.171 120.64 -39.42 48.87
6.1 -38.68 40.50 -1.189 110.72 -1.189 110.72 -38.68 40.50
6.2 -38.23 31.97 -1.206 100.80 -1.206 100.80 -38.23 31.97
6.3 -38.04 23.40 -1.224 90.88 -1.224 90.88 -38.04 23.40
6.4 -38.12 14.86 -1.242 80.97 -1.242 80.97 -38.12 14.86
6.5 -38.46 6.44 -1.259 71.06 -1.259 71.06 -38.46 6.44
6.6 -39.08 -1.75 -1.277 61.14 -1.277 61.14 -39.08 -1.75
6.7 -40.03 -9.52 -1.294 51.23 -1.294 51.23 -40.03 -9.52
6.8 -41.38 -16.57 -1.312 41.32 -1.312 41.32 -41.38 -16.57
6.9 -43.27 -22.24 -1.329 31.41 -1.329 31.41 -43.27 -22.24
7 -45.95 -24.82 -1.347 21.50 -1.347 21.50 -45.95 -24.82
7.1 -49.78 -18.88 -1.364 11.59 -1.364 11.59 -49.78 -18.88
7.2 -53.69 13.40 -1.382 1.68 -1.382 1.68 -53.69 13.40
7.3 -51.2 56.16 -1.399 -8.22 -1.399 -8.22 -51.2 56.16
7.4 -46.94 67.80 -1.416 -18.13 -1.416 -18.13 -46.94 67.80
7.5 -43.89 67.05 -1.434 -28.03 -1.434 -28.03 -43.89 67.05
7.6 -41.74 62.20 -1.451 -37.94 -1.451 -37.94 -41.74 62.20
7.7 -40.18 55.62 -1.469 -47.84 -1.469 -47.84 -40.18 55.62
7.8 -39.07 48.21 -1.486 -57.75 -1.486 -57.75 -39.07 48.21
7.9 -38.3 40.34 -1.504 -67.65 -1.504 -67.65 -38.3 40.34
8 -37.82 32.25 -1.521 -77.55 -1.521 -77.55 -37.82 32.25
8.1 -37.61 24.06 -1.539 -87.45 -1.539 -87.45 -37.61 24.06
8.2 -37.65 15.88 -1.556 -97.35 -1.556 -97.35 -37.65 15.88
8.3 -37.95 7.82 -1.574 -107.24 -1.574 -107.24 -37.95 7.82
8.4 -38.52 0.01 -1.591 -117.14 -1.591 -117.14 -38.52 0.01
8.5 -39.4 -7.36 -1.608 -127.03 -1.608 -127.03 -39.4 -7.36
8.6 -40.65 -13.96 -1.625 -136.93 -1.625 -136.93 -40.65 -13.96
8.7 -42.39 -19.13 -1.642 -146.82 -1.642 -146.82 -42.39 -19.13
8.8 -44.77 -21.32 -1.66 -156.72 -1.66 -156.72 -44.77 -21.32
8.9 -48.01 -16.23 -1.677 -166.61 -1.677 -166.61 -48.01 -16.23
9 -51.35 7.55 -1.694 -176.51 -1.694 -176.51 -51.35 7.55
9.1 -50.46 45.19 -1.711 173.60 -1.711 173.60 -50.46 45.19
9.2 -46.83 61.40 -1.728 163.71 -1.728 163.71 -46.83 61.40
9.3 -43.85 63.42 -1.745 153.82 -1.745 153.82 -43.85 63.42
9.4 -41.67 60.10 -1.762 143.93 -1.762 143.93 -41.67 60.10
9.5 -40.07 54.49 -1.78 134.04 -1.78 134.04 -40.07 54.49
9.6 -38.92 47.75 -1.797 124.15 -1.797 124.15 -38.92 47.75
9.7 -38.11 40.41 -1.814 114.26 -1.814 114.26 -38.11 40.41
9.8 -37.59 32.74 -1.832 104.37 -1.832 104.37 -37.59 32.74
9.9 -37.34 24.94 -1.849 94.49 -1.849 94.49 -37.34 24.94
10 -37.34 17.11 -1.866 84.60 -1.866 84.60 -37.34 17.11
10.1 -37.59 9.39 -1.883 74.72 -1.883 74.72 -37.59 9.39
10.2 -38.1 1.92 -1.9 64.83 -1.9 64.83 -38.1 1.92
10.3 -38.9 -5.11 -1.917 54.95 -1.917 54.95 -38.9 -5.11
10.4 -40.05 -11.35 -1.934 45.07 -1.934 45.07 -40.05 -11.35
10.5 -41.63 -16.19 -1.951 35.19 -1.951 35.19 -41.63 -16.19
10.6 -43.74 -18.27 -1.968 25.31 -1.968 25.31 -43.74 -18.27
10.7 -46.52 -14.26 -1.985 15.42 -1.985 15.42 -46.52 -14.26
10.8 -49.42 3.49 -2.002 5.54 -2.002 5.54 -49.42 3.49
10.9 -49.6 35.16 -2.019 -4.34 -2.019 -4.34 -49.6 35.16
11 -46.77 54.62 -2.036 -14.22 -2.036 -14.22 -46.77 54.62
11.1 -43.93 59.55 -2.053 -24.10 -2.053 -24.10 -43.93 59.55
11.2 -41.73 57.93 -2.07 -33.98 -2.07 -33.98 -41.73 57.93
11.3 -40.1 53.38 -2.087 -43.86 -2.087 -43.86 -40.1 53.38
11.4 -38.89 47.37 -2.104 -53.73 -2.104 -53.73 -38.89 47.37
11.5 -38.04 40.59 -2.121 -63.61 -2.121 -63.61 -38.04 40.59
11.6 -37.48 33.37 -2.138 -73.49 -2.138 -73.49 -37.48 33.37
11.7 -37.18 25.94 -2.155 -83.36 -2.155 -83.36 -37.18 25.94
11.8 -37.13 18.46 -2.172 -93.24 -2.172 -93.24 -37.13 18.46
11.9 -37.33 11.06 -2.189 -103.11 -2.189 -103.11 -37.33 11.06
12 -37.77 3.89 -2.206 -112.98 -2.206 -112.98 -37.77 3.89
12.1 -38.5 -2.84 -2.223 -122.85 -2.223 -122.85 -38.5 -2.84
12.2 -39.54 -8.81 -2.24 -132.73 -2.24 -132.73 -39.54 -8.81
12.3 -40.96 -13.44 -2.256 -142.60 -2.256 -142.60 -40.96 -13.44
12.4 -42.84 -15.57 -2.273 -152.47 -2.273 -152.47 -42.84 -15.57
12.5 -45.24 -12.62 -2.29 -162.34 -2.29 -162.34 -45.24 -12.62
12.6 -47.79 0.71 -2.306 -172.21 -2.306 -172.21 -47.79 0.71
12.7 -48.63 26.53 -2.323 177.92 -2.323 177.92 -48.63 26.53
12.8 -46.67 47.54 -2.34 168.05 -2.34 168.05 -46.67 47.54
12.9 -44.06 55.35 -2.357 158.18 -2.357 158.18 -44.06 55.35
13 -41.88 55.58 -2.374 148.31 -2.374 148.31 -41.88 55.58
13.1 -40.21 52.20 -2.39 138.44 -2.39 138.44 -40.21 52.20
13.2 -38.96 47.00 -2.407 128.57 -2.407 128.57 -38.96 47.00
13.3 -38.06 40.80 -2.424 118.70 -2.424 118.70 -38.06 40.80
13.4 -37.45 34.05 -2.441 108.84 -2.441 108.84 -37.45 34.05
13.5 -37.1 27.01 -2.458 98.97 -2.458 98.97 -37.1 27.01
13.6 -37 19.86 -2.475 89.11 -2.475 89.11 -37 19.86
13.7 -37.13 12.76 -2.492 79.24 -2.492 79.24 -37.13 12.76
13.8 -37.51 5.88 -2.508 69.38 -2.508 69.38 -37.51 5.88
13.9 -38.15 -0.59 -2.525 59.52 -2.525 59.52 -38.15 -0.59
14 -39.09 -6.34 -2.542 49.65 -2.542 49.65 -39.09 -6.34
14.1 -40.36 -10.84 -2.558 39.79 -2.558 39.79 -40.36 -10.84
14.2 -42.03 -13.11 -2.575 29.93 -2.575 29.93 -42.03 -13.11
14.3 -44.13 -11.14 -2.591 20.07 -2.591 20.07 -44.13 -11.14
14.4 -46.4 -1.14 -2.608 10.20 -2.608 10.20 -46.4 -1.14
14.5 -47.6 19.50 -2.625 0.34 -2.625 0.34 -47.6 19.50
14.6 -46.45 40.40 -2.641 -9.52 -2.641 -9.52 -46.45 40.40
14.7 -44.19 50.76 -2.658 -19.38 -2.658 -19.38 -44.19 50.76
14.8 -42.07 52.96 -2.674 -29.24 -2.674 -29.24 -42.07 52.96
14.9 -40.38 50.87 -2.691 -39.10 -2.691 -39.10 -40.38 50.87
15 -39.09 46.54 -2.708 -48.96 -2.708 -48.96 -39.09 46.54
15.1 -38.13 40.98 -2.725 -58.82 -2.725 -58.82 -38.13 40.98
15.2 -37.47 34.72 -2.741 -68.68 -2.741 -68.68 -37.47 34.72
15.3 -37.07 28.08 -2.758 -78.54 -2.758 -78.54 -37.07 28.08
15.4 -36.92 21.27 -2.775 -88.39 -2.775 -88.39 -36.92 21.27
15.5 -36.99 14.48 -2.792 -98.25 -2.792 -98.25 -36.99 14.48
15.6 -37.3 7.86 -2.808 -108.11 -2.808 -108.11 -37.3 7.86
15.7 -37.86 1.62 -2.825 -117.96 -2.825 -117.96 -37.86 1.62
15.8 -38.69 -3.95 -2.841 -127.82 -2.841 -127.82 -38.69 -3.95
15.9 -39.83 -8.37 -2.858 -137.67 -2.858 -137.67 -39.83 -8.37
16 -41.32 -10.83 -2.874 -147.53 -2.874 -147.53 -41.32 -10.83
16.1 -43.16 -9.73 -2.891 -157.38 -2.891 -157.38 -43.16 -9.73
16.2 -45.19 -2.28 -2.907 -167.23 -2.907 -167.23 -45.19 -2.28
16.3 -46.57 14.01 -2.923 -177.09 -2.923 -177.09 -46.57 14.01
16.4 -46.11 33.52 -2.94 173.06 -2.94 173.06 -46.11 33.52
16.5 -44.28 45.82 -2.956 163.20 -2.956 163.20 -44.28 45.82
16.6 -42.28 50.02 -2.973 153.35 -2.973 153.35 -42.28 50.02
16.7 -40.59 49.33 -2.989 143.50 -2.989 143.50 -40.59 49.33
16.8 -39.26 45.96 -3.006 133.65 -3.006 133.65 -39.26 45.96
16.9 -38.26 41.08 -3.023 123.79 -3.023 123.79 -38.26 41.08
17 -37.55 35.35 -3.039 113.94 -3.039 113.94 -37.55 35.35
17.1 -37.09 29.12 -3.056 104.09 -3.056 104.09 -37.09 29.12
17.2 -36.88 22.66 -3.072 94.24 -3.072 94.24 -36.88 22.66
17.3 -36.89 16.16 -3.089 84.39 -3.089 84.39 -36.89 16.16
17.4 -37.13 9.79 -3.105 74.55 -3.105 74.55 -37.13 9.79
17.5 -37.61 3.77 -3.122 64.70 -3.122 64.70 -37.61 3.77
17.6 -38.35 -1.65 -3.138 54.85 -3.138 54.85 -38.35 -1.65
17.7 -39.36 -6.03 -3.155 45.00 -3.155 45.00 -39.36 -6.03
17.8 -40.68 -8.67 -3.171 35.15 -3.171 35.15 -40.68 -8.67
17.9 -42.32 -8.33 -3.187 25.31 -3.187 25.31 -42.32 -8.33
18 -44.13 -2.89 -3.203 15.46 -3.203 15.46 -44.13 -2.89
