! yapnr rf coupon B: B06 S L100 (line, family S)
! stackup JLC06161H-2116C, nominal parameters; reference planes 10 mm from each end; 50 ohm (renormalized from the line's Zc)
! model: 2D quasi-static RLGC (Djordjevic-Sarkar, Huray roughness, Wheeler loss); generated by python -m yapnr.rf.coupons expected
# GHz S DB R 50
0.1 -45.35 -4.83 -0.1145 -25.95 -0.1145 -25.95 -45.35 -4.83
0.2 -45.86 -18.42 -0.1809 -51.45 -0.1809 -51.45 -45.86 -18.42
0.3 -46.95 -25.85 -0.2414 -76.82 -0.2414 -76.82 -46.95 -25.85
0.4 -47.99 -32.17 -0.2988 -102.12 -0.2988 -102.12 -47.99 -32.17
0.5 -49.67 -41.89 -0.3541 -127.38 -0.3541 -127.38 -49.67 -41.89
0.6 -53.81 -54.16 -0.408 -152.59 -0.408 -152.59 -53.81 -54.16
0.7 -70.08 -24.57 -0.4609 -177.77 -0.4609 -177.77 -70.08 -24.57
0.8 -53.91 72.81 -0.5129 157.08 -0.5129 157.08 -53.91 72.81
0.9 -47.78 55.13 -0.5643 131.95 -0.5643 131.95 -47.78 55.13
1 -45.1 34.14 -0.6151 106.83 -0.6151 106.83 -45.1 34.14
1.1 -44.37 12.36 -0.6654 81.74 -0.6654 81.74 -44.37 12.36
1.2 -45.44 -9.19 -0.7153 56.67 -0.7153 56.67 -45.44 -9.19
1.3 -49.07 -28.43 -0.7648 31.60 -0.7648 31.60 -49.07 -28.43
1.4 -59.89 -21.88 -0.8139 6.55 -0.8139 6.55 -59.89 -21.88
1.5 -52.58 77.93 -0.8627 -18.48 -0.8627 -18.48 -52.58 77.93
1.6 -45.91 63.47 -0.9113 -43.51 -0.9113 -43.51 -45.91 63.47
1.7 -43.11 42.53 -0.9598 -68.52 -0.9598 -68.52 -43.11 42.53
1.8 -42.3 20.62 -1.008 -93.52 -1.008 -93.52 -42.3 20.62
1.9 -43.2 -0.86 -1.056 -118.52 -1.056 -118.52 -43.2 -0.86
2 -46.31 -19.80 -1.104 -143.50 -1.104 -143.50 -46.31 -19.80
2.1 -54.24 -21.50 -1.151 -168.48 -1.151 -168.48 -54.24 -21.50
2.2 -53.05 70.88 -1.198 166.55 -1.198 166.55 -53.05 70.88
2.3 -45.47 65.61 -1.246 141.59 -1.246 141.59 -45.47 65.61
2.4 -42.3 46.62 -1.293 116.63 -1.293 116.63 -42.3 46.62
2.5 -41.24 25.67 -1.34 91.69 -1.34 91.69 -41.24 25.67
2.6 -41.84 4.87 -1.387 66.75 -1.387 66.75 -41.84 4.87
2.7 -44.4 -13.60 -1.434 41.82 -1.434 41.82 -44.4 -13.60
2.8 -50.49 -19.84 -1.48 16.89 -1.48 16.89 -50.49 -19.84
2.9 -53.91 55.20 -1.526 -8.03 -1.526 -8.03 -53.91 55.20
3 -45.72 65.76 -1.573 -32.95 -1.573 -32.95 -45.72 65.76
3.1 -42.05 49.66 -1.619 -57.86 -1.619 -57.86 -42.05 49.66
3.2 -40.66 29.94 -1.665 -82.76 -1.665 -82.76 -40.66 29.94
3.3 -40.92 9.92 -1.711 -107.66 -1.711 -107.66 -40.92 9.92
3.4 -42.96 -8.17 -1.757 -132.56 -1.757 -132.56 -42.96 -8.17
3.5 -47.77 -17.26 -1.803 -157.44 -1.803 -157.44 -47.77 -17.26
3.6 -53.74 32.56 -1.849 177.67 -1.849 177.67 -53.74 32.56
3.7 -46.37 63.99 -1.894 152.79 -1.894 152.79 -46.37 63.99
3.8 -42.15 52.02 -1.94 127.91 -1.94 127.91 -42.15 52.02
3.9 -40.38 33.83 -1.986 103.04 -1.986 103.04 -40.38 33.83
4 -40.29 14.65 -2.031 78.18 -2.031 78.18 -40.29 14.65
4.1 -41.85 -3.10 -2.077 53.31 -2.077 53.31 -41.85 -3.10
4.2 -45.69 -14.08 -2.122 28.46 -2.122 28.46 -45.69 -14.08
4.3 -51.96 12.73 -2.167 3.60 -2.167 3.60 -51.96 12.73
4.4 -47.26 59.61 -2.212 -21.25 -2.212 -21.25 -47.26 59.61
4.5 -42.5 53.63 -2.257 -46.10 -2.257 -46.10 -42.5 53.63
4.6 -40.32 37.37 -2.302 -70.94 -2.302 -70.94 -40.32 37.37
4.7 -39.87 19.12 -2.347 -95.78 -2.347 -95.78 -39.87 19.12
4.8 -40.99 1.74 -2.392 -120.62 -2.392 -120.62 -40.99 1.74
4.9 -44.05 -10.52 -2.437 -145.45 -2.437 -145.45 -44.05 -10.52
5 -49.58 1.32 -2.482 -170.28 -2.482 -170.28 -49.58 1.32
5.1 -48.17 51.73 -2.526 164.89 -2.526 164.89 -48.17 51.73
5.2 -43.04 54.23 -2.571 140.07 -2.571 140.07 -43.04 54.23
5.3 -40.44 40.48 -2.616 115.25 -2.616 115.25 -40.44 40.48
5.4 -39.62 23.34 -2.66 90.43 -2.66 90.43 -39.62 23.34
5.5 -40.33 6.40 -2.705 65.62 -2.705 65.62 -40.33 6.40
5.6 -42.75 -6.71 -2.749 40.81 -2.749 40.81 -42.75 -6.71
5.7 -47.37 -3.79 -2.794 16.00 -2.794 16.00 -47.37 -3.79
5.8 -48.72 40.19 -2.838 -8.80 -2.838 -8.80 -48.72 40.19
5.9 -43.74 53.48 -2.882 -33.60 -2.882 -33.60 -43.74 53.48
6 -40.71 43.07 -2.926 -58.40 -2.926 -58.40 -40.71 43.07
6.1 -39.53 27.27 -2.971 -83.20 -2.971 -83.20 -39.53 27.27
6.2 -39.84 10.87 -3.015 -107.99 -3.015 -107.99 -39.84 10.87
6.3 -41.72 -2.76 -3.059 -132.78 -3.059 -132.78 -41.72 -2.76
6.4 -45.51 -5.27 -3.103 -157.57 -3.103 -157.57 -45.51 -5.27
6.5 -48.54 26.95 -3.147 177.64 -3.147 177.64 -48.54 26.95
6.6 -44.53 50.92 -3.191 152.86 -3.191 152.86 -44.53 50.92
6.7 -41.13 44.96 -3.235 128.08 -3.235 128.08 -41.13 44.96
6.8 -39.56 30.86 -3.279 103.30 -3.279 103.30 -39.56 30.86
6.9 -39.5 15.15 -3.323 78.52 -3.323 78.52 -39.5 15.15
7 -40.89 1.25 -3.367 53.75 -3.367 53.75 -40.89 1.25
7.1 -43.98 -4.71 -3.41 28.98 -3.41 28.98 -43.98 -4.71
7.2 -47.62 15.46 -3.454 4.21 -3.454 4.21 -47.62 15.46
7.3 -45.29 46.13 -3.497 -20.56 -3.497 -20.56 -45.29 46.13
7.4 -41.65 45.96 -3.541 -45.32 -3.541 -45.32 -41.65 45.96
7.5 -39.72 34.02 -3.585 -70.08 -3.585 -70.08 -39.72 34.02
7.6 -39.29 19.20 -3.629 -94.84 -3.629 -94.84 -39.29 19.20
7.7 -40.25 5.27 -3.672 -119.60 -3.672 -119.60 -40.25 5.27
7.8 -42.74 -2.94 -3.716 -144.35 -3.716 -144.35 -42.74 -2.94
7.9 -46.31 7.64 -3.759 -169.11 -3.759 -169.11 -46.31 7.64
8 -45.86 39.05 -3.802 166.14 -3.802 166.14 -45.86 39.05
8.1 -42.27 45.83 -3.845 141.39 -3.845 141.39 -42.27 45.83
8.2 -40 36.66 -3.889 116.64 -3.889 116.64 -40 36.66
8.3 -39.2 22.97 -3.932 91.90 -3.932 91.90 -39.2 22.97
8.4 -39.76 9.23 -3.976 67.15 -3.976 67.15 -39.76 9.23
8.5 -41.73 -0.45 -4.019 42.41 -4.019 42.41 -41.73 -0.45
8.6 -44.95 3.31 -4.062 17.68 -4.062 17.68 -44.95 3.31
8.7 -46.03 30.40 -4.105 -7.06 -4.105 -7.06 -46.03 30.40
8.8 -42.93 44.29 -4.148 -31.80 -4.148 -31.80 -42.93 44.29
8.9 -40.37 38.65 -4.191 -56.53 -4.191 -56.53 -40.37 38.65
9 -39.23 26.42 -4.235 -81.27 -4.235 -81.27 -39.23 26.42
9.1 -39.42 13.08 -4.278 -106.00 -4.278 -106.00 -39.42 13.08
9.2 -40.92 2.48 -4.321 -130.72 -4.321 -130.72 -40.92 2.48
9.3 -43.69 1.56 -4.364 -155.45 -4.364 -155.45 -43.69 1.56
9.4 -45.73 21.73 -4.406 179.83 -4.406 179.83 -45.73 21.73
9.5 -43.56 41.14 -4.449 155.10 -4.449 155.10 -43.56 41.14
9.6 -40.83 39.84 -4.492 130.38 -4.492 130.38 -40.83 39.84
9.7 -39.37 29.45 -4.535 105.66 -4.535 105.66 -39.37 29.45
9.8 -39.2 16.76 -4.578 80.94 -4.578 80.94 -39.2 16.76
9.9 -40.28 5.65 -4.621 56.23 -4.621 56.23 -40.28 5.65
10 -42.59 1.54 -4.664 31.51 -4.664 31.51 -42.59 1.54
10.1 -45.03 14.57 -4.706 6.80 -4.706 6.80 -45.03 14.57
10.2 -44.06 36.37 -4.749 -17.91 -4.749 -17.91 -44.06 36.37
10.3 -41.35 40.06 -4.791 -42.62 -4.791 -42.62 -41.35 40.06
10.4 -39.6 32.00 -4.834 -67.33 -4.834 -67.33 -39.6 32.00
10.5 -39.09 20.23 -4.877 -92.04 -4.877 -92.04 -39.09 20.23
10.6 -39.78 8.94 -4.92 -116.74 -4.92 -116.74 -39.78 8.94
10.7 -41.66 2.66 -4.962 -141.44 -4.962 -141.44 -41.66 2.66
10.8 -44.13 9.62 -5.005 -166.14 -5.005 -166.14 -44.13 9.62
10.9 -44.31 30.38 -5.047 169.16 -5.047 169.16 -44.31 30.38
11 -41.89 39.14 -5.089 144.46 -5.089 144.46 -41.89 39.14
11.1 -39.91 33.95 -5.132 119.76 -5.132 119.76 -39.91 33.95
11.2 -39.09 23.40 -5.175 95.06 -5.175 95.06 -39.09 23.40
11.3 -39.42 12.24 -5.217 70.37 -5.217 70.37 -39.42 12.24
11.4 -40.9 4.52 -5.259 45.68 -5.259 45.68 -40.9 4.52
11.5 -43.18 6.79 -5.302 20.99 -5.302 20.99 -43.18 6.79
11.6 -44.24 23.98 -5.344 -3.70 -5.344 -3.70 -44.24 23.98
11.7 -42.41 36.97 -5.386 -28.39 -5.386 -28.39 -42.41 36.97
11.8 -40.3 35.20 -5.428 -53.08 -5.428 -53.08 -40.3 35.20
11.9 -39.18 26.21 -5.471 -77.77 -5.471 -77.77 -39.18 26.21
12 -39.18 15.46 -5.513 -102.45 -5.513 -102.45 -39.18 15.46
12.1 -40.28 6.84 -5.555 -127.13 -5.555 -127.13 -40.28 6.84
12.2 -42.29 5.65 -5.597 -151.81 -5.597 -151.81 -42.29 5.65
12.3 -43.87 18.17 -5.639 -176.50 -5.639 -176.50 -43.87 18.17
12.4 -42.83 33.58 -5.682 158.82 -5.682 158.82 -42.83 33.58
12.5 -40.73 35.60 -5.724 134.15 -5.724 134.15 -40.73 35.60
12.6 -39.36 28.58 -5.766 109.47 -5.766 109.47 -39.36 28.58
12.7 -39.05 18.53 -5.808 84.79 -5.808 84.79 -39.05 18.53
12.8 -39.8 9.44 -5.85 60.12 -5.85 60.12 -39.8 9.44
12.9 -41.49 5.77 -5.892 35.45 -5.892 35.45 -41.49 5.77
13 -43.29 13.62 -5.934 10.78 -5.934 10.78 -43.29 13.62
13.1 -43.08 29.23 -5.976 -13.89 -5.976 -13.89 -43.08 29.23
13.2 -41.18 35.07 -6.018 -38.56 -6.018 -38.56 -41.18 35.07
13.3 -39.62 30.42 -6.06 -63.23 -6.06 -63.23 -39.62 30.42
13.4 -39.02 21.37 -6.102 -87.90 -6.102 -87.90 -39.02 21.37
13.5 -39.44 12.16 -6.144 -112.56 -6.144 -112.56 -39.44 12.16
13.6 -40.8 6.76 -6.186 -137.22 -6.186 -137.22 -40.8 6.76
13.7 -42.6 10.59 -6.227 -161.89 -6.227 -161.89 -42.6 10.59
13.8 -43.1 24.44 -6.269 173.45 -6.269 173.45 -43.1 24.44
13.9 -41.6 33.53 -6.311 148.79 -6.311 148.79 -41.6 33.53
14 -39.94 31.63 -6.353 124.13 -6.353 124.13 -39.94 31.63
14.1 -39.08 23.91 -6.395 99.47 -6.395 99.47 -39.08 23.91
14.2 -39.19 14.90 -6.436 74.82 -6.436 74.82 -39.19 14.90
14.3 -40.23 8.35 -6.478 50.16 -6.478 50.16 -40.23 8.35
14.4 -41.89 8.95 -6.52 25.51 -6.52 25.51 -41.89 8.95
14.5 -42.9 19.84 -6.561 0.86 -6.561 0.86 -42.9 19.84
14.6 -41.95 31.03 -6.603 -23.80 -6.603 -23.80 -41.95 31.03
14.7 -40.29 32.12 -6.645 -48.45 -6.645 -48.45 -40.29 32.12
14.8 -39.22 26.05 -6.686 -73.10 -6.686 -73.10 -39.22 26.05
14.9 -39.04 17.56 -6.728 -97.75 -6.728 -97.75 -39.04 17.56
15 -39.78 10.32 -6.77 -122.39 -6.77 -122.39 -39.78 10.32
15.1 -41.23 8.47 -6.811 -147.04 -6.811 -147.04 -41.23 8.47
15.2 -42.52 15.99 -6.852 -171.69 -6.852 -171.69 -42.52 15.99
15.3 -42.17 27.77 -6.894 163.67 -6.894 163.67 -42.17 27.77
15.4 -40.66 31.82 -6.935 139.02 -6.935 139.02 -40.66 31.82
15.5 -39.42 27.73 -6.977 114.38 -6.977 114.38 -39.42 27.73
15.6 -38.99 20.04 -7.019 89.74 -7.019 89.74 -38.99 20.04
15.7 -39.43 12.51 -7.06 65.10 -7.06 65.10 -39.43 12.51
15.8 -40.64 8.86 -7.101 40.46 -7.101 40.46 -40.64 8.86
15.9 -42.02 13.16 -7.143 15.82 -7.143 15.82 -42.02 13.16
16 -42.23 24.11 -7.184 -8.81 -7.184 -8.81 -42.23 24.11
16.1 -41.01 30.70 -7.225 -33.45 -7.225 -33.45 -41.01 30.70
16.2 -39.68 28.87 -7.267 -58.09 -7.267 -58.09 -39.68 28.87
16.3 -39.02 22.28 -7.308 -82.72 -7.308 -82.72 -39.02 22.28
16.4 -39.19 14.79 -7.35 -107.35 -7.35 -107.35 -39.19 14.79
16.5 -40.13 9.88 -7.391 -131.98 -7.391 -131.98 -40.13 9.88
16.6 -41.47 11.42 -7.432 -156.62 -7.432 -156.62 -41.47 11.42
16.7 -42.12 20.48 -7.473 178.75 -7.473 178.75 -42.12 20.48
16.8 -41.3 28.81 -7.514 154.12 -7.514 154.12 -41.3 28.81
16.9 -39.97 29.38 -7.556 129.50 -7.556 129.50 -39.97 29.38
17 -39.12 24.18 -7.597 104.87 -7.597 104.87 -39.12 24.18
17.1 -39.03 17.04 -7.638 80.24 -7.638 80.24 -39.03 17.04
17.2 -39.72 11.34 -7.679 55.62 -7.679 55.62 -39.72 11.34
17.3 -40.93 10.64 -7.72 30.99 -7.72 30.99 -40.93 10.64
17.4 -41.85 17.30 -7.761 6.37 -7.761 6.37 -41.85 17.30
17.5 -41.49 26.31 -7.803 -18.25 -7.803 -18.25 -41.49 26.31
17.6 -40.28 29.22 -7.844 -42.87 -7.844 -42.87 -40.28 29.22
17.7 -39.28 25.68 -7.885 -67.50 -7.885 -67.50 -39.28 25.68
17.8 -38.97 19.18 -7.926 -92.12 -7.926 -92.12 -38.97 19.18
17.9 -39.4 13.07 -7.967 -116.73 -7.967 -116.73 -39.4 13.07
18 -40.43 10.65 -8.008 -141.35 -8.008 -141.35 -40.43 10.65
