! yapnr rf coupon B: B08 S VER28 (verify, family S)
! stackup JLC06161H-2116C, nominal parameters; reference planes 10 mm from each end; 50 ohm (renormalized from the line's Zc)
! model: 2D quasi-static RLGC (Djordjevic-Sarkar, Huray roughness, Wheeler loss); generated by python -m yapnr.rf.coupons expected
# GHz S DB R 50
0.1 -56.05 13.74 -0.03209 -7.27 -0.03209 -7.27 -56.05 13.74
0.2 -55.68 18.27 -0.05069 -14.41 -0.05069 -14.41 -55.68 18.27
0.3 -55.26 28.70 -0.06762 -21.51 -0.06762 -21.51 -55.26 28.70
0.4 -53.98 39.92 -0.08368 -28.60 -0.08368 -28.60 -53.98 39.92
0.5 -52.12 47.12 -0.09917 -35.67 -0.09917 -35.67 -52.12 47.12
0.6 -50.19 49.71 -0.1143 -42.73 -0.1143 -42.73 -50.19 49.71
0.7 -48.46 49.01 -0.1291 -49.78 -0.1291 -49.78 -48.46 49.01
0.8 -46.99 46.23 -0.1437 -56.82 -0.1437 -56.82 -46.99 46.23
0.9 -45.78 42.15 -0.1581 -63.86 -0.1581 -63.86 -45.78 42.15
1 -44.8 37.25 -0.1723 -70.89 -0.1723 -70.89 -44.8 37.25
1.1 -44.02 31.81 -0.1864 -77.91 -0.1864 -77.91 -44.02 31.81
1.2 -43.44 26.00 -0.2004 -84.93 -0.2004 -84.93 -43.44 26.00
1.3 -43.04 19.94 -0.2143 -91.95 -0.2143 -91.95 -43.04 19.94
1.4 -42.8 13.72 -0.2281 -98.97 -0.2281 -98.97 -42.8 13.72
1.5 -42.73 7.39 -0.2418 -105.98 -0.2418 -105.98 -42.73 7.39
1.6 -42.82 1.00 -0.2554 -112.98 -0.2554 -112.98 -42.82 1.00
1.7 -43.09 -5.43 -0.269 -119.99 -0.269 -119.99 -43.09 -5.43
1.8 -43.56 -11.84 -0.2824 -126.99 -0.2824 -126.99 -43.56 -11.84
1.9 -44.25 -18.21 -0.2959 -133.99 -0.2959 -133.99 -44.25 -18.21
2 -45.2 -24.45 -0.3092 -140.98 -0.3092 -140.98 -45.2 -24.45
2.1 -46.5 -30.48 -0.3225 -147.97 -0.3225 -147.97 -46.5 -30.48
2.2 -48.27 -36.08 -0.3357 -154.97 -0.3357 -154.97 -48.27 -36.08
2.3 -50.78 -40.73 -0.3489 -161.95 -0.3489 -161.95 -50.78 -40.73
2.4 -54.66 -42.68 -0.3621 -168.94 -0.3621 -168.94 -54.66 -42.68
2.5 -61.97 -30.47 -0.3752 -175.93 -0.3752 -175.93 -61.97 -30.47
2.6 -63.63 70.02 -0.3882 177.09 -0.3882 177.09 -63.63 70.02
2.7 -55.1 89.50 -0.4013 170.11 -0.4013 170.11 -55.1 89.50
2.8 -50.61 88.40 -0.4143 163.13 -0.4143 163.13 -50.61 88.40
2.9 -47.67 83.99 -0.4273 156.15 -0.4273 156.15 -47.67 83.99
3 -45.52 78.47 -0.4403 149.17 -0.4403 149.17 -45.52 78.47
3.1 -43.87 72.47 -0.4533 142.20 -0.4533 142.20 -43.87 72.47
3.2 -42.57 66.21 -0.4662 135.22 -0.4662 135.22 -42.57 66.21
3.3 -41.53 59.81 -0.4791 128.25 -0.4791 128.25 -41.53 59.81
3.4 -40.71 53.31 -0.4921 121.28 -0.4921 121.28 -40.71 53.31
3.5 -40.06 46.77 -0.505 114.31 -0.505 114.31 -40.06 46.77
3.6 -39.58 40.19 -0.5179 107.34 -0.5179 107.34 -39.58 40.19
3.7 -39.24 33.60 -0.5307 100.38 -0.5307 100.38 -39.24 33.60
3.8 -39.03 27.02 -0.5435 93.41 -0.5435 93.41 -39.03 27.02
3.9 -38.96 20.45 -0.5564 86.45 -0.5564 86.45 -38.96 20.45
4 -39.01 13.90 -0.5691 79.49 -0.5691 79.49 -39.01 13.90
4.1 -39.21 7.40 -0.5819 72.53 -0.5819 72.53 -39.21 7.40
4.2 -39.54 0.96 -0.5946 65.57 -0.5946 65.57 -39.54 0.96
4.3 -40.03 -5.39 -0.6072 58.61 -0.6072 58.61 -40.03 -5.39
4.4 -40.7 -11.61 -0.6198 51.65 -0.6198 51.65 -40.7 -11.61
4.5 -41.58 -17.64 -0.6324 44.69 -0.6324 44.69 -41.58 -17.64
4.6 -42.71 -23.37 -0.645 37.74 -0.645 37.74 -42.71 -23.37
4.7 -44.18 -28.62 -0.6575 30.78 -0.6575 30.78 -44.18 -28.62
4.8 -46.12 -32.96 -0.67 23.83 -0.67 23.83 -46.12 -32.96
4.9 -48.78 -35.36 -0.6825 16.87 -0.6825 16.87 -48.78 -35.36
5 -52.72 -32.32 -0.695 9.92 -0.695 9.92 -52.72 -32.32
5.1 -58.55 -6.42 -0.7074 2.97 -0.7074 2.97 -58.55 -6.42
5.2 -57.52 59.23 -0.7199 -3.98 -0.7199 -3.98 -57.52 59.23
5.3 -51.81 78.62 -0.7323 -10.93 -0.7323 -10.93 -51.81 78.62
5.4 -48.04 80.31 -0.7448 -17.88 -0.7448 -17.88 -48.04 80.31
5.5 -45.42 77.52 -0.7572 -24.83 -0.7572 -24.83 -45.42 77.52
5.6 -43.47 73.05 -0.7697 -31.78 -0.7697 -31.78 -43.47 73.05
5.7 -41.97 67.79 -0.7821 -38.72 -0.7821 -38.72 -41.97 67.79
5.8 -40.78 62.09 -0.7946 -45.67 -0.7946 -45.67 -40.78 62.09
5.9 -39.84 56.15 -0.8071 -52.61 -0.8071 -52.61 -39.84 56.15
6 -39.1 50.05 -0.8196 -59.56 -0.8196 -59.56 -39.1 50.05
6.1 -38.54 43.85 -0.832 -66.50 -0.832 -66.50 -38.54 43.85
6.2 -38.12 37.59 -0.8445 -73.44 -0.8445 -73.44 -38.12 37.59
6.3 -37.84 31.30 -0.8569 -80.38 -0.8569 -80.38 -37.84 31.30
6.4 -37.69 25.00 -0.8693 -87.32 -0.8693 -87.32 -37.69 25.00
6.5 -37.68 18.72 -0.8817 -94.26 -0.8817 -94.26 -37.68 18.72
6.6 -37.78 12.47 -0.8941 -101.20 -0.8941 -101.20 -37.78 12.47
6.7 -38.02 6.28 -0.9064 -108.14 -0.9064 -108.14 -38.02 6.28
6.8 -38.4 0.18 -0.9187 -115.08 -0.9187 -115.08 -38.4 0.18
6.9 -38.94 -5.81 -0.9309 -122.01 -0.9309 -122.01 -38.94 -5.81
7 -39.64 -11.60 -0.9432 -128.95 -0.9432 -128.95 -39.64 -11.60
7.1 -40.56 -17.13 -0.9554 -135.89 -0.9554 -135.89 -40.56 -17.13
7.2 -41.72 -22.23 -0.9675 -142.82 -0.9675 -142.82 -41.72 -22.23
7.3 -43.21 -26.62 -0.9797 -149.75 -0.9797 -149.75 -43.21 -26.62
7.4 -45.14 -29.71 -0.9918 -156.69 -0.9918 -156.69 -45.14 -29.71
7.5 -47.73 -30.08 -1.004 -163.62 -1.004 -163.62 -47.73 -30.08
7.6 -51.29 -23.44 -1.016 -170.56 -1.016 -170.56 -51.29 -23.44
7.7 -55.32 4.17 -1.028 -177.49 -1.028 -177.49 -55.32 4.17
7.8 -54.25 50.59 -1.04 175.58 -1.04 175.58 -54.25 50.59
7.9 -50.03 69.68 -1.052 168.65 -1.052 168.65 -50.03 69.68
8 -46.75 73.44 -1.065 161.72 -1.065 161.72 -46.75 73.44
8.1 -44.33 72.06 -1.077 154.79 -1.077 154.79 -44.33 72.06
8.2 -42.5 68.55 -1.089 147.86 -1.089 147.86 -42.5 68.55
8.3 -41.07 63.98 -1.101 140.93 -1.101 140.93 -41.07 63.98
8.4 -39.94 58.83 -1.113 134.00 -1.113 134.00 -39.94 58.83
8.5 -39.04 53.33 -1.125 127.07 -1.125 127.07 -39.04 53.33
8.6 -38.33 47.60 -1.138 120.14 -1.138 120.14 -38.33 47.60
8.7 -37.8 41.74 -1.15 113.22 -1.15 113.22 -37.8 41.74
8.8 -37.41 35.79 -1.162 106.29 -1.162 106.29 -37.41 35.79
8.9 -37.15 29.79 -1.174 99.37 -1.174 99.37 -37.15 29.79
9 -37.03 23.77 -1.186 92.44 -1.186 92.44 -37.03 23.77
9.1 -37.02 17.76 -1.198 85.52 -1.198 85.52 -37.02 17.76
9.2 -37.15 11.79 -1.21 78.59 -1.21 78.59 -37.15 11.79
9.3 -37.4 5.89 -1.223 71.67 -1.223 71.67 -37.4 5.89
9.4 -37.8 0.09 -1.235 64.75 -1.235 64.75 -37.8 0.09
9.5 -38.34 -5.55 -1.247 57.83 -1.247 57.83 -38.34 -5.55
9.6 -39.05 -10.95 -1.258 50.91 -1.258 50.91 -39.05 -10.95
9.7 -39.96 -16.01 -1.27 43.99 -1.27 43.99 -39.96 -16.01
9.8 -41.11 -20.54 -1.282 37.07 -1.282 37.07 -41.11 -20.54
9.9 -42.57 -24.18 -1.294 30.14 -1.294 30.14 -42.57 -24.18
10 -44.43 -26.24 -1.306 23.22 -1.306 23.22 -44.43 -26.24
10.1 -46.84 -25.13 -1.318 16.31 -1.318 16.31 -46.84 -25.13
10.2 -49.91 -16.73 -1.33 9.39 -1.33 9.39 -49.91 -16.73
10.3 -52.77 8.04 -1.342 2.47 -1.342 2.47 -52.77 8.04
10.4 -52.04 43.53 -1.354 -4.45 -1.354 -4.45 -52.04 43.53
10.5 -48.83 62.07 -1.365 -11.37 -1.365 -11.37 -48.83 62.07
10.6 -45.94 67.46 -1.377 -18.29 -1.377 -18.29 -45.94 67.46
10.7 -43.69 67.34 -1.389 -25.21 -1.389 -25.21 -43.69 67.34
10.8 -41.94 64.73 -1.401 -32.12 -1.401 -32.12 -41.94 64.73
10.9 -40.56 60.83 -1.413 -39.04 -1.413 -39.04 -40.56 60.83
11 -39.46 56.20 -1.425 -45.96 -1.425 -45.96 -39.46 56.20
11.1 -38.59 51.12 -1.437 -52.87 -1.437 -52.87 -38.59 51.12
11.2 -37.9 45.76 -1.449 -59.79 -1.449 -59.79 -37.9 45.76
11.3 -37.38 40.22 -1.461 -66.70 -1.461 -66.70 -37.38 40.22
11.4 -37 34.55 -1.473 -73.62 -1.473 -73.62 -37 34.55
11.5 -36.75 28.83 -1.485 -80.53 -1.485 -80.53 -36.75 28.83
11.6 -36.64 23.07 -1.497 -87.44 -1.497 -87.44 -36.64 23.07
11.7 -36.64 17.32 -1.509 -94.35 -1.509 -94.35 -36.64 17.32
11.8 -36.77 11.61 -1.521 -101.27 -1.521 -101.27 -36.77 11.61
11.9 -37.02 5.98 -1.533 -108.18 -1.533 -108.18 -37.02 5.98
12 -37.41 0.47 -1.544 -115.09 -1.544 -115.09 -37.41 0.47
12.1 -37.95 -4.85 -1.556 -122.00 -1.556 -122.00 -37.95 -4.85
12.2 -38.65 -9.90 -1.568 -128.91 -1.568 -128.91 -38.65 -9.90
12.3 -39.54 -14.55 -1.58 -135.82 -1.58 -135.82 -39.54 -14.55
12.4 -40.66 -18.58 -1.591 -142.73 -1.591 -142.73 -40.66 -18.58
12.5 -42.05 -21.60 -1.603 -149.64 -1.603 -149.64 -42.05 -21.60
12.6 -43.81 -22.87 -1.615 -156.55 -1.615 -156.55 -43.81 -22.87
12.7 -46 -20.84 -1.626 -163.46 -1.626 -163.46 -46 -20.84
12.8 -48.59 -12.02 -1.638 -170.37 -1.638 -170.37 -48.59 -12.02
12.9 -50.76 9.14 -1.65 -177.27 -1.65 -177.27 -50.76 9.14
13 -50.37 37.60 -1.662 175.82 -1.662 175.82 -50.37 37.60
13.1 -47.91 55.37 -1.673 168.91 -1.673 168.91 -47.91 55.37
13.2 -45.37 62.06 -1.685 162.00 -1.685 162.00 -45.37 62.06
13.3 -43.27 63.10 -1.697 155.09 -1.697 155.09 -43.27 63.10
13.4 -41.6 61.35 -1.708 148.19 -1.708 148.19 -41.6 61.35
13.5 -40.26 58.10 -1.72 141.28 -1.72 141.28 -40.26 58.10
13.6 -39.19 53.98 -1.732 134.37 -1.732 134.37 -39.19 53.98
13.7 -38.33 49.32 -1.744 127.47 -1.744 127.47 -38.33 49.32
13.8 -37.65 44.31 -1.756 120.56 -1.756 120.56 -37.65 44.31
13.9 -37.13 39.08 -1.767 113.66 -1.767 113.66 -37.13 39.08
14 -36.76 33.70 -1.779 106.75 -1.779 106.75 -36.76 33.70
14.1 -36.51 28.23 -1.791 99.85 -1.791 99.85 -36.51 28.23
14.2 -36.39 22.73 -1.803 92.94 -1.803 92.94 -36.39 22.73
14.3 -36.39 17.23 -1.815 86.04 -1.815 86.04 -36.39 17.23
14.4 -36.52 11.76 -1.826 79.14 -1.826 79.14 -36.52 11.76
14.5 -36.77 6.39 -1.838 72.24 -1.838 72.24 -36.77 6.39
14.6 -37.14 1.15 -1.85 65.33 -1.85 65.33 -37.14 1.15
14.7 -37.66 -3.89 -1.861 58.43 -1.861 58.43 -37.66 -3.89
14.8 -38.34 -8.62 -1.873 51.53 -1.873 51.53 -38.34 -8.62
14.9 -39.2 -12.91 -1.885 44.63 -1.885 44.63 -39.2 -12.91
15 -40.27 -16.52 -1.896 37.73 -1.896 37.73 -40.27 -16.52
15.1 -41.59 -19.05 -1.908 30.83 -1.908 30.83 -41.59 -19.05
15.2 -43.22 -19.77 -1.919 23.93 -1.919 23.93 -43.22 -19.77
15.3 -45.19 -17.27 -1.931 17.03 -1.931 17.03 -45.19 -17.27
15.4 -47.39 -8.79 -1.942 10.13 -1.942 10.13 -47.39 -8.79
15.5 -49.14 9.07 -1.954 3.23 -1.954 3.23 -49.14 9.07
15.6 -49.01 32.55 -1.965 -3.67 -1.965 -3.67 -49.01 32.55
15.7 -47.14 49.37 -1.977 -10.57 -1.977 -10.57 -47.14 49.37
15.8 -44.93 57.06 -1.988 -17.47 -1.988 -17.47 -44.93 57.06
15.9 -42.99 59.16 -2 -24.37 -2 -24.37 -42.99 59.16
16 -41.39 58.25 -2.012 -31.27 -2.012 -31.27 -41.39 58.25
16.1 -40.09 55.64 -2.023 -38.17 -2.023 -38.17 -40.09 55.64
16.2 -39.03 52.03 -2.035 -45.07 -2.035 -45.07 -39.03 52.03
16.3 -38.18 47.79 -2.046 -51.97 -2.046 -51.97 -38.18 47.79
16.4 -37.51 43.13 -2.058 -58.86 -2.058 -58.86 -37.51 43.13
16.5 -36.99 38.21 -2.07 -65.76 -2.07 -65.76 -36.99 38.21
16.6 -36.61 33.10 -2.082 -72.66 -2.082 -72.66 -36.61 33.10
16.7 -36.37 27.89 -2.093 -79.55 -2.093 -79.55 -36.37 27.89
16.8 -36.24 22.63 -2.105 -86.45 -2.105 -86.45 -36.24 22.63
16.9 -36.23 17.37 -2.116 -93.35 -2.116 -93.35 -36.23 17.37
17 -36.35 12.14 -2.128 -100.24 -2.128 -100.24 -36.35 12.14
17.1 -36.58 7.00 -2.14 -107.13 -2.14 -107.13 -36.58 7.00
17.2 -36.94 2.01 -2.151 -114.03 -2.151 -114.03 -36.94 2.01
17.3 -37.44 -2.76 -2.163 -120.92 -2.163 -120.92 -37.44 -2.76
17.4 -38.09 -7.21 -2.174 -127.82 -2.174 -127.82 -38.09 -7.21
17.5 -38.91 -11.19 -2.186 -134.71 -2.186 -134.71 -38.91 -11.19
17.6 -39.92 -14.45 -2.197 -141.60 -2.197 -141.60 -39.92 -14.45
17.7 -41.16 -16.61 -2.208 -148.50 -2.208 -148.50 -41.16 -16.61
17.8 -42.66 -16.99 -2.22 -155.39 -2.22 -155.39 -42.66 -16.99
17.9 -44.42 -14.33 -2.231 -162.28 -2.231 -162.28 -44.42 -14.33
18 -46.31 -6.56 -2.242 -169.18 -2.242 -169.18 -46.31 -6.56
