! yapnr rf coupon B: B09 S0.7 (variant, family S0.7)
! stackup JLC06161H-2116C, nominal parameters; reference planes 10 mm from each end; 50 ohm (renormalized from the line's Zc)
! model: 2D quasi-static RLGC (Djordjevic-Sarkar, Huray roughness, Wheeler loss); generated by python -m yapnr.rf.coupons expected
# GHz S DB R 50
0.1 -30.33 72.80 -0.05838 -10.53 -0.05838 -10.53 -30.33 72.80
0.2 -24.68 65.23 -0.09742 -20.85 -0.09742 -20.85 -24.68 65.23
0.3 -21.49 56.22 -0.1386 -31.09 -0.1386 -31.09 -21.49 56.22
0.4 -19.39 46.81 -0.1816 -41.26 -0.1816 -41.26 -19.39 46.81
0.5 -17.93 37.27 -0.2244 -51.36 -0.2244 -51.36 -17.93 37.27
0.6 -16.93 27.69 -0.2652 -61.40 -0.2652 -61.40 -16.93 27.69
0.7 -16.27 18.11 -0.3018 -71.38 -0.3018 -71.38 -16.27 18.11
0.8 -15.91 8.56 -0.3327 -81.34 -0.3327 -81.34 -15.91 8.56
0.9 -15.82 -0.97 -0.3569 -91.26 -0.3569 -91.26 -15.82 -0.97
1 -15.99 -10.46 -0.374 -101.18 -0.374 -101.18 -15.99 -10.46
1.1 -16.43 -19.91 -0.3847 -111.11 -0.3847 -111.11 -16.43 -19.91
1.2 -17.18 -29.28 -0.3901 -121.07 -0.3901 -121.07 -17.18 -29.28
1.3 -18.29 -38.53 -0.3921 -131.05 -0.3921 -131.05 -18.29 -38.53
1.4 -19.88 -47.53 -0.3929 -141.08 -0.3929 -141.08 -19.88 -47.53
1.5 -22.16 -55.97 -0.3949 -151.14 -0.3949 -151.14 -22.16 -55.97
1.6 -25.65 -62.92 -0.4004 -161.24 -0.4004 -161.24 -25.65 -62.92
1.7 -31.95 -63.31 -0.4111 -171.36 -0.4111 -171.36 -31.95 -63.31
1.8 -40.97 27.32 -0.4283 178.51 -0.4283 178.51 -40.97 27.32
1.9 -29.55 65.29 -0.4522 168.38 -0.4522 168.38 -29.55 65.29
2 -24.46 61.60 -0.4823 158.27 -0.4823 158.27 -24.46 61.60
2.1 -21.45 54.08 -0.5174 148.20 -0.5174 148.20 -21.45 54.08
2.2 -19.43 45.53 -0.5555 138.17 -0.5555 138.17 -19.43 45.53
2.3 -18.02 36.58 -0.5945 128.19 -0.5945 128.19 -18.02 36.58
2.4 -17.04 27.47 -0.632 118.25 -0.632 118.25 -17.04 27.47
2.5 -16.41 18.30 -0.6659 108.36 -0.6659 108.36 -16.41 18.30
2.6 -16.06 9.12 -0.6946 98.49 -0.6946 98.49 -16.06 9.12
2.7 -15.98 -0.04 -0.7171 88.64 -0.7171 88.64 -15.98 -0.04
2.8 -16.15 -9.14 -0.7329 78.79 -0.7329 78.79 -16.15 -9.14
2.9 -16.59 -18.16 -0.7426 68.93 -0.7426 68.93 -16.59 -18.16
3 -17.33 -27.04 -0.7473 59.04 -0.7473 59.04 -17.33 -27.04
3.1 -18.43 -35.68 -0.7487 49.12 -0.7487 49.12 -18.43 -35.68
3.2 -19.98 -43.85 -0.749 39.16 -0.749 39.16 -19.98 -43.85
3.3 -22.19 -51.04 -0.7503 29.16 -0.7503 29.16 -22.19 -51.04
3.4 -25.49 -55.72 -0.7549 19.12 -0.7549 19.12 -25.49 -55.72
3.5 -30.98 -50.86 -0.7644 9.06 -0.7644 9.06 -30.98 -50.86
3.6 -36.87 11.60 -0.78 -1.02 -0.78 -1.02 -36.87 11.60
3.7 -29.54 55.26 -0.8021 -11.09 -0.8021 -11.09 -29.54 55.26
3.8 -24.7 56.64 -0.8302 -21.15 -0.8302 -21.15 -24.7 56.64
3.9 -21.72 51.25 -0.8632 -31.18 -0.8632 -31.18 -21.72 51.25
4 -19.7 43.88 -0.8992 -41.17 -0.8992 -41.17 -19.7 43.88
4.1 -18.28 35.73 -0.9363 -51.11 -0.9363 -51.11 -18.28 35.73
4.2 -17.29 27.21 -0.9723 -61.02 -0.9723 -61.02 -17.29 27.21
4.3 -16.64 18.53 -1.005 -70.88 -1.005 -70.88 -16.64 18.53
4.4 -16.28 9.78 -1.033 -80.72 -1.033 -80.72 -16.28 9.78
4.5 -16.18 1.02 -1.055 -90.55 -1.055 -90.55 -16.18 1.02
4.6 -16.33 -7.68 -1.071 -100.37 -1.071 -100.37 -16.33 -7.68
4.7 -16.74 -16.28 -1.081 -110.20 -1.081 -110.20 -16.74 -16.28
4.8 -17.44 -24.70 -1.087 -120.05 -1.087 -120.05 -17.44 -24.70
4.9 -18.49 -32.78 -1.089 -129.94 -1.089 -129.94 -18.49 -32.78
5 -19.96 -40.24 -1.089 -139.87 -1.089 -139.87 -19.96 -40.24
5.1 -22.04 -46.45 -1.091 -149.83 -1.091 -149.83 -22.04 -46.45
5.2 -25.04 -49.65 -1.095 -159.84 -1.095 -159.84 -25.04 -49.65
5.3 -29.61 -43.17 -1.104 -169.86 -1.104 -169.86 -29.61 -43.17
5.4 -34.15 0.89 -1.118 -179.90 -1.118 -179.90 -34.15 0.89
5.5 -29.65 45.10 -1.139 170.06 -1.139 170.06 -29.65 45.10
5.6 -25.1 51.67 -1.165 160.03 -1.165 160.03 -25.1 51.67
5.7 -22.12 48.55 -1.196 150.03 -1.196 150.03 -22.12 48.55
5.8 -20.06 42.45 -1.23 140.06 -1.23 140.06 -20.06 42.45
5.9 -18.61 35.12 -1.266 130.14 -1.266 130.14 -18.61 35.12
6 -17.59 27.21 -1.301 120.25 -1.301 120.25 -17.59 27.21
6.1 -16.91 19.01 -1.333 110.40 -1.333 110.40 -16.91 19.01
6.2 -16.52 10.68 -1.36 100.57 -1.36 100.57 -16.52 10.68
6.3 -16.39 2.31 -1.383 90.77 -1.383 90.77 -16.39 2.31
6.4 -16.5 -6.02 -1.399 80.96 -1.399 80.96 -16.5 -6.02
6.5 -16.88 -14.24 -1.41 71.15 -1.41 71.15 -16.88 -14.24
6.6 -17.53 -22.23 -1.416 61.31 -1.416 61.31 -17.53 -22.23
6.7 -18.5 -29.84 -1.419 51.45 -1.419 51.45 -18.5 -29.84
6.8 -19.88 -36.73 -1.421 41.55 -1.421 41.55 -19.88 -36.73
6.9 -21.79 -42.23 -1.423 31.61 -1.423 31.61 -21.79 -42.23
7 -24.47 -44.60 -1.427 21.64 -1.427 21.64 -24.47 -44.60
7.1 -28.27 -38.34 -1.435 11.64 -1.435 11.64 -28.27 -38.34
7.2 -32.02 -6.49 -1.448 1.63 -1.448 1.63 -32.02 -6.49
7.3 -29.65 34.76 -1.467 -8.38 -1.467 -8.38 -29.65 34.76
7.4 -25.54 46.39 -1.492 -18.39 -1.492 -18.39 -25.54 46.39
7.5 -22.58 45.79 -1.521 -28.37 -1.521 -28.37 -22.58 45.79
7.6 -20.49 41.06 -1.554 -38.32 -1.554 -38.32 -20.49 41.06
7.7 -18.99 34.62 -1.588 -48.24 -1.588 -48.24 -18.99 34.62
7.8 -17.93 27.34 -1.621 -58.12 -1.621 -58.12 -17.93 27.34
7.9 -17.21 19.64 -1.653 -67.96 -1.653 -67.96 -17.21 19.64
8 -16.78 11.73 -1.68 -77.78 -1.68 -77.78 -16.78 11.73
8.1 -16.6 3.74 -1.703 -87.58 -1.703 -87.58 -16.6 3.74
8.2 -16.68 -4.24 -1.72 -97.37 -1.72 -97.37 -16.68 -4.24
8.3 -17 -12.10 -1.732 -107.17 -1.732 -107.17 -17 -12.10
8.4 -17.59 -19.72 -1.74 -116.99 -1.74 -116.99 -17.59 -19.72
8.5 -18.49 -26.92 -1.744 -126.83 -1.744 -126.83 -18.49 -26.92
8.6 -19.75 -33.36 -1.746 -136.71 -1.746 -136.71 -19.75 -33.36
8.7 -21.49 -38.37 -1.748 -146.63 -1.748 -146.63 -21.49 -38.37
8.8 -23.87 -40.36 -1.752 -156.57 -1.752 -156.57 -23.87 -40.36
8.9 -27.07 -35.04 -1.76 -166.54 -1.76 -166.54 -27.07 -35.04
9 -30.28 -11.56 -1.772 -176.53 -1.772 -176.53 -30.28 -11.56
9.1 -29.43 24.68 -1.79 173.47 -1.79 173.47 -29.43 24.68
9.2 -25.96 40.65 -1.813 163.49 -1.813 163.49 -25.96 40.65
9.3 -23.06 42.79 -1.841 153.52 -1.841 153.52 -23.06 42.79
9.4 -20.94 39.60 -1.871 143.58 -1.871 143.58 -20.94 39.60
9.5 -19.4 34.11 -1.904 133.67 -1.904 133.67 -19.4 34.11
9.6 -18.29 27.52 -1.937 123.80 -1.937 123.80 -18.29 27.52
9.7 -17.52 20.33 -1.967 113.96 -1.967 113.96 -17.52 20.33
9.8 -17.04 12.85 -1.995 104.15 -1.995 104.15 -17.04 12.85
9.9 -16.82 5.23 -2.018 94.35 -2.018 94.35 -16.82 5.23
10 -16.85 -2.41 -2.036 84.57 -2.036 84.57 -16.85 -2.41
10.1 -17.12 -9.93 -2.049 74.78 -2.049 74.78 -17.12 -9.93
10.2 -17.64 -17.22 -2.058 64.97 -2.058 64.97 -17.64 -17.22
10.3 -18.46 -24.08 -2.063 55.14 -2.063 55.14 -18.46 -24.08
10.4 -19.61 -30.16 -2.066 45.28 -2.066 45.28 -19.61 -30.16
10.5 -21.18 -34.84 -2.069 35.39 -2.069 35.39 -21.18 -34.84
10.6 -23.29 -36.74 -2.073 25.46 -2.073 25.46 -23.29 -36.74
10.7 -26.02 -32.56 -2.08 15.51 -2.08 15.51 -26.02 -32.56
10.8 -28.82 -15.02 -2.092 5.54 -2.092 5.54 -28.82 -15.02
10.9 -28.99 15.46 -2.108 -4.43 -2.108 -4.43 -28.99 15.46
11 -26.29 34.45 -2.13 -14.40 -2.13 -14.40 -26.29 34.45
11.1 -23.54 39.44 -2.155 -24.36 -2.155 -24.36 -23.54 39.44
11.2 -21.41 37.94 -2.185 -34.29 -2.185 -34.29 -21.41 37.94
11.3 -19.82 33.52 -2.216 -44.19 -2.216 -44.19 -19.82 33.52
11.4 -18.66 27.66 -2.247 -54.06 -2.247 -54.06 -18.66 27.66
11.5 -17.85 21.02 -2.278 -63.90 -2.278 -63.90 -17.85 21.02
11.6 -17.32 13.98 -2.305 -73.71 -2.305 -73.71 -17.32 13.98
11.7 -17.05 6.73 -2.328 -83.50 -2.328 -83.50 -17.05 6.73
11.8 -17.02 -0.57 -2.347 -93.28 -2.347 -93.28 -17.02 -0.57
11.9 -17.23 -7.78 -2.362 -103.06 -2.362 -103.06 -17.23 -7.78
12 -17.69 -14.76 -2.371 -112.86 -2.371 -112.86 -17.69 -14.76
12.1 -18.42 -21.32 -2.378 -122.68 -2.378 -122.68 -18.42 -21.32
12.2 -19.46 -27.13 -2.382 -132.52 -2.382 -132.52 -19.46 -27.13
12.3 -20.87 -31.60 -2.385 -142.40 -2.385 -142.40 -20.87 -31.60
12.4 -22.74 -33.57 -2.39 -152.30 -2.39 -152.30 -22.74 -33.57
12.5 -25.09 -30.49 -2.397 -162.23 -2.397 -162.23 -25.09 -30.49
12.6 -27.56 -17.32 -2.407 -172.18 -2.407 -172.18 -27.56 -17.32
12.7 -28.36 7.56 -2.422 177.86 -2.422 177.86 -28.36 7.56
12.8 -26.5 27.91 -2.442 167.91 -2.442 167.91 -26.5 27.91
12.9 -24 35.67 -2.466 157.96 -2.466 157.96 -24 35.67
13 -21.88 36.02 -2.494 148.04 -2.494 148.04 -21.88 36.02
13.1 -20.26 32.78 -2.524 138.14 -2.524 138.14 -20.26 32.78
13.2 -19.05 27.71 -2.554 128.27 -2.554 128.27 -19.05 27.71
13.3 -18.19 21.66 -2.584 118.44 -2.584 118.44 -18.19 21.66
13.4 -17.61 15.07 -2.611 108.63 -2.611 108.63 -17.61 15.07
13.5 -17.29 8.21 -2.635 98.84 -2.635 98.84 -17.29 8.21
13.6 -17.2 1.25 -2.655 89.06 -2.655 89.06 -17.2 1.25
13.7 -17.35 -5.66 -2.67 79.28 -2.67 79.28 -17.35 -5.66
13.8 -17.74 -12.37 -2.681 69.49 -2.681 69.49 -17.74 -12.37
13.9 -18.38 -18.66 -2.689 59.68 -2.689 59.68 -18.38 -18.66
14 -19.31 -24.25 -2.694 49.85 -2.694 49.85 -19.31 -24.25
14.1 -20.58 -28.60 -2.698 40.00 -2.698 40.00 -20.58 -28.60
14.2 -22.23 -30.73 -2.703 30.11 -2.703 30.11 -22.23 -30.73
14.3 -24.29 -28.65 -2.709 20.20 -2.709 20.20 -24.29 -28.65
14.4 -26.48 -18.77 -2.719 10.27 -2.719 10.27 -26.48 -18.77
14.5 -27.64 1.16 -2.733 0.33 -2.733 0.33 -27.64 1.16
14.6 -26.56 21.30 -2.752 -9.62 -2.752 -9.62 -26.56 21.30
14.7 -24.39 31.49 -2.774 -19.55 -2.774 -19.55 -24.39 31.49
14.8 -22.35 33.77 -2.8 -29.47 -2.8 -29.47 -22.35 33.77
14.9 -20.71 31.81 -2.829 -39.36 -2.829 -39.36 -20.71 31.81
15 -19.45 27.62 -2.858 -49.23 -2.858 -49.23 -19.45 27.62
15.1 -18.53 22.20 -2.887 -59.07 -2.887 -59.07 -18.53 22.20
15.2 -17.9 16.10 -2.915 -68.88 -2.915 -68.88 -17.9 16.10
15.3 -17.53 9.64 -2.939 -78.67 -2.939 -78.67 -17.53 9.64
15.4 -17.39 3.01 -2.959 -88.45 -2.959 -88.45 -17.39 3.01
15.5 -17.47 -3.61 -2.975 -98.22 -2.975 -98.22 -17.47 -3.61
15.6 -17.79 -10.05 -2.988 -108.00 -2.988 -108.00 -17.79 -10.05
15.7 -18.35 -16.11 -2.996 -117.80 -2.996 -117.80 -18.35 -16.11
15.8 -19.18 -21.52 -3.003 -127.62 -3.003 -127.62 -19.18 -21.52
15.9 -20.31 -25.80 -3.008 -137.46 -3.008 -137.46 -20.31 -25.80
16 -21.77 -28.11 -3.013 -147.33 -3.013 -147.33 -21.77 -28.11
16.1 -23.58 -26.93 -3.019 -157.22 -3.019 -157.22 -23.58 -26.93
16.2 -25.54 -19.56 -3.029 -167.14 -3.029 -167.14 -25.54 -19.56
16.3 -26.86 -3.81 -3.042 -177.06 -3.042 -177.06 -26.86 -3.81
16.4 -26.45 14.94 -3.059 173.00 -3.059 173.00 -26.45 14.94
16.5 -24.71 26.93 -3.08 163.08 -3.08 163.08 -24.71 26.93
16.6 -22.79 31.16 -3.104 153.17 -3.104 153.17 -22.79 31.16
16.7 -21.15 30.59 -3.131 143.28 -3.131 143.28 -21.15 30.59
16.8 -19.86 27.35 -3.16 133.41 -3.16 133.41 -19.86 27.35
16.9 -18.89 22.62 -3.188 123.58 -3.188 123.58 -18.89 22.62
17 -18.21 17.04 -3.215 113.76 -3.215 113.76 -18.21 17.04
17.1 -17.78 10.98 -3.239 103.97 -3.239 103.97 -17.78 10.98
17.2 -17.58 4.70 -3.261 94.19 -3.261 94.19 -17.58 4.70
17.3 -17.6 -1.62 -3.278 84.42 -3.278 84.42 -17.6 -1.62
17.4 -17.85 -7.81 -3.291 74.64 -3.291 74.64 -17.85 -7.81
17.5 -18.33 -13.67 -3.301 64.86 -3.301 64.86 -18.33 -13.67
17.6 -19.06 -18.92 -3.308 55.05 -3.308 55.05 -19.06 -18.92
17.7 -20.06 -23.16 -3.314 45.22 -3.314 45.22 -20.06 -23.16
17.8 -21.36 -25.68 -3.32 35.37 -3.32 35.37 -21.36 -25.68
17.9 -22.96 -25.25 -3.326 25.49 -3.326 25.49 -22.96 -25.25
18 -24.72 -19.86 -3.335 15.59 -3.335 15.59 -24.72 -19.86
