! yapnr rf coupon B: B10 S1.4 (variant, family S1.4)
! stackup JLC06161H-2116C, nominal parameters; reference planes 10 mm from each end; 50 ohm (renormalized from the line's Zc)
! model: 2D quasi-static RLGC (Djordjevic-Sarkar, Huray roughness, Wheeler loss); generated by python -m yapnr.rf.coupons expected
# GHz S DB R 50
0.1 -30.12 -98.86 -0.04492 -10.52 -0.04492 -10.52 -30.12 -98.86
0.2 -24.32 -110.66 -0.08309 -20.85 -0.08309 -20.85 -24.32 -110.66
0.3 -21.12 -121.48 -0.1251 -31.08 -0.1251 -31.08 -21.12 -121.48
0.4 -19.04 -131.94 -0.1692 -41.24 -0.1692 -41.24 -19.04 -131.94
0.5 -17.61 -142.18 -0.2129 -51.32 -0.2129 -51.32 -17.61 -142.18
0.6 -16.64 -152.27 -0.2537 -61.34 -0.2537 -61.34 -16.64 -152.27
0.7 -16.01 -162.24 -0.2894 -71.31 -0.2894 -71.31 -16.01 -162.24
0.8 -15.68 -172.12 -0.3184 -81.24 -0.3184 -81.24 -15.68 -172.12
0.9 -15.62 178.09 -0.3398 -91.15 -0.3398 -91.15 -15.62 178.09
1 -15.81 168.36 -0.3537 -101.06 -0.3537 -101.06 -15.81 168.36
1.1 -16.28 158.70 -0.3609 -110.98 -0.3609 -110.98 -16.28 158.70
1.2 -17.05 149.12 -0.363 -120.93 -0.363 -120.93 -17.05 149.12
1.3 -18.18 139.66 -0.3622 -130.92 -0.3622 -130.92 -18.18 139.66
1.4 -19.79 130.45 -0.3608 -140.96 -0.3608 -140.96 -19.79 130.45
1.5 -22.09 121.75 -0.3614 -151.03 -0.3614 -151.03 -22.09 121.75
1.6 -25.59 114.42 -0.3662 -161.13 -0.3662 -161.13 -25.59 114.42
1.7 -31.91 113.09 -0.3768 -171.26 -0.3768 -171.26 -31.91 113.09
1.8 -41.68 -154.53 -0.3941 178.61 -0.3941 178.61 -41.68 -154.53
1.9 -29.7 -116.03 -0.4183 168.49 -0.4183 168.49 -29.7 -116.03
2 -24.56 -120.18 -0.4485 158.39 -0.4485 158.39 -24.56 -120.18
2.1 -21.55 -127.93 -0.4832 148.33 -0.4832 148.33 -21.55 -127.93
2.2 -19.54 -136.65 -0.5202 138.31 -0.5202 138.31 -19.54 -136.65
2.3 -18.14 -145.72 -0.5574 128.35 -0.5574 128.35 -18.14 -145.72
2.4 -17.17 -154.93 -0.5925 118.42 -0.5925 118.42 -17.17 -154.93
2.5 -16.55 -164.20 -0.6234 108.53 -0.6234 108.53 -16.55 -164.20
2.6 -16.21 -173.48 -0.6489 98.67 -0.6489 98.67 -16.21 -173.48
2.7 -16.14 177.27 -0.6681 88.82 -0.6681 88.82 -16.14 177.27
2.8 -16.32 168.06 -0.6809 78.96 -0.6809 78.96 -16.32 168.06
2.9 -16.78 158.93 -0.6881 69.09 -0.6881 69.09 -16.78 158.93
3 -17.53 149.93 -0.691 59.19 -0.691 59.19 -17.53 149.93
3.1 -18.63 141.15 -0.6914 49.25 -0.6914 49.25 -18.63 141.15
3.2 -20.19 132.80 -0.6915 39.28 -0.6915 39.28 -20.19 132.80
3.3 -22.42 125.36 -0.6933 29.27 -0.6933 29.27 -22.42 125.36
3.4 -25.74 120.26 -0.6988 19.22 -0.6988 19.22 -25.74 120.26
3.5 -31.31 124.14 -0.7095 9.16 -0.7095 9.16 -31.31 124.14
3.6 -37.78 -171.86 -0.7261 -0.91 -0.7261 -0.91 -37.78 -171.86
3.7 -30.01 -126.53 -0.7488 -10.97 -0.7488 -10.97 -30.01 -126.53
3.8 -25.08 -125.65 -0.7769 -21.02 -0.7769 -21.02 -25.08 -125.65
3.9 -22.08 -131.31 -0.809 -31.03 -0.809 -31.03 -22.08 -131.31
4 -20.05 -138.85 -0.8434 -41.00 -0.8434 -41.00 -20.05 -138.85
4.1 -18.63 -147.13 -0.878 -50.94 -0.878 -50.94 -18.63 -147.13
4.2 -17.65 -155.75 -0.9108 -60.83 -0.9108 -60.83 -17.65 -155.75
4.3 -17 -164.53 -0.9402 -70.69 -0.9402 -70.69 -17 -164.53
4.4 -16.64 -173.37 -0.9646 -80.53 -0.9646 -80.53 -16.64 -173.37
4.5 -16.55 177.77 -0.9835 -90.37 -0.9835 -90.37 -16.55 177.77
4.6 -16.7 168.96 -0.9967 -100.20 -0.9967 -100.20 -16.7 168.96
4.7 -17.12 160.24 -1.005 -110.05 -1.005 -110.05 -17.12 160.24
4.8 -17.83 151.70 -1.009 -119.92 -1.009 -119.92 -17.83 151.70
4.9 -18.89 143.47 -1.011 -129.82 -1.011 -129.82 -18.89 143.47
5 -20.37 135.81 -1.012 -139.77 -1.012 -139.77 -20.37 135.81
5.1 -22.46 129.34 -1.015 -149.74 -1.015 -149.74 -22.46 129.34
5.2 -25.5 125.71 -1.021 -159.75 -1.021 -159.75 -25.5 125.71
5.3 -30.18 131.40 -1.031 -169.77 -1.031 -169.77 -30.18 131.40
5.4 -35.16 176.60 -1.047 -179.80 -1.047 -179.80 -35.16 176.60
5.5 -30.36 -136.91 -1.068 170.17 -1.068 170.17 -30.36 -136.91
5.6 -25.67 -130.77 -1.094 160.16 -1.094 160.16 -25.67 -130.77
5.7 -22.65 -134.21 -1.125 150.17 -1.125 150.17 -22.65 -134.21
5.8 -20.58 -140.52 -1.157 140.22 -1.157 140.22 -20.58 -140.52
5.9 -19.13 -148.00 -1.19 130.31 -1.19 130.31 -19.13 -148.00
6 -18.11 -156.03 -1.221 120.43 -1.221 120.43 -18.11 -156.03
6.1 -17.43 -164.34 -1.249 110.58 -1.249 110.58 -17.43 -164.34
6.2 -17.03 -172.78 -1.273 100.75 -1.273 100.75 -17.03 -172.78
6.3 -16.9 178.75 -1.292 90.93 -1.292 90.93 -16.9 178.75
6.4 -17.02 170.30 -1.306 81.11 -1.306 81.11 -17.02 170.30
6.5 -17.4 161.95 -1.315 71.28 -1.315 71.28 -17.4 161.95
6.6 -18.06 153.82 -1.321 61.43 -1.321 61.43 -18.06 153.82
6.7 -19.04 146.05 -1.324 51.54 -1.324 51.54 -19.04 146.05
6.8 -20.43 138.95 -1.326 41.63 -1.326 41.63 -20.43 138.95
6.9 -22.36 133.19 -1.329 31.68 -1.329 31.68 -22.36 133.19
7 -25.09 130.42 -1.336 21.71 -1.336 21.71 -25.09 130.42
7.1 -29.01 136.09 -1.346 11.71 -1.346 11.71 -29.01 136.09
7.2 -33.1 168.76 -1.361 1.71 -1.361 1.71 -33.1 168.76
7.3 -30.55 -147.54 -1.381 -8.29 -1.381 -8.29 -30.55 -147.54
7.4 -26.26 -136.11 -1.405 -18.28 -1.405 -18.28 -26.26 -136.11
7.5 -23.24 -137.06 -1.434 -28.25 -1.434 -28.25 -23.24 -137.06
7.6 -21.13 -142.03 -1.464 -38.18 -1.464 -38.18 -21.13 -142.03
7.7 -19.63 -148.65 -1.495 -48.09 -1.495 -48.09 -19.63 -148.65
7.8 -18.56 -156.07 -1.526 -57.96 -1.526 -57.96 -18.56 -156.07
7.9 -17.84 -163.89 -1.553 -67.80 -1.553 -67.80 -17.84 -163.89
8 -17.4 -171.93 -1.577 -77.62 -1.577 -77.62 -17.4 -171.93
8.1 -17.23 179.96 -1.596 -87.43 -1.596 -87.43 -17.23 179.96
8.2 -17.31 171.86 -1.611 -97.24 -1.611 -97.24 -17.31 171.86
8.3 -17.64 163.86 -1.621 -107.06 -1.621 -107.06 -17.64 163.86
8.4 -18.23 156.08 -1.628 -116.90 -1.628 -116.90 -18.23 156.08
8.5 -19.14 148.71 -1.632 -126.77 -1.632 -126.77 -19.14 148.71
8.6 -20.42 142.07 -1.635 -136.66 -1.635 -136.66 -20.42 142.07
8.7 -22.18 136.80 -1.639 -146.59 -1.639 -146.59 -22.18 136.80
8.8 -24.61 134.44 -1.646 -156.54 -1.646 -156.54 -24.61 134.44
8.9 -27.93 139.34 -1.656 -166.51 -1.656 -166.51 -27.93 139.34
9 -31.4 163.40 -1.67 -176.49 -1.67 -176.49 -31.4 163.40
9.1 -30.5 -158.03 -1.689 173.53 -1.689 173.53 -30.5 -158.03
9.2 -26.82 -141.89 -1.712 163.56 -1.712 163.56 -26.82 -141.89
9.3 -23.84 -140.09 -1.738 153.61 -1.738 153.61 -23.84 -140.09
9.4 -21.69 -143.55 -1.767 143.69 -1.767 143.69 -21.69 -143.55
9.5 -20.13 -149.24 -1.797 133.79 -1.797 133.79 -20.13 -149.24
9.6 -19.01 -156.00 -1.826 123.93 -1.826 123.93 -19.01 -156.00
9.7 -18.24 -163.33 -1.853 114.09 -1.853 114.09 -18.24 -163.33
9.8 -17.76 -170.95 -1.877 104.27 -1.877 104.27 -17.76 -170.95
9.9 -17.54 -178.71 -1.897 94.47 -1.897 94.47 -17.54 -178.71
10 -17.57 173.52 -1.912 84.66 -1.912 84.66 -17.57 173.52
10.1 -17.84 165.85 -1.923 74.85 -1.923 74.85 -17.84 165.85
10.2 -18.38 158.40 -1.931 65.03 -1.931 65.03 -18.38 158.40
10.3 -19.2 151.37 -1.937 55.18 -1.937 55.18 -19.2 151.37
10.4 -20.37 145.08 -1.941 45.30 -1.941 45.30 -20.37 145.08
10.5 -21.97 140.15 -1.946 35.39 -1.946 35.39 -21.97 140.15
10.6 -24.13 137.93 -1.952 25.46 -1.952 25.46 -24.13 137.93
10.7 -26.97 141.81 -1.962 15.51 -1.962 15.51 -26.97 141.81
10.8 -29.98 159.75 -1.975 5.55 -1.975 5.55 -29.98 159.75
10.9 -30.18 -167.75 -1.992 -4.41 -1.992 -4.41 -30.18 -167.75
11 -27.28 -148.17 -2.014 -14.36 -2.014 -14.36 -27.28 -148.17
11.1 -24.42 -143.44 -2.039 -24.30 -2.039 -24.30 -24.42 -143.44
11.2 -22.25 -145.23 -2.067 -34.22 -2.067 -34.22 -22.25 -145.23
11.3 -20.64 -149.88 -2.095 -44.10 -2.095 -44.10 -20.64 -149.88
11.4 -19.47 -155.93 -2.123 -53.96 -2.123 -53.96 -19.47 -155.93
11.5 -18.65 -162.73 -2.15 -63.80 -2.15 -63.80 -18.65 -162.73
11.6 -18.12 -169.93 -2.174 -73.62 -2.174 -73.62 -18.12 -169.93
11.7 -17.85 -177.32 -2.194 -83.42 -2.194 -83.42 -17.85 -177.32
11.8 -17.82 175.24 -2.21 -93.22 -2.21 -93.22 -17.82 175.24
11.9 -18.04 167.87 -2.222 -103.02 -2.222 -103.02 -18.04 167.87
12 -18.5 160.73 -2.231 -112.84 -2.231 -112.84 -18.5 160.73
12.1 -19.24 153.99 -2.238 -122.68 -2.238 -122.68 -19.24 153.99
12.2 -20.3 147.98 -2.243 -132.54 -2.243 -132.54 -20.3 147.98
12.3 -21.74 143.27 -2.248 -142.43 -2.248 -142.43 -21.74 143.27
12.4 -23.66 141.02 -2.255 -152.34 -2.255 -152.34 -23.66 141.02
12.5 -26.12 143.86 -2.264 -162.27 -2.264 -162.27 -26.12 143.86
12.6 -28.76 157.33 -2.277 -172.21 -2.277 -172.21 -28.76 157.33
12.7 -29.64 -176.15 -2.293 177.84 -2.293 177.84 -29.64 -176.15
12.8 -27.61 -154.85 -2.313 167.90 -2.313 167.90 -27.61 -154.85
12.9 -24.97 -147.21 -2.337 157.98 -2.337 157.98 -24.97 -147.21
13 -22.8 -147.15 -2.363 148.07 -2.363 148.07 -22.8 -147.15
13.1 -21.15 -150.65 -2.391 138.18 -2.391 138.18 -21.15 -150.65
13.2 -19.93 -155.93 -2.418 128.33 -2.418 128.33 -19.93 -155.93
13.3 -19.06 -162.15 -2.444 118.49 -2.444 118.49 -19.06 -162.15
13.4 -18.47 -168.90 -2.468 108.68 -2.468 108.68 -18.47 -168.90
13.5 -18.15 -175.92 -2.488 98.88 -2.488 98.88 -18.15 -175.92
13.6 -18.07 176.96 -2.505 89.08 -2.505 89.08 -18.07 176.96
13.7 -18.22 169.89 -2.519 79.28 -2.519 79.28 -18.22 169.89
13.8 -18.62 163.02 -2.529 69.47 -2.529 69.47 -18.62 163.02
13.9 -19.28 156.54 -2.536 59.65 -2.536 59.65 -19.28 156.54
14 -20.23 150.75 -2.542 49.80 -2.542 49.80 -20.23 150.75
14.1 -21.52 146.18 -2.548 39.93 -2.548 39.93 -21.52 146.18
14.2 -23.23 143.81 -2.555 30.03 -2.555 30.03 -23.23 143.81
14.3 -25.37 145.69 -2.564 20.12 -2.564 20.12 -25.37 145.69
14.4 -27.71 155.80 -2.576 10.19 -2.576 10.19 -27.71 155.80
14.5 -28.97 177.00 -2.591 0.26 -2.591 0.26 -28.97 177.00
14.6 -27.77 -161.69 -2.61 -9.67 -2.61 -9.67 -27.77 -161.69
14.7 -25.46 -151.41 -2.633 -19.59 -2.633 -19.59 -25.46 -151.41
14.8 -23.34 -149.39 -2.657 -29.49 -2.657 -29.49 -23.34 -149.39
14.9 -21.67 -151.62 -2.684 -39.37 -2.684 -39.37 -21.67 -151.62
15 -20.39 -156.04 -2.71 -49.22 -2.71 -49.22 -20.39 -156.04
15.1 -19.47 -161.65 -2.736 -59.06 -2.736 -59.06 -19.47 -161.65
15.2 -18.83 -167.93 -2.759 -68.87 -2.759 -68.87 -18.83 -167.93
15.3 -18.45 -174.56 -2.78 -78.67 -2.78 -78.67 -18.45 -174.56
15.4 -18.31 178.65 -2.798 -88.46 -2.798 -88.46 -18.31 178.65
15.5 -18.41 171.87 -2.812 -98.26 -2.812 -98.26 -18.41 171.87
15.6 -18.73 165.25 -2.823 -108.06 -2.823 -108.06 -18.73 165.25
15.7 -19.31 159.01 -2.832 -117.88 -2.832 -117.88 -19.31 159.01
15.8 -20.15 153.40 -2.839 -127.71 -2.839 -127.71 -20.15 153.40
15.9 -21.31 148.92 -2.845 -137.57 -2.845 -137.57 -21.31 148.92
16 -22.83 146.38 -2.852 -147.45 -2.852 -147.45 -22.83 146.38
16.1 -24.72 147.42 -2.861 -157.35 -2.861 -157.35 -24.72 147.42
16.2 -26.8 154.94 -2.872 -167.26 -2.872 -167.26 -26.8 154.94
16.3 -28.23 171.66 -2.887 -177.18 -2.887 -177.18 -28.23 171.66
16.4 -27.75 -168.35 -2.905 172.90 -2.905 172.90 -27.75 -168.35
16.5 -25.87 -156.03 -2.926 162.99 -2.926 162.99 -25.87 -156.03
16.6 -23.86 -151.98 -2.949 153.10 -2.949 153.10 -23.86 -151.98
16.7 -22.17 -152.83 -2.974 143.22 -2.974 143.22 -22.17 -152.83
16.8 -20.86 -156.31 -3 133.37 -3 133.37 -20.86 -156.31
16.9 -19.88 -161.26 -3.025 123.53 -3.025 123.53 -19.88 -161.26
17 -19.19 -167.03 -3.049 113.72 -3.049 113.72 -19.19 -167.03
17.1 -18.75 -173.26 -3.07 103.92 -3.07 103.92 -18.75 -173.26
17.2 -18.56 -179.72 -3.088 94.13 -3.088 94.13 -18.56 -179.72
17.3 -18.59 173.79 -3.103 84.34 -3.103 84.34 -18.59 173.79
17.4 -18.85 167.43 -3.115 74.54 -3.115 74.54 -18.85 167.43
17.5 -19.34 161.39 -3.125 64.73 -3.125 64.73 -19.34 161.39
17.6 -20.09 155.94 -3.133 54.91 -3.133 54.91 -20.09 155.94
17.7 -21.12 151.51 -3.14 45.06 -3.14 45.06 -21.12 151.51
17.8 -22.47 148.80 -3.147 35.20 -3.147 35.20 -22.47 148.80
17.9 -24.14 149.09 -3.156 25.31 -3.156 25.31 -24.14 149.09
18 -26 154.59 -3.167 15.41 -3.167 15.41 -26 154.59
