! yapnr rf coupon B: B11 RING S (ring, family S)
! stackup JLC06161H-2116C, nominal parameters; reference planes 10 mm from each end; 50 ohm (renormalized from the line's Zc)
! model: 2D quasi-static RLGC (Djordjevic-Sarkar, Huray roughness, Wheeler loss); generated by python -m yapnr.rf.coupons expected
# GHz S DB R 50
0.1 -20.52 -105.40 -0.09886 -15.61 -0.09886 -15.61 -20.52 -105.40
0.2 -14.68 -121.36 -0.2545 -30.88 -0.2545 -30.88 -14.68 -121.36
0.3 -11.37 -136.72 -0.4779 -45.95 -0.4779 -45.95 -11.37 -136.72
0.4 -9.124 -151.75 -0.7642 -60.81 -0.7642 -60.81 -9.124 -151.75
0.5 -7.466 -166.51 -1.108 -75.45 -1.108 -75.45 -7.466 -166.51
0.6 -6.187 178.98 -1.505 -89.89 -1.505 -89.89 -6.187 178.98
0.7 -5.172 164.70 -1.95 -104.12 -1.95 -104.12 -5.172 164.70
0.8 -4.349 150.61 -2.444 -118.17 -2.444 -118.17 -4.349 150.61
0.9 -3.673 136.68 -2.984 -132.06 -2.984 -132.06 -3.673 136.68
1 -3.112 122.89 -3.575 -145.82 -3.575 -145.82 -3.112 122.89
1.1 -2.641 109.19 -4.22 -159.48 -4.22 -159.48 -2.641 109.19
1.2 -2.244 95.53 -4.929 -173.07 -4.929 -173.07 -2.244 95.53
1.3 -1.909 81.88 -5.716 173.37 -5.716 173.37 -1.909 81.88
1.4 -1.626 68.17 -6.601 159.80 -6.601 159.80 -1.626 68.17
1.5 -1.388 54.35 -7.615 146.20 -7.615 146.20 -1.388 54.35
1.6 -1.191 40.33 -8.806 132.53 -8.806 132.53 -1.191 40.33
1.7 -1.033 26.05 -10.25 118.80 -10.25 118.80 -1.033 26.05
1.8 -0.9127 11.40 -12.08 105.07 -12.08 105.07 -0.9127 11.40
1.9 -0.8331 -3.73 -14.55 91.62 -14.55 91.62 -0.8331 -3.73
2 -0.7987 -19.47 -18.26 79.65 -18.26 79.65 -0.7987 -19.47
2.1 -0.817 -35.98 -25.14 76.82 -25.14 76.82 -0.817 -35.98
2.2 -0.8972 -53.43 -29.93 169.24 -29.93 169.24 -0.8972 -53.43
2.3 -1.048 -72.04 -20.14 -176.60 -20.14 -176.60 -1.048 -72.04
2.4 -1.273 -92.04 -15.53 169.63 -15.53 169.63 -1.273 -92.04
2.5 -1.557 -113.79 -12.91 151.13 -12.91 151.13 -1.557 -113.79
2.6 -1.858 -137.81 -11.63 130.23 -11.63 130.23 -1.858 -137.81
2.7 -2.104 -165.03 -11.8 107.86 -11.8 107.86 -2.104 -165.03
2.8 -2.25 163.19 -14.56 88.13 -14.56 88.13 -2.25 163.19
2.9 -2.436 125.96 -21.04 121.46 -21.04 121.46 -2.436 125.96
3 -2.996 85.64 -11.76 150.84 -11.76 150.84 -2.996 85.64
3.1 -3.932 48.12 -6.847 126.05 -6.847 126.05 -3.932 48.12
3.2 -4.819 16.89 -4.751 100.23 -4.751 100.23 -4.819 16.89
3.3 -5.411 -8.58 -3.798 77.70 -3.798 77.70 -5.411 -8.58
3.4 -5.724 -29.95 -3.34 58.03 -3.34 58.03 -5.724 -29.95
3.5 -5.853 -48.59 -3.114 40.39 -3.114 40.39 -5.853 -48.59
3.6 -5.879 -65.41 -3.006 24.17 -3.006 24.17 -5.879 -65.41
3.7 -5.854 -80.99 -2.96 8.96 -2.96 8.96 -5.854 -80.99
3.8 -5.809 -95.71 -2.948 -5.52 -2.948 -5.52 -5.809 -95.71
3.9 -5.762 -109.81 -2.953 -19.47 -2.953 -19.47 -5.762 -109.81
4 -5.722 -123.48 -2.968 -33.04 -2.968 -33.04 -5.722 -123.48
4.1 -5.694 -136.83 -2.985 -46.34 -2.985 -46.34 -5.694 -136.83
4.2 -5.681 -149.97 -3.003 -59.46 -3.003 -59.46 -5.681 -149.97
4.3 -5.683 -162.98 -3.021 -72.49 -3.021 -72.49 -5.683 -162.98
4.4 -5.703 -175.93 -3.037 -85.49 -3.037 -85.49 -5.703 -175.93
4.5 -5.739 171.11 -3.053 -98.52 -3.053 -98.52 -5.739 171.11
4.6 -5.793 158.07 -3.07 -111.65 -3.07 -111.65 -5.793 158.07
4.7 -5.864 144.87 -3.092 -124.95 -3.092 -124.95 -5.864 144.87
4.8 -5.951 131.41 -3.121 -138.50 -3.121 -138.50 -5.951 131.41
4.9 -6.052 117.58 -3.165 -152.39 -3.165 -152.39 -6.052 117.58
5 -6.161 103.20 -3.234 -166.76 -3.234 -166.76 -6.161 103.20
5.1 -6.268 88.04 -3.346 178.24 -3.346 178.24 -6.268 88.04
5.2 -6.355 71.71 -3.528 162.38 -3.528 162.38 -6.355 71.71
5.3 -6.392 53.67 -3.835 145.38 -3.835 145.38 -6.392 53.67
5.4 -6.33 33.02 -4.369 126.85 -4.369 126.85 -6.33 33.02
5.5 -6.111 8.48 -5.343 106.42 -5.343 106.42 -6.111 8.48
5.6 -5.702 -21.46 -7.208 84.36 -7.208 84.36 -5.702 -21.46
5.7 -5.177 -57.36 -10.86 64.74 -10.86 64.74 -5.177 -57.36
5.8 -4.711 -96.83 -16.65 69.24 -16.65 69.24 -4.711 -96.83
5.9 -4.36 -134.94 -16.03 99.85 -16.03 99.85 -4.36 -134.94
6 -4.008 -168.40 -13.33 93.05 -13.33 93.05 -4.008 -168.40
6.1 -3.597 162.96 -12.72 75.72 -12.72 75.72 -3.597 162.96
6.2 -3.17 138.06 -13.55 57.94 -13.55 57.94 -3.17 138.06
6.3 -2.787 115.84 -15.54 42.58 -15.54 42.58 -2.787 115.84
6.4 -2.486 95.61 -18.83 33.01 -18.83 33.01 -2.486 95.61
6.5 -2.279 76.93 -23.63 40.84 -23.63 40.84 -2.279 76.93
6.6 -2.162 59.49 -24.84 83.95 -24.84 83.95 -2.162 59.49
6.7 -2.123 43.08 -20.2 101.91 -20.2 101.91 -2.123 43.08
6.8 -2.149 27.49 -16.57 98.12 -16.57 98.12 -2.149 27.49
6.9 -2.231 12.57 -14.04 88.48 -14.04 88.48 -2.231 12.57
7 -2.361 -1.81 -12.17 76.95 -12.17 76.95 -2.361 -1.81
7.1 -2.534 -15.79 -10.7 64.67 -10.7 64.67 -2.534 -15.79
7.2 -2.749 -29.44 -9.501 52.08 -9.501 52.08 -2.749 -29.44
7.3 -3.007 -42.87 -8.491 39.33 -8.491 39.33 -3.007 -42.87
7.4 -3.31 -56.13 -7.618 26.48 -7.618 26.48 -3.31 -56.13
7.5 -3.666 -69.29 -6.848 13.55 -6.848 13.55 -3.666 -69.29
7.6 -4.082 -82.39 -6.161 0.51 -6.161 0.51 -4.082 -82.39
7.7 -4.57 -95.45 -5.542 -12.63 -5.542 -12.63 -4.57 -95.45
7.8 -5.144 -108.50 -4.982 -25.91 -4.982 -25.91 -5.144 -108.50
7.9 -5.822 -121.52 -4.477 -39.33 -4.477 -39.33 -5.822 -121.52
8 -6.632 -134.48 -4.025 -52.92 -4.025 -52.92 -6.632 -134.48
8.1 -7.606 -147.32 -3.625 -66.66 -3.625 -66.66 -7.606 -147.32
8.2 -8.791 -159.89 -3.28 -80.57 -3.28 -80.57 -8.791 -159.89
8.3 -10.26 -171.92 -2.991 -94.62 -2.991 -94.62 -10.26 -171.92
8.4 -12.11 177.11 -2.76 -108.80 -2.76 -108.80 -12.11 177.11
8.5 -14.52 168.37 -2.59 -123.08 -2.59 -123.08 -14.52 168.37
8.6 -17.73 165.05 -2.482 -137.42 -2.482 -137.42 -17.73 165.05
8.7 -21.6 176.82 -2.437 -151.81 -2.437 -151.81 -21.6 176.82
8.8 -22.39 -148.54 -2.454 -166.18 -2.454 -166.18 -22.39 -148.54
8.9 -18.77 -130.40 -2.533 179.48 -2.533 179.48 -18.77 -130.40
9 -15.41 -131.17 -2.672 165.21 -2.672 165.21 -15.41 -131.17
9.1 -12.9 -138.82 -2.868 151.03 -2.868 151.03 -12.9 -138.82
9.2 -10.99 -149.17 -3.119 136.96 -3.119 136.96 -10.99 -149.17
9.3 -9.488 -160.77 -3.422 123.03 -3.422 123.03 -9.488 -160.77
9.4 -8.283 -172.99 -3.777 109.23 -3.777 109.23 -8.283 -172.99
9.5 -7.297 174.45 -4.182 95.57 -4.182 95.57 -7.297 174.45
9.6 -6.48 161.71 -4.637 82.05 -4.637 82.05 -6.48 161.71
9.7 -5.798 148.88 -5.143 68.67 -5.143 68.67 -5.798 148.88
9.8 -5.225 135.98 -5.705 55.42 -5.705 55.42 -5.225 135.98
9.9 -4.744 123.03 -6.327 42.30 -6.327 42.30 -4.744 123.03
10 -4.341 110.04 -7.019 29.32 -7.019 29.32 -4.341 110.04
10.1 -4.006 96.97 -7.791 16.48 -7.791 16.48 -4.006 96.97
10.2 -3.731 83.81 -8.663 3.81 -8.663 3.81 -3.731 83.81
10.3 -3.513 70.51 -9.661 -8.66 -9.661 -8.66 -3.513 70.51
10.4 -3.347 57.03 -10.82 -20.80 -10.82 -20.80 -3.347 57.03
10.5 -3.234 43.29 -12.2 -32.41 -12.2 -32.41 -3.234 43.29
10.6 -3.175 29.23 -13.89 -43.03 -13.89 -43.03 -3.175 29.23
10.7 -3.175 14.74 -16.01 -51.61 -16.01 -51.61 -3.175 14.74
10.8 -3.241 -0.27 -18.7 -55.53 -18.7 -55.53 -3.241 -0.27
10.9 -3.383 -15.95 -21.72 -48.33 -21.72 -48.33 -3.383 -15.95
11 -3.616 -32.46 -22.77 -25.51 -22.77 -25.51 -3.616 -32.46
11.1 -3.954 -50.02 -20.37 -10.07 -20.37 -10.07 -3.954 -50.02
11.2 -4.415 -68.90 -17.57 -11.27 -17.57 -11.27 -4.415 -68.90
11.3 -5.012 -89.55 -15.56 -20.80 -15.56 -20.80 -5.012 -89.55
11.4 -5.751 -112.63 -14.43 -33.71 -14.43 -33.71 -5.751 -112.63
11.5 -6.617 -139.16 -14.23 -46.68 -14.23 -46.68 -6.617 -139.16
11.6 -7.561 -170.37 -14.94 -54.72 -14.94 -54.72 -7.561 -170.37
11.7 -8.453 153.13 -15.39 -50.62 -15.39 -50.62 -8.453 153.13
11.8 -9.081 113.25 -13.27 -44.60 -13.27 -44.60 -9.081 113.25
11.9 -9.314 74.76 -10.32 -52.84 -10.32 -52.84 -9.314 74.76
12 -9.244 41.61 -8.235 -68.85 -8.235 -68.85 -9.244 41.61
12.1 -9.037 14.43 -6.961 -86.50 -6.961 -86.50 -9.037 14.43
12.2 -8.791 -8.04 -6.198 -103.72 -6.198 -103.72 -8.791 -8.04
12.3 -8.552 -27.25 -5.735 -120.05 -5.735 -120.05 -8.552 -27.25
12.4 -8.337 -44.30 -5.45 -135.52 -5.45 -135.52 -8.337 -44.30
12.5 -8.154 -59.91 -5.272 -150.26 -5.272 -150.26 -8.154 -59.91
12.6 -8.004 -74.56 -5.161 -164.44 -5.161 -164.44 -8.004 -74.56
12.7 -7.887 -88.53 -5.092 -178.18 -5.092 -178.18 -7.887 -88.53
12.8 -7.802 -102.04 -5.05 168.41 -5.05 168.41 -7.802 -102.04
12.9 -7.746 -115.24 -5.026 155.24 -5.026 155.24 -7.746 -115.24
13 -7.717 -128.22 -5.016 142.22 -5.016 142.22 -7.717 -128.22
13.1 -7.714 -141.07 -5.015 129.31 -5.015 129.31 -7.714 -141.07
13.2 -7.736 -153.86 -5.022 116.43 -5.022 116.43 -7.736 -153.86
13.3 -7.783 -166.66 -5.039 103.53 -5.039 103.53 -7.783 -166.66
13.4 -7.854 -179.52 -5.067 90.55 -5.067 90.55 -7.854 -179.52
13.5 -7.952 167.48 -5.108 77.44 -5.108 77.44 -7.952 167.48
13.6 -8.076 154.25 -5.168 64.14 -5.168 64.14 -8.076 154.25
13.7 -8.231 140.70 -5.256 50.58 -5.256 50.58 -8.231 140.70
13.8 -8.419 126.66 -5.382 36.68 -5.382 36.68 -8.419 126.66
13.9 -8.645 111.90 -5.565 22.34 -5.565 22.34 -8.645 111.90
14 -8.915 96.11 -5.835 7.47 -5.835 7.47 -8.915 96.11
14.1 -9.236 78.77 -6.237 -8.02 -6.237 -8.02 -9.236 78.77
14.2 -9.619 59.08 -6.849 -24.16 -6.849 -24.16 -9.619 59.08
14.3 -10.07 35.87 -7.794 -40.76 -7.794 -40.76 -10.07 35.87
14.4 -10.56 7.61 -9.251 -56.91 -9.251 -56.91 -10.56 7.61
14.5 -10.95 -26.92 -11.38 -70.05 -11.38 -70.05 -10.95 -26.92
14.6 -10.93 -66.70 -13.84 -75.23 -13.84 -75.23 -10.93 -66.70
14.7 -10.28 -107.00 -15.22 -71.96 -15.22 -71.96 -10.28 -107.00
14.8 -9.205 -142.95 -15.04 -72.25 -15.04 -72.25 -9.205 -142.95
14.9 -8.077 -173.25 -14.81 -80.19 -14.81 -80.19 -8.077 -173.25
15 -7.076 161.06 -15.24 -91.28 -15.24 -91.28 -7.076 161.06
15.1 -6.254 138.65 -16.39 -101.66 -16.39 -101.66 -6.254 138.65
15.2 -5.61 118.55 -18.17 -108.16 -18.17 -108.16 -5.61 118.55
15.3 -5.127 100.12 -20.2 -106.80 -20.2 -106.80 -5.127 100.12
15.4 -4.784 82.97 -21.32 -95.43 -21.32 -95.43 -4.784 82.97
15.5 -4.559 66.84 -20.33 -83.13 -20.33 -83.13 -4.559 66.84
15.6 -4.432 51.52 -18.24 -79.70 -18.24 -79.70 -4.432 51.52
15.7 -4.388 36.88 -16.19 -83.57 -16.19 -83.57 -4.388 36.88
15.8 -4.415 22.78 -14.46 -91.34 -14.46 -91.34 -4.415 22.78
15.9 -4.503 9.12 -13.02 -101.10 -13.02 -101.10 -4.503 9.12
16 -4.648 -4.19 -11.82 -111.94 -11.82 -111.94 -4.648 -4.19
16.1 -4.847 -17.23 -10.79 -123.40 -10.79 -123.40 -4.847 -17.23
16.2 -5.1 -30.07 -9.904 -135.25 -9.904 -135.25 -5.1 -30.07
16.3 -5.411 -42.74 -9.122 -147.38 -9.122 -147.38 -5.411 -42.74
16.4 -5.783 -55.29 -8.426 -159.73 -8.426 -159.73 -5.783 -55.29
16.5 -6.226 -67.74 -7.8 -172.27 -7.8 -172.27 -6.226 -67.74
16.6 -6.75 -80.09 -7.236 175.01 -7.236 175.01 -6.75 -80.09
16.7 -7.368 -92.32 -6.728 162.11 -6.728 162.11 -7.368 -92.32
16.8 -8.098 -104.38 -6.273 149.04 -6.273 149.04 -8.098 -104.38
16.9 -8.963 -116.17 -5.869 135.79 -5.869 135.79 -8.963 -116.17
17 -9.99 -127.51 -5.517 122.38 -5.517 122.38 -9.99 -127.51
17.1 -11.22 -138.13 -5.219 108.82 -5.219 108.82 -11.22 -138.13
17.2 -12.69 -147.50 -4.975 95.13 -4.975 95.13 -12.69 -147.50
17.3 -14.43 -154.68 -4.787 81.33 -4.787 81.33 -14.43 -154.68
17.4 -16.44 -157.95 -4.657 67.46 -4.657 67.46 -16.44 -157.95
17.5 -18.44 -154.56 -4.584 53.54 -4.584 53.54 -18.44 -154.56
17.6 -19.51 -143.32 -4.57 39.61 -4.57 39.61 -19.51 -143.32
17.7 -18.77 -131.32 -4.613 25.69 -4.613 25.69 -18.77 -131.32
17.8 -16.93 -126.72 -4.711 11.83 -4.711 11.83 -16.93 -126.72
17.9 -14.99 -129.15 -4.864 -1.96 -4.864 -1.96 -14.99 -129.15
18 -13.29 -135.80 -5.068 -15.66 -5.068 -15.66 -13.29 -135.80
