! yapnr rf coupon B: B13 P L6.5 (line, family P)
! stackup JLC06161H-2116C, nominal parameters; reference planes 10 mm from each end; 50 ohm (renormalized from the line's Zc)
! model: 2D quasi-static RLGC (Djordjevic-Sarkar, Huray roughness, Wheeler loss); generated by python -m yapnr.rf.coupons expected
# GHz S DB R 50
0.1 -69.26 28.56 -0.005991 -1.40 -0.005991 -1.40 -69.26 28.56
0.2 -67.94 35.23 -0.009544 -2.78 -0.009544 -2.78 -67.94 35.23
0.3 -66.94 45.53 -0.01273 -4.15 -0.01273 -4.15 -66.94 45.53
0.4 -65.68 56.41 -0.01573 -5.51 -0.01573 -5.51 -65.68 56.41
0.5 -64.14 65.76 -0.01861 -6.87 -0.01861 -6.87 -64.14 65.76
0.6 -62.5 72.83 -0.02141 -8.24 -0.02141 -8.24 -62.5 72.83
0.7 -60.88 77.82 -0.02415 -9.60 -0.02415 -9.60 -60.88 77.82
0.8 -59.36 81.19 -0.02683 -10.95 -0.02683 -10.95 -59.36 81.19
0.9 -57.96 83.39 -0.02948 -12.31 -0.02948 -12.31 -57.96 83.39
1 -56.68 84.74 -0.0321 -13.67 -0.0321 -13.67 -56.68 84.74
1.1 -55.51 85.47 -0.03469 -15.02 -0.03469 -15.02 -55.51 85.47
1.2 -54.43 85.76 -0.03726 -16.38 -0.03726 -16.38 -54.43 85.76
1.3 -53.44 85.71 -0.0398 -17.73 -0.0398 -17.73 -53.44 85.71
1.4 -52.53 85.42 -0.04233 -19.08 -0.04233 -19.08 -52.53 85.42
1.5 -51.68 84.92 -0.04483 -20.44 -0.04483 -20.44 -51.68 84.92
1.6 -50.9 84.28 -0.04733 -21.79 -0.04733 -21.79 -50.9 84.28
1.7 -50.16 83.52 -0.04981 -23.14 -0.04981 -23.14 -50.16 83.52
1.8 -49.48 82.66 -0.05228 -24.49 -0.05228 -24.49 -49.48 82.66
1.9 -48.84 81.73 -0.05474 -25.84 -0.05474 -25.84 -48.84 81.73
2 -48.23 80.73 -0.05718 -27.20 -0.05718 -27.20 -48.23 80.73
2.1 -47.66 79.68 -0.05962 -28.55 -0.05962 -28.55 -47.66 79.68
2.2 -47.12 78.59 -0.06205 -29.90 -0.06205 -29.90 -47.12 78.59
2.3 -46.62 77.47 -0.06447 -31.25 -0.06447 -31.25 -46.62 77.47
2.4 -46.13 76.31 -0.06688 -32.59 -0.06688 -32.59 -46.13 76.31
2.5 -45.68 75.13 -0.06929 -33.94 -0.06929 -33.94 -45.68 75.13
2.6 -45.24 73.92 -0.07169 -35.29 -0.07169 -35.29 -45.24 73.92
2.7 -44.83 72.70 -0.07408 -36.64 -0.07408 -36.64 -44.83 72.70
2.8 -44.43 71.46 -0.07647 -37.99 -0.07647 -37.99 -44.43 71.46
2.9 -44.06 70.21 -0.07885 -39.34 -0.07885 -39.34 -44.06 70.21
3 -43.7 68.95 -0.08122 -40.69 -0.08122 -40.69 -43.7 68.95
3.1 -43.36 67.67 -0.08359 -42.03 -0.08359 -42.03 -43.36 67.67
3.2 -43.03 66.39 -0.08596 -43.38 -0.08596 -43.38 -43.03 66.39
3.3 -42.72 65.10 -0.08832 -44.73 -0.08832 -44.73 -42.72 65.10
3.4 -42.42 63.80 -0.09067 -46.08 -0.09067 -46.08 -42.42 63.80
3.5 -42.13 62.50 -0.09303 -47.42 -0.09303 -47.42 -42.13 62.50
3.6 -41.86 61.19 -0.09537 -48.77 -0.09537 -48.77 -41.86 61.19
3.7 -41.6 59.88 -0.09772 -50.12 -0.09772 -50.12 -41.6 59.88
3.8 -41.35 58.56 -0.1001 -51.47 -0.1001 -51.47 -41.35 58.56
3.9 -41.11 57.24 -0.1024 -52.81 -0.1024 -52.81 -41.11 57.24
4 -40.88 55.92 -0.1047 -54.16 -0.1047 -54.16 -40.88 55.92
4.1 -40.66 54.59 -0.1071 -55.51 -0.1071 -55.51 -40.66 54.59
4.2 -40.45 53.26 -0.1094 -56.85 -0.1094 -56.85 -40.45 53.26
4.3 -40.25 51.93 -0.1117 -58.20 -0.1117 -58.20 -40.25 51.93
4.4 -40.05 50.60 -0.114 -59.54 -0.114 -59.54 -40.05 50.60
4.5 -39.87 49.27 -0.1163 -60.89 -0.1163 -60.89 -39.87 49.27
4.6 -39.69 47.93 -0.1187 -62.24 -0.1187 -62.24 -39.69 47.93
4.7 -39.52 46.59 -0.121 -63.58 -0.121 -63.58 -39.52 46.59
4.8 -39.36 45.26 -0.1233 -64.93 -0.1233 -64.93 -39.36 45.26
4.9 -39.21 43.92 -0.1256 -66.27 -0.1256 -66.27 -39.21 43.92
5 -39.07 42.58 -0.1279 -67.62 -0.1279 -67.62 -39.07 42.58
5.1 -38.93 41.24 -0.1302 -68.97 -0.1302 -68.97 -38.93 41.24
5.2 -38.8 39.90 -0.1325 -70.31 -0.1325 -70.31 -38.8 39.90
5.3 -38.67 38.56 -0.1348 -71.66 -0.1348 -71.66 -38.67 38.56
5.4 -38.55 37.22 -0.1371 -73.00 -0.1371 -73.00 -38.55 37.22
5.5 -38.44 35.88 -0.1394 -74.35 -0.1394 -74.35 -38.44 35.88
5.6 -38.34 34.54 -0.1416 -75.69 -0.1416 -75.69 -38.34 34.54
5.7 -38.24 33.20 -0.1439 -77.04 -0.1439 -77.04 -38.24 33.20
5.8 -38.14 31.86 -0.1462 -78.38 -0.1462 -78.38 -38.14 31.86
5.9 -38.06 30.52 -0.1485 -79.73 -0.1485 -79.73 -38.06 30.52
6 -37.98 29.18 -0.1508 -81.08 -0.1508 -81.08 -37.98 29.18
6.1 -37.9 27.83 -0.153 -82.42 -0.153 -82.42 -37.9 27.83
6.2 -37.83 26.50 -0.1553 -83.77 -0.1553 -83.77 -37.83 26.50
6.3 -37.77 25.16 -0.1576 -85.11 -0.1576 -85.11 -37.77 25.16
6.4 -37.71 23.82 -0.1598 -86.46 -0.1598 -86.46 -37.71 23.82
6.5 -37.66 22.48 -0.1621 -87.80 -0.1621 -87.80 -37.66 22.48
6.6 -37.62 21.14 -0.1643 -89.15 -0.1643 -89.15 -37.62 21.14
6.7 -37.58 19.80 -0.1666 -90.49 -0.1666 -90.49 -37.58 19.80
6.8 -37.54 18.46 -0.1689 -91.84 -0.1689 -91.84 -37.54 18.46
6.9 -37.51 17.13 -0.1711 -93.18 -0.1711 -93.18 -37.51 17.13
7 -37.49 15.79 -0.1734 -94.53 -0.1734 -94.53 -37.49 15.79
7.1 -37.47 14.46 -0.1756 -95.87 -0.1756 -95.87 -37.47 14.46
7.2 -37.46 13.12 -0.1778 -97.22 -0.1778 -97.22 -37.46 13.12
7.3 -37.45 11.79 -0.1801 -98.57 -0.1801 -98.57 -37.45 11.79
7.4 -37.45 10.46 -0.1823 -99.91 -0.1823 -99.91 -37.45 10.46
7.5 -37.45 9.12 -0.1845 -101.26 -0.1845 -101.26 -37.45 9.12
7.6 -37.46 7.79 -0.1868 -102.60 -0.1868 -102.60 -37.46 7.79
7.7 -37.47 6.46 -0.189 -103.95 -0.189 -103.95 -37.47 6.46
7.8 -37.5 5.14 -0.1912 -105.29 -0.1912 -105.29 -37.5 5.14
7.9 -37.52 3.81 -0.1935 -106.64 -0.1935 -106.64 -37.52 3.81
8 -37.55 2.48 -0.1957 -107.98 -0.1957 -107.98 -37.55 2.48
8.1 -37.59 1.16 -0.1979 -109.33 -0.1979 -109.33 -37.59 1.16
8.2 -37.64 -0.17 -0.2001 -110.67 -0.2001 -110.67 -37.64 -0.17
8.3 -37.68 -1.49 -0.2023 -112.02 -0.2023 -112.02 -37.68 -1.49
8.4 -37.74 -2.81 -0.2045 -113.37 -0.2045 -113.37 -37.74 -2.81
8.5 -37.8 -4.13 -0.2067 -114.71 -0.2067 -114.71 -37.8 -4.13
8.6 -37.87 -5.45 -0.2089 -116.06 -0.2089 -116.06 -37.87 -5.45
8.7 -37.94 -6.76 -0.2111 -117.40 -0.2111 -117.40 -37.94 -6.76
8.8 -38.03 -8.08 -0.2133 -118.75 -0.2133 -118.75 -38.03 -8.08
8.9 -38.11 -9.39 -0.2155 -120.09 -0.2155 -120.09 -38.11 -9.39
9 -38.21 -10.70 -0.2177 -121.44 -0.2177 -121.44 -38.21 -10.70
9.1 -38.31 -12.01 -0.2199 -122.79 -0.2199 -122.79 -38.31 -12.01
9.2 -38.42 -13.31 -0.2221 -124.13 -0.2221 -124.13 -38.42 -13.31
9.3 -38.53 -14.61 -0.2243 -125.48 -0.2243 -125.48 -38.53 -14.61
9.4 -38.66 -15.91 -0.2265 -126.82 -0.2265 -126.82 -38.66 -15.91
9.5 -38.79 -17.21 -0.2286 -128.17 -0.2286 -128.17 -38.79 -17.21
9.6 -38.93 -18.50 -0.2308 -129.52 -0.2308 -129.52 -38.93 -18.50
9.7 -39.08 -19.79 -0.233 -130.86 -0.233 -130.86 -39.08 -19.79
9.8 -39.23 -21.08 -0.2351 -132.21 -0.2351 -132.21 -39.23 -21.08
9.9 -39.4 -22.36 -0.2373 -133.55 -0.2373 -133.55 -39.4 -22.36
10 -39.57 -23.64 -0.2395 -134.90 -0.2395 -134.90 -39.57 -23.64
10.1 -39.76 -24.91 -0.2416 -136.25 -0.2416 -136.25 -39.76 -24.91
10.2 -39.95 -26.18 -0.2438 -137.59 -0.2438 -137.59 -39.95 -26.18
10.3 -40.16 -27.44 -0.246 -138.94 -0.246 -138.94 -40.16 -27.44
10.4 -40.38 -28.69 -0.2481 -140.29 -0.2481 -140.29 -40.38 -28.69
10.5 -40.61 -29.94 -0.2503 -141.63 -0.2503 -141.63 -40.61 -29.94
10.6 -40.85 -31.18 -0.2524 -142.98 -0.2524 -142.98 -40.85 -31.18
10.7 -41.1 -32.42 -0.2546 -144.33 -0.2546 -144.33 -41.1 -32.42
10.8 -41.37 -33.64 -0.2567 -145.67 -0.2567 -145.67 -41.37 -33.64
10.9 -41.66 -34.85 -0.2589 -147.02 -0.2589 -147.02 -41.66 -34.85
11 -41.96 -36.05 -0.261 -148.37 -0.261 -148.37 -41.96 -36.05
11.1 -42.28 -37.24 -0.2632 -149.72 -0.2632 -149.72 -42.28 -37.24
11.2 -42.62 -38.41 -0.2653 -151.06 -0.2653 -151.06 -42.62 -38.41
11.3 -42.97 -39.56 -0.2675 -152.41 -0.2675 -152.41 -42.97 -39.56
11.4 -43.35 -40.69 -0.2696 -153.76 -0.2696 -153.76 -43.35 -40.69
11.5 -43.76 -41.80 -0.2717 -155.10 -0.2717 -155.10 -43.76 -41.80
11.6 -44.19 -42.88 -0.2739 -156.45 -0.2739 -156.45 -44.19 -42.88
11.7 -44.65 -43.93 -0.276 -157.80 -0.276 -157.80 -44.65 -43.93
11.8 -45.15 -44.94 -0.2781 -159.15 -0.2781 -159.15 -45.15 -44.94
11.9 -45.68 -45.90 -0.2803 -160.49 -0.2803 -160.49 -45.68 -45.90
12 -46.26 -46.81 -0.2824 -161.84 -0.2824 -161.84 -46.26 -46.81
12.1 -46.88 -47.65 -0.2845 -163.19 -0.2845 -163.19 -46.88 -47.65
12.2 -47.56 -48.39 -0.2867 -164.54 -0.2867 -164.54 -47.56 -48.39
12.3 -48.3 -49.03 -0.2888 -165.89 -0.2888 -165.89 -48.3 -49.03
12.4 -49.12 -49.52 -0.2909 -167.24 -0.2909 -167.24 -49.12 -49.52
12.5 -50.03 -49.80 -0.293 -168.58 -0.293 -168.58 -50.03 -49.80
12.6 -51.06 -49.82 -0.2952 -169.93 -0.2952 -169.93 -51.06 -49.82
12.7 -52.22 -49.44 -0.2973 -171.28 -0.2973 -171.28 -52.22 -49.44
12.8 -53.57 -48.46 -0.2994 -172.63 -0.2994 -172.63 -53.57 -48.46
12.9 -55.15 -46.53 -0.3015 -173.98 -0.3015 -173.98 -55.15 -46.53
13 -57.05 -42.95 -0.3037 -175.33 -0.3037 -175.33 -57.05 -42.95
13.1 -59.36 -36.26 -0.3058 -176.68 -0.3058 -176.68 -59.36 -36.26
13.2 -62.09 -23.06 -0.3079 -178.02 -0.3079 -178.02 -62.09 -23.06
13.3 -64.51 2.76 -0.31 -179.37 -0.31 -179.37 -64.51 2.76
13.4 -64.32 37.79 -0.3121 179.28 -0.3121 179.28 -64.32 37.79
13.5 -61.75 62.09 -0.3143 177.93 -0.3143 177.93 -61.75 62.09
13.6 -59.02 74.38 -0.3164 176.58 -0.3164 176.58 -59.02 74.38
13.7 -56.73 80.65 -0.3185 175.23 -0.3185 175.23 -56.73 80.65
13.8 -54.83 84.01 -0.3206 173.88 -0.3206 173.88 -54.83 84.01
13.9 -53.25 85.82 -0.3228 172.53 -0.3228 172.53 -53.25 85.82
14 -51.89 86.73 -0.3249 171.18 -0.3249 171.18 -51.89 86.73
14.1 -50.71 87.06 -0.327 169.83 -0.327 169.83 -50.71 87.06
14.2 -49.66 87.02 -0.3291 168.48 -0.3291 168.48 -49.66 87.02
14.3 -48.73 86.71 -0.3312 167.13 -0.3312 167.13 -48.73 86.71
14.4 -47.88 86.21 -0.3334 165.78 -0.3334 165.78 -47.88 86.21
14.5 -47.12 85.57 -0.3355 164.43 -0.3355 164.43 -47.12 85.57
14.6 -46.41 84.82 -0.3376 163.08 -0.3376 163.08 -46.41 84.82
14.7 -45.76 83.98 -0.3397 161.73 -0.3397 161.73 -45.76 83.98
14.8 -45.16 83.07 -0.3419 160.38 -0.3419 160.38 -45.16 83.07
14.9 -44.6 82.11 -0.344 159.03 -0.344 159.03 -44.6 82.11
15 -44.07 81.10 -0.3461 157.68 -0.3461 157.68 -44.07 81.10
15.1 -43.58 80.06 -0.3482 156.33 -0.3482 156.33 -43.58 80.06
15.2 -43.12 78.98 -0.3504 154.98 -0.3504 154.98 -43.12 78.98
15.3 -42.68 77.88 -0.3525 153.63 -0.3525 153.63 -42.68 77.88
15.4 -42.27 76.75 -0.3546 152.27 -0.3546 152.27 -42.27 76.75
15.5 -41.88 75.61 -0.3567 150.92 -0.3567 150.92 -41.88 75.61
15.6 -41.52 74.44 -0.3589 149.57 -0.3589 149.57 -41.52 74.44
15.7 -41.16 73.27 -0.361 148.22 -0.361 148.22 -41.16 73.27
15.8 -40.83 72.07 -0.3631 146.87 -0.3631 146.87 -40.83 72.07
15.9 -40.51 70.87 -0.3653 145.52 -0.3653 145.52 -40.51 70.87
16 -40.21 69.66 -0.3674 144.17 -0.3674 144.17 -40.21 69.66
16.1 -39.93 68.44 -0.3695 142.81 -0.3695 142.81 -39.93 68.44
16.2 -39.65 67.21 -0.3717 141.46 -0.3717 141.46 -39.65 67.21
16.3 -39.39 65.98 -0.3738 140.11 -0.3738 140.11 -39.39 65.98
16.4 -39.14 64.73 -0.3759 138.76 -0.3759 138.76 -39.14 64.73
16.5 -38.9 63.48 -0.378 137.41 -0.378 137.41 -38.9 63.48
16.6 -38.67 62.23 -0.3802 136.05 -0.3802 136.05 -38.67 62.23
16.7 -38.45 60.97 -0.3823 134.70 -0.3823 134.70 -38.45 60.97
16.8 -38.24 59.71 -0.3844 133.35 -0.3844 133.35 -38.24 59.71
16.9 -38.04 58.45 -0.3866 132.00 -0.3866 132.00 -38.04 58.45
17 -37.85 57.18 -0.3887 130.64 -0.3887 130.64 -37.85 57.18
17.1 -37.67 55.90 -0.3908 129.29 -0.3908 129.29 -37.67 55.90
17.2 -37.5 54.63 -0.393 127.94 -0.393 127.94 -37.5 54.63
17.3 -37.33 53.35 -0.3951 126.58 -0.3951 126.58 -37.33 53.35
17.4 -37.17 52.07 -0.3972 125.23 -0.3972 125.23 -37.17 52.07
17.5 -37.02 50.79 -0.3994 123.88 -0.3994 123.88 -37.02 50.79
17.6 -36.87 49.50 -0.4015 122.52 -0.4015 122.52 -36.87 49.50
17.7 -36.74 48.22 -0.4036 121.17 -0.4036 121.17 -36.74 48.22
17.8 -36.6 46.93 -0.4058 119.82 -0.4058 119.82 -36.6 46.93
17.9 -36.48 45.64 -0.4079 118.46 -0.4079 118.46 -36.48 45.64
18 -36.36 44.35 -0.41 117.11 -0.41 117.11 -36.36 44.35
