! yapnr rf coupon B: B14 P L16 (line, family P)
! stackup JLC06161H-2116C, nominal parameters; reference planes 10 mm from each end; 50 ohm (renormalized from the line's Zc)
! model: 2D quasi-static RLGC (Djordjevic-Sarkar, Huray roughness, Wheeler loss); generated by python -m yapnr.rf.coupons expected
# GHz S DB R 50
0.1 -61.45 26.51 -0.01475 -3.45 -0.01475 -3.45 -61.45 26.51
0.2 -60.15 31.18 -0.02349 -6.83 -0.02349 -6.83 -60.15 31.18
0.3 -59.17 39.48 -0.03133 -10.21 -0.03133 -10.21 -59.17 39.48
0.4 -57.94 48.37 -0.03872 -13.57 -0.03872 -13.57 -57.94 48.37
0.5 -56.45 55.74 -0.04581 -16.92 -0.04581 -16.92 -56.45 55.74
0.6 -54.86 60.83 -0.0527 -20.27 -0.0527 -20.27 -54.86 60.83
0.7 -53.3 63.84 -0.05945 -23.62 -0.05945 -23.62 -53.3 63.84
0.8 -51.85 65.24 -0.06607 -26.96 -0.06607 -26.96 -51.85 65.24
0.9 -50.52 65.47 -0.0726 -30.30 -0.0726 -30.30 -50.52 65.47
1 -49.33 64.85 -0.07905 -33.64 -0.07905 -33.64 -49.33 64.85
1.1 -48.24 63.62 -0.08543 -36.98 -0.08543 -36.98 -48.24 63.62
1.2 -47.27 61.95 -0.09176 -40.31 -0.09176 -40.31 -47.27 61.95
1.3 -46.39 59.94 -0.09804 -43.65 -0.09804 -43.65 -46.39 59.94
1.4 -45.6 57.69 -0.1043 -46.98 -0.1043 -46.98 -45.6 57.69
1.5 -44.88 55.24 -0.1105 -50.31 -0.1105 -50.31 -44.88 55.24
1.6 -44.24 52.65 -0.1166 -53.64 -0.1166 -53.64 -44.24 52.65
1.7 -43.66 49.94 -0.1227 -56.96 -0.1227 -56.96 -43.66 49.94
1.8 -43.13 47.14 -0.1288 -60.29 -0.1288 -60.29 -43.13 47.14
1.9 -42.66 44.26 -0.1349 -63.62 -0.1349 -63.62 -42.66 44.26
2 -42.24 41.33 -0.141 -66.94 -0.141 -66.94 -42.24 41.33
2.1 -41.86 38.34 -0.147 -70.27 -0.147 -70.27 -41.86 38.34
2.2 -41.53 35.32 -0.153 -73.59 -0.153 -73.59 -41.53 35.32
2.3 -41.24 32.26 -0.159 -76.91 -0.159 -76.91 -41.24 32.26
2.4 -40.98 29.18 -0.1649 -80.23 -0.1649 -80.23 -40.98 29.18
2.5 -40.77 26.07 -0.1709 -83.55 -0.1709 -83.55 -40.77 26.07
2.6 -40.59 22.95 -0.1768 -86.87 -0.1768 -86.87 -40.59 22.95
2.7 -40.45 19.81 -0.1827 -90.19 -0.1827 -90.19 -40.45 19.81
2.8 -40.35 16.66 -0.1886 -93.51 -0.1886 -93.51 -40.35 16.66
2.9 -40.27 13.51 -0.1944 -96.83 -0.1944 -96.83 -40.27 13.51
3 -40.24 10.34 -0.2003 -100.15 -0.2003 -100.15 -40.24 10.34
3.1 -40.24 7.18 -0.2061 -103.47 -0.2061 -103.47 -40.24 7.18
3.2 -40.27 4.01 -0.2119 -106.78 -0.2119 -106.78 -40.27 4.01
3.3 -40.34 0.84 -0.2177 -110.10 -0.2177 -110.10 -40.34 0.84
3.4 -40.45 -2.32 -0.2235 -113.42 -0.2235 -113.42 -40.45 -2.32
3.5 -40.59 -5.49 -0.2293 -116.73 -0.2293 -116.73 -40.59 -5.49
3.6 -40.77 -8.64 -0.2351 -120.05 -0.2351 -120.05 -40.77 -8.64
3.7 -41 -11.79 -0.2408 -123.36 -0.2408 -123.36 -41 -11.79
3.8 -41.27 -14.92 -0.2465 -126.68 -0.2465 -126.68 -41.27 -14.92
3.9 -41.59 -18.04 -0.2522 -129.99 -0.2522 -129.99 -41.59 -18.04
4 -41.96 -21.13 -0.2579 -133.31 -0.2579 -133.31 -41.96 -21.13
4.1 -42.39 -24.20 -0.2636 -136.62 -0.2636 -136.62 -42.39 -24.20
4.2 -42.88 -27.24 -0.2693 -139.93 -0.2693 -139.93 -42.88 -27.24
4.3 -43.45 -30.24 -0.2749 -143.25 -0.2749 -143.25 -43.45 -30.24
4.4 -44.09 -33.18 -0.2806 -146.56 -0.2806 -146.56 -44.09 -33.18
4.5 -44.84 -36.05 -0.2862 -149.88 -0.2862 -149.88 -44.84 -36.05
4.6 -45.7 -38.81 -0.2919 -153.19 -0.2919 -153.19 -45.7 -38.81
4.7 -46.7 -41.43 -0.2975 -156.50 -0.2975 -156.50 -46.7 -41.43
4.8 -47.88 -43.83 -0.3031 -159.81 -0.3031 -159.81 -47.88 -43.83
4.9 -49.31 -45.89 -0.3087 -163.13 -0.3087 -163.13 -49.31 -45.89
5 -51.07 -47.37 -0.3143 -166.44 -0.3143 -166.44 -51.07 -47.37
5.1 -53.33 -47.71 -0.3198 -169.75 -0.3198 -169.75 -53.33 -47.71
5.2 -56.43 -45.43 -0.3254 -173.07 -0.3254 -173.07 -56.43 -45.43
5.3 -61.06 -34.83 -0.331 -176.38 -0.331 -176.38 -61.06 -34.83
5.4 -66.52 12.86 -0.3366 -179.69 -0.3366 -179.69 -66.52 12.86
5.5 -61.99 70.59 -0.3421 177.00 -0.3421 177.00 -61.99 70.59
5.6 -56.9 84.28 -0.3477 173.69 -0.3477 173.69 -56.9 84.28
5.7 -53.51 87.35 -0.3532 170.37 -0.3532 170.37 -53.51 87.35
5.8 -51.03 87.31 -0.3588 167.06 -0.3588 167.06 -51.03 87.31
5.9 -49.1 85.99 -0.3643 163.75 -0.3643 163.75 -49.1 85.99
6 -47.53 84.01 -0.3699 160.44 -0.3699 160.44 -47.53 84.01
6.1 -46.2 81.67 -0.3754 157.12 -0.3754 157.12 -46.2 81.67
6.2 -45.07 79.09 -0.381 153.81 -0.381 153.81 -45.07 79.09
6.3 -44.09 76.36 -0.3865 150.50 -0.3865 150.50 -44.09 76.36
6.4 -43.22 73.52 -0.3921 147.19 -0.3921 147.19 -43.22 73.52
6.5 -42.46 70.61 -0.3976 143.88 -0.3976 143.88 -42.46 70.61
6.6 -41.77 67.64 -0.4031 140.56 -0.4031 140.56 -41.77 67.64
6.7 -41.16 64.63 -0.4087 137.25 -0.4087 137.25 -41.16 64.63
6.8 -40.62 61.58 -0.4142 133.94 -0.4142 133.94 -40.62 61.58
6.9 -40.13 58.51 -0.4198 130.63 -0.4198 130.63 -40.13 58.51
7 -39.69 55.41 -0.4253 127.32 -0.4253 127.32 -39.69 55.41
7.1 -39.29 52.30 -0.4308 124.00 -0.4308 124.00 -39.29 52.30
7.2 -38.94 49.18 -0.4363 120.69 -0.4363 120.69 -38.94 49.18
7.3 -38.63 46.05 -0.4419 117.38 -0.4419 117.38 -38.63 46.05
7.4 -38.36 42.91 -0.4474 114.07 -0.4474 114.07 -38.36 42.91
7.5 -38.12 39.77 -0.4529 110.76 -0.4529 110.76 -38.12 39.77
7.6 -37.92 36.62 -0.4584 107.44 -0.4584 107.44 -37.92 36.62
7.7 -37.75 33.47 -0.4639 104.13 -0.4639 104.13 -37.75 33.47
7.8 -37.61 30.31 -0.4694 100.82 -0.4694 100.82 -37.61 30.31
7.9 -37.5 27.16 -0.4749 97.51 -0.4749 97.51 -37.5 27.16
8 -37.42 24.01 -0.4804 94.20 -0.4804 94.20 -37.42 24.01
8.1 -37.37 20.86 -0.4859 90.88 -0.4859 90.88 -37.37 20.86
8.2 -37.34 17.72 -0.4913 87.57 -0.4913 87.57 -37.34 17.72
8.3 -37.35 14.58 -0.4968 84.26 -0.4968 84.26 -37.35 14.58
8.4 -37.39 11.45 -0.5022 80.95 -0.5022 80.95 -37.39 11.45
8.5 -37.46 8.32 -0.5077 77.64 -0.5077 77.64 -37.46 8.32
8.6 -37.56 5.21 -0.5131 74.32 -0.5131 74.32 -37.56 5.21
8.7 -37.69 2.11 -0.5185 71.01 -0.5185 71.01 -37.69 2.11
8.8 -37.85 -0.99 -0.524 67.70 -0.524 67.70 -37.85 -0.99
8.9 -38.05 -4.06 -0.5294 64.39 -0.5294 64.39 -38.05 -4.06
9 -38.29 -7.12 -0.5348 61.07 -0.5348 61.07 -38.29 -7.12
9.1 -38.56 -10.15 -0.5401 57.76 -0.5401 57.76 -38.56 -10.15
9.2 -38.87 -13.16 -0.5455 54.45 -0.5455 54.45 -38.87 -13.16
9.3 -39.23 -16.13 -0.5509 51.13 -0.5509 51.13 -39.23 -16.13
9.4 -39.63 -19.07 -0.5562 47.82 -0.5562 47.82 -39.63 -19.07
9.5 -40.09 -21.96 -0.5616 44.51 -0.5616 44.51 -40.09 -21.96
9.6 -40.6 -24.79 -0.5669 41.19 -0.5669 41.19 -40.6 -24.79
9.7 -41.18 -27.55 -0.5723 37.88 -0.5723 37.88 -41.18 -27.55
9.8 -41.84 -30.21 -0.5776 34.57 -0.5776 34.57 -41.84 -30.21
9.9 -42.58 -32.74 -0.5829 31.25 -0.5829 31.25 -42.58 -32.74
10 -43.43 -35.11 -0.5882 27.94 -0.5882 27.94 -43.43 -35.11
10.1 -44.4 -37.24 -0.5935 24.62 -0.5935 24.62 -44.4 -37.24
10.2 -45.53 -39.03 -0.5988 21.31 -0.5988 21.31 -45.53 -39.03
10.3 -46.86 -40.30 -0.6041 17.99 -0.6041 17.99 -46.86 -40.30
10.4 -48.46 -40.73 -0.6095 14.68 -0.6095 14.68 -48.46 -40.73
10.5 -50.42 -39.66 -0.6148 11.36 -0.6148 11.36 -50.42 -39.66
10.6 -52.89 -35.61 -0.6201 8.05 -0.6201 8.05 -52.89 -35.61
10.7 -56.01 -24.72 -0.6254 4.73 -0.6254 4.73 -56.01 -24.72
10.8 -59.08 2.15 -0.6307 1.42 -0.6307 1.42 -59.08 2.15
10.9 -58.66 42.06 -0.636 -1.90 -0.636 -1.90 -58.66 42.06
11 -55.37 65.40 -0.6413 -5.22 -0.6413 -5.22 -55.37 65.40
11.1 -52.33 74.63 -0.6466 -8.53 -0.6466 -8.53 -52.33 74.63
11.2 -49.92 78.00 -0.6519 -11.85 -0.6519 -11.85 -49.92 78.00
11.3 -47.99 78.75 -0.6572 -15.17 -0.6572 -15.17 -47.99 78.75
11.4 -46.41 78.15 -0.6625 -18.48 -0.6625 -18.48 -46.41 78.15
11.5 -45.09 76.79 -0.6678 -21.80 -0.6678 -21.80 -45.09 76.79
11.6 -43.95 74.95 -0.6731 -25.12 -0.6731 -25.12 -43.95 74.95
11.7 -42.96 72.79 -0.6785 -28.44 -0.6785 -28.44 -42.96 72.79
11.8 -42.1 70.42 -0.6838 -31.75 -0.6838 -31.75 -42.1 70.42
11.9 -41.33 67.89 -0.6891 -35.07 -0.6891 -35.07 -41.33 67.89
12 -40.65 65.24 -0.6944 -38.39 -0.6944 -38.39 -40.65 65.24
12.1 -40.05 62.50 -0.6998 -41.71 -0.6998 -41.71 -40.05 62.50
12.2 -39.51 59.70 -0.7051 -45.03 -0.7051 -45.03 -39.51 59.70
12.3 -39.02 56.84 -0.7105 -48.34 -0.7105 -48.34 -39.02 56.84
12.4 -38.59 53.94 -0.7158 -51.66 -0.7158 -51.66 -38.59 53.94
12.5 -38.21 51.00 -0.7211 -54.98 -0.7211 -54.98 -38.21 51.00
12.6 -37.86 48.04 -0.7265 -58.30 -0.7265 -58.30 -37.86 48.04
12.7 -37.56 45.06 -0.7318 -61.62 -0.7318 -61.62 -37.56 45.06
12.8 -37.3 42.06 -0.7371 -64.94 -0.7371 -64.94 -37.3 42.06
12.9 -37.07 39.04 -0.7425 -68.26 -0.7425 -68.26 -37.07 39.04
13 -36.87 36.02 -0.7478 -71.58 -0.7478 -71.58 -36.87 36.02
13.1 -36.71 32.98 -0.7531 -74.90 -0.7531 -74.90 -36.71 32.98
13.2 -36.57 29.95 -0.7585 -78.22 -0.7585 -78.22 -36.57 29.95
13.3 -36.47 26.91 -0.7638 -81.54 -0.7638 -81.54 -36.47 26.91
13.4 -36.4 23.86 -0.7691 -84.86 -0.7691 -84.86 -36.4 23.86
13.5 -36.36 20.82 -0.7744 -88.18 -0.7744 -88.18 -36.36 20.82
13.6 -36.34 17.78 -0.7797 -91.50 -0.7797 -91.50 -36.34 17.78
13.7 -36.36 14.75 -0.785 -94.82 -0.785 -94.82 -36.36 14.75
13.8 -36.4 11.72 -0.7903 -98.14 -0.7903 -98.14 -36.4 11.72
13.9 -36.47 8.71 -0.7955 -101.46 -0.7955 -101.46 -36.47 8.71
14 -36.58 5.70 -0.8008 -104.79 -0.8008 -104.79 -36.58 5.70
14.1 -36.71 2.71 -0.8061 -108.11 -0.8061 -108.11 -36.71 2.71
14.2 -36.88 -0.27 -0.8113 -111.43 -0.8113 -111.43 -36.88 -0.27
14.3 -37.08 -3.22 -0.8165 -114.75 -0.8165 -114.75 -37.08 -3.22
14.4 -37.32 -6.15 -0.8218 -118.07 -0.8218 -118.07 -37.32 -6.15
14.5 -37.59 -9.05 -0.827 -121.40 -0.827 -121.40 -37.59 -9.05
14.6 -37.9 -11.92 -0.8322 -124.72 -0.8322 -124.72 -37.9 -11.92
14.7 -38.26 -14.74 -0.8374 -128.04 -0.8374 -128.04 -38.26 -14.74
14.8 -38.66 -17.51 -0.8426 -131.37 -0.8426 -131.37 -38.66 -17.51
14.9 -39.11 -20.22 -0.8478 -134.69 -0.8478 -134.69 -39.11 -20.22
15 -39.62 -22.85 -0.8529 -138.02 -0.8529 -138.02 -39.62 -22.85
15.1 -40.19 -25.37 -0.8581 -141.34 -0.8581 -141.34 -40.19 -25.37
15.2 -40.83 -27.77 -0.8633 -144.66 -0.8633 -144.66 -40.83 -27.77
15.3 -41.55 -30.01 -0.8684 -147.99 -0.8684 -147.99 -41.55 -30.01
15.4 -42.37 -32.02 -0.8736 -151.31 -0.8736 -151.31 -42.37 -32.02
15.5 -43.3 -33.73 -0.8788 -154.64 -0.8788 -154.64 -43.3 -33.73
15.6 -44.37 -35.01 -0.8839 -157.97 -0.8839 -157.97 -44.37 -35.01
15.7 -45.6 -35.65 -0.8891 -161.29 -0.8891 -161.29 -45.6 -35.65
15.8 -47.06 -35.30 -0.8942 -164.62 -0.8942 -164.62 -47.06 -35.30
15.9 -48.78 -33.31 -0.8994 -167.95 -0.8994 -167.95 -48.78 -33.31
16 -50.82 -28.38 -0.9045 -171.27 -0.9045 -171.27 -50.82 -28.38
16.1 -53.13 -17.94 -0.9097 -174.60 -0.9097 -174.60 -53.13 -17.94
16.2 -55.16 1.87 -0.9148 -177.93 -0.9148 -177.93 -55.16 1.87
16.3 -55.4 29.29 -0.92 178.74 -0.92 178.74 -55.4 29.29
16.4 -53.59 51.29 -0.9252 175.42 -0.9252 175.42 -53.59 51.29
16.5 -51.24 63.36 -0.9303 172.09 -0.9303 172.09 -51.24 63.36
16.6 -49.11 69.17 -0.9355 168.76 -0.9355 168.76 -49.11 69.17
16.7 -47.31 71.65 -0.9407 165.43 -0.9407 165.43 -47.31 71.65
16.8 -45.78 72.29 -0.9459 162.10 -0.9459 162.10 -45.78 72.29
16.9 -44.49 71.83 -0.951 158.77 -0.951 158.77 -44.49 71.83
17 -43.37 70.68 -0.9562 155.44 -0.9562 155.44 -43.37 70.68
17.1 -42.39 69.06 -0.9614 152.11 -0.9614 152.11 -42.39 69.06
17.2 -41.53 67.12 -0.9666 148.78 -0.9666 148.78 -41.53 67.12
17.3 -40.77 64.95 -0.9718 145.45 -0.9718 145.45 -40.77 64.95
17.4 -40.1 62.61 -0.9771 142.12 -0.9771 142.12 -40.1 62.61
17.5 -39.5 60.13 -0.9823 138.78 -0.9823 138.78 -39.5 60.13
17.6 -38.96 57.56 -0.9875 135.45 -0.9875 135.45 -38.96 57.56
17.7 -38.48 54.90 -0.9927 132.12 -0.9927 132.12 -38.48 54.90
17.8 -38.05 52.18 -0.998 128.79 -0.998 128.79 -38.05 52.18
17.9 -37.66 49.41 -1.003 125.46 -1.003 125.46 -37.66 49.41
18 -37.32 46.60 -1.008 122.12 -1.008 122.12 -37.32 46.60
