! yapnr rf coupon B: B15 P L40 (line, family P)
! stackup JLC06161H-2116C, nominal parameters; reference planes 10 mm from each end; 50 ohm (renormalized from the line's Zc)
! model: 2D quasi-static RLGC (Djordjevic-Sarkar, Huray roughness, Wheeler loss); generated by python -m yapnr.rf.coupons expected
# GHz S DB R 50
0.1 -53.54 21.35 -0.03686 -8.62 -0.03686 -8.62 -53.54 21.35
0.2 -52.33 20.96 -0.05872 -17.09 -0.05872 -17.09 -52.33 20.96
0.3 -51.5 24.24 -0.07833 -25.51 -0.07833 -25.51 -51.5 24.24
0.4 -50.47 28.13 -0.09679 -33.92 -0.09679 -33.92 -50.47 28.13
0.5 -49.24 30.52 -0.1145 -42.31 -0.1145 -42.31 -49.24 30.52
0.6 -47.96 30.65 -0.1318 -50.68 -0.1318 -50.68 -47.96 30.65
0.7 -46.78 28.72 -0.1487 -59.05 -0.1487 -59.05 -46.78 28.72
0.8 -45.77 25.20 -0.1652 -67.41 -0.1652 -67.41 -45.77 25.20
0.9 -44.96 20.53 -0.1816 -75.76 -0.1816 -75.76 -44.96 20.53
1 -44.36 15.03 -0.1977 -84.11 -0.1977 -84.11 -44.36 15.03
1.1 -43.96 8.96 -0.2137 -92.45 -0.2137 -92.45 -43.96 8.96
1.2 -43.78 2.48 -0.2295 -100.78 -0.2295 -100.78 -43.78 2.48
1.3 -43.81 -4.29 -0.2452 -109.11 -0.2452 -109.11 -43.81 -4.29
1.4 -44.07 -11.24 -0.2607 -117.44 -0.2607 -117.44 -44.07 -11.24
1.5 -44.58 -18.30 -0.2762 -125.77 -0.2762 -125.77 -44.58 -18.30
1.6 -45.4 -25.37 -0.2915 -134.09 -0.2915 -134.09 -45.4 -25.37
1.7 -46.59 -32.35 -0.3068 -142.41 -0.3068 -142.41 -46.59 -32.35
1.8 -48.29 -39.03 -0.322 -150.72 -0.322 -150.72 -48.29 -39.03
1.9 -50.78 -44.94 -0.3371 -159.04 -0.3371 -159.04 -50.78 -44.94
2 -54.77 -48.46 -0.3521 -167.35 -0.3521 -167.35 -54.77 -48.46
2.1 -62.8 -37.62 -0.3671 -175.66 -0.3671 -175.66 -62.8 -37.62
2.2 -63.12 72.86 -0.382 176.03 -0.382 176.03 -63.12 72.86
2.3 -54.5 85.29 -0.3969 167.73 -0.3969 167.73 -54.5 85.29
2.4 -50.11 81.83 -0.4117 159.42 -0.4117 159.42 -50.11 81.83
2.5 -47.25 75.79 -0.4265 151.12 -0.4265 151.12 -47.25 75.79
2.6 -45.19 68.88 -0.4412 142.82 -0.4412 142.82 -45.19 68.88
2.7 -43.64 61.57 -0.456 134.52 -0.456 134.52 -43.64 61.57
2.8 -42.46 54.05 -0.4707 126.22 -0.4707 126.22 -42.46 54.05
2.9 -41.56 46.42 -0.4854 117.93 -0.4854 117.93 -41.56 46.42
3 -40.91 38.71 -0.5 109.63 -0.5 109.63 -40.91 38.71
3.1 -40.46 30.98 -0.5146 101.34 -0.5146 101.34 -40.46 30.98
3.2 -40.21 23.23 -0.5292 93.04 -0.5292 93.04 -40.21 23.23
3.3 -40.14 15.50 -0.5437 84.75 -0.5437 84.75 -40.14 15.50
3.4 -40.26 7.80 -0.5582 76.46 -0.5582 76.46 -40.26 7.80
3.5 -40.58 0.17 -0.5726 68.17 -0.5726 68.17 -40.58 0.17
3.6 -41.11 -7.36 -0.587 59.88 -0.587 59.88 -41.11 -7.36
3.7 -41.89 -14.74 -0.6013 51.60 -0.6013 51.60 -41.89 -14.74
3.8 -42.96 -21.85 -0.6156 43.31 -0.6156 43.31 -42.96 -21.85
3.9 -44.42 -28.52 -0.6299 35.02 -0.6299 35.02 -44.42 -28.52
4 -46.42 -34.34 -0.6441 26.73 -0.6441 26.73 -46.42 -34.34
4.1 -49.28 -38.20 -0.6583 18.45 -0.6583 18.45 -49.28 -38.20
4.2 -53.77 -35.94 -0.6724 10.16 -0.6724 10.16 -53.77 -35.94
4.3 -60.75 -0.12 -0.6866 1.88 -0.6866 1.88 -60.75 -0.12
4.4 -56.57 68.54 -0.7007 -6.41 -0.7007 -6.41 -56.57 68.54
4.5 -50.78 78.50 -0.7148 -14.69 -0.7148 -14.69 -50.78 78.50
4.6 -47.22 76.43 -0.729 -22.97 -0.729 -22.97 -47.22 76.43
4.7 -44.77 71.31 -0.7431 -31.26 -0.7431 -31.26 -44.77 71.31
4.8 -42.98 65.01 -0.7572 -39.54 -0.7572 -39.54 -42.98 65.01
4.9 -41.63 58.15 -0.7714 -47.82 -0.7714 -47.82 -41.63 58.15
5 -40.61 50.97 -0.7855 -56.10 -0.7855 -56.10 -40.61 50.97
5.1 -39.85 43.63 -0.7996 -64.39 -0.7996 -64.39 -39.85 43.63
5.2 -39.32 36.19 -0.8137 -72.67 -0.8137 -72.67 -39.32 36.19
5.3 -38.98 28.70 -0.8278 -80.95 -0.8278 -80.95 -38.98 28.70
5.4 -38.83 21.19 -0.8418 -89.23 -0.8418 -89.23 -38.83 21.19
5.5 -38.86 13.72 -0.8558 -97.51 -0.8558 -97.51 -38.86 13.72
5.6 -39.08 6.30 -0.8698 -105.79 -0.8698 -105.79 -39.08 6.30
5.7 -39.49 -1.02 -0.8837 -114.07 -0.8837 -114.07 -39.49 -1.02
5.8 -40.12 -8.18 -0.8976 -122.35 -0.8976 -122.35 -40.12 -8.18
5.9 -41 -15.08 -0.9115 -130.63 -0.9115 -130.63 -41 -15.08
6 -42.18 -21.56 -0.9253 -138.91 -0.9253 -138.91 -42.18 -21.56
6.1 -43.77 -27.32 -0.9391 -147.18 -0.9391 -147.18 -43.77 -27.32
6.2 -45.92 -31.63 -0.9529 -155.46 -0.9529 -155.46 -45.92 -31.63
6.3 -48.97 -32.58 -0.9666 -163.74 -0.9666 -163.74 -48.97 -32.58
6.4 -53.46 -22.96 -0.9803 -172.02 -0.9803 -172.02 -53.46 -22.96
6.5 -57.29 22.67 -0.9941 179.70 -0.9941 179.70 -57.29 22.67
6.6 -52.92 64.29 -1.008 171.42 -1.008 171.42 -52.92 64.29
6.7 -48.52 72.30 -1.022 163.14 -1.022 163.14 -48.52 72.30
6.8 -45.51 70.94 -1.035 154.86 -1.035 154.86 -45.51 70.94
6.9 -43.35 66.50 -1.049 146.58 -1.049 146.58 -43.35 66.50
7 -41.75 60.75 -1.063 138.30 -1.063 138.30 -41.75 60.75
7.1 -40.53 54.32 -1.077 130.02 -1.077 130.02 -40.53 54.32
7.2 -39.61 47.52 -1.09 121.74 -1.09 121.74 -39.61 47.52
7.3 -38.94 40.49 -1.104 113.46 -1.104 113.46 -38.94 40.49
7.4 -38.49 33.35 -1.118 105.18 -1.118 105.18 -38.49 33.35
7.5 -38.22 26.14 -1.132 96.90 -1.132 96.90 -38.22 26.14
7.6 -38.14 18.92 -1.146 88.62 -1.146 88.62 -38.14 18.92
7.7 -38.23 11.74 -1.159 80.34 -1.159 80.34 -38.23 11.74
7.8 -38.51 4.63 -1.173 72.06 -1.173 72.06 -38.51 4.63
7.9 -38.99 -2.33 -1.187 63.78 -1.187 63.78 -38.99 -2.33
8 -39.68 -9.06 -1.2 55.50 -1.2 55.50 -39.68 -9.06
8.1 -40.64 -15.43 -1.214 47.22 -1.214 47.22 -40.64 -15.43
8.2 -41.91 -21.20 -1.227 38.94 -1.227 38.94 -41.91 -21.20
8.3 -43.59 -25.89 -1.241 30.66 -1.241 30.66 -43.59 -25.89
8.4 -45.85 -28.45 -1.254 22.38 -1.254 22.38 -45.85 -28.45
8.5 -48.96 -25.96 -1.268 14.10 -1.268 14.10 -48.96 -25.96
8.6 -52.94 -9.07 -1.281 5.81 -1.281 5.81 -52.94 -9.07
8.7 -54.15 33.70 -1.295 -2.47 -1.295 -2.47 -54.15 33.70
8.8 -50.37 60.94 -1.308 -10.75 -1.308 -10.75 -50.37 60.94
8.9 -46.84 67.21 -1.321 -19.03 -1.321 -19.03 -46.84 67.21
9 -44.25 66.10 -1.335 -27.32 -1.335 -27.32 -44.25 66.10
9.1 -42.33 62.11 -1.349 -35.60 -1.349 -35.60 -42.33 62.11
9.2 -40.88 56.76 -1.362 -43.89 -1.362 -43.89 -40.88 56.76
9.3 -39.78 50.69 -1.376 -52.17 -1.376 -52.17 -39.78 50.69
9.4 -38.96 44.21 -1.389 -60.45 -1.389 -60.45 -38.96 44.21
9.5 -38.36 37.48 -1.403 -68.74 -1.403 -68.74 -38.36 37.48
9.6 -37.97 30.61 -1.416 -77.02 -1.416 -77.02 -37.97 30.61
9.7 -37.76 23.67 -1.43 -85.31 -1.43 -85.31 -37.76 23.67
9.8 -37.74 16.73 -1.443 -93.59 -1.443 -93.59 -37.74 16.73
9.9 -37.89 9.83 -1.457 -101.88 -1.457 -101.88 -37.89 9.83
10 -38.22 3.05 -1.47 -110.16 -1.47 -110.16 -38.22 3.05
10.1 -38.76 -3.54 -1.484 -118.45 -1.484 -118.45 -38.76 -3.54
10.2 -39.52 -9.82 -1.497 -126.73 -1.497 -126.73 -39.52 -9.82
10.3 -40.54 -15.61 -1.51 -135.02 -1.51 -135.02 -40.54 -15.61
10.4 -41.88 -20.57 -1.524 -143.31 -1.524 -143.31 -41.88 -20.57
10.5 -43.64 -24.05 -1.537 -151.59 -1.537 -151.59 -43.64 -24.05
10.6 -45.97 -24.55 -1.55 -159.88 -1.55 -159.88 -45.97 -24.55
10.7 -49 -18.22 -1.563 -168.17 -1.563 -168.17 -49 -18.22
10.8 -52.03 4.09 -1.577 -176.46 -1.577 -176.46 -52.03 4.09
10.9 -51.62 39.45 -1.59 175.25 -1.59 175.25 -51.62 39.45
11 -48.4 58.25 -1.603 166.96 -1.603 166.96 -48.4 58.25
11.1 -45.46 62.96 -1.616 158.67 -1.616 158.67 -45.46 62.96
11.2 -43.22 61.81 -1.63 150.38 -1.63 150.38 -43.22 61.81
11.3 -41.52 58.07 -1.643 142.08 -1.643 142.08 -41.52 58.07
11.4 -40.21 53.02 -1.657 133.79 -1.657 133.79 -40.21 53.02
11.5 -39.21 47.24 -1.67 125.50 -1.67 125.50 -39.21 47.24
11.6 -38.47 41.03 -1.683 117.21 -1.683 117.21 -38.47 41.03
11.7 -37.95 34.56 -1.697 108.91 -1.697 108.91 -37.95 34.56
11.8 -37.62 27.94 -1.71 100.62 -1.71 100.62 -37.62 27.94
11.9 -37.47 21.26 -1.723 92.33 -1.723 92.33 -37.47 21.26
12 -37.5 14.59 -1.737 84.03 -1.737 84.03 -37.5 14.59
12.1 -37.71 7.99 -1.75 75.74 -1.75 75.74 -37.71 7.99
12.2 -38.1 1.55 -1.763 67.45 -1.763 67.45 -38.1 1.55
12.3 -38.69 -4.65 -1.776 59.15 -1.776 59.15 -38.69 -4.65
12.4 -39.51 -10.44 -1.79 50.85 -1.79 50.85 -39.51 -10.44
12.5 -40.6 -15.58 -1.803 42.56 -1.803 42.56 -40.6 -15.58
12.6 -42.01 -19.62 -1.816 34.26 -1.816 34.26 -42.01 -19.62
12.7 -43.84 -21.68 -1.829 25.96 -1.829 25.96 -43.84 -21.68
12.8 -46.19 -19.81 -1.842 17.67 -1.842 17.67 -46.19 -19.81
12.9 -48.95 -9.49 -1.855 9.37 -1.855 9.37 -48.95 -9.49
13 -50.82 15.27 -1.868 1.07 -1.868 1.07 -50.82 15.27
13.1 -49.54 42.74 -1.881 -7.23 -1.881 -7.23 -49.54 42.74
13.2 -46.77 55.98 -1.895 -15.54 -1.895 -15.54 -46.77 55.98
13.3 -44.28 59.28 -1.908 -23.84 -1.908 -23.84 -44.28 59.28
13.4 -42.33 57.93 -1.921 -32.14 -1.921 -32.14 -42.33 57.93
13.5 -40.81 54.31 -1.934 -40.44 -1.934 -40.44 -40.81 54.31
13.6 -39.64 49.46 -1.947 -48.74 -1.947 -48.74 -39.64 49.46
13.7 -38.75 43.90 -1.961 -57.05 -1.961 -57.05 -38.75 43.90
13.8 -38.1 37.92 -1.974 -65.35 -1.974 -65.35 -38.1 37.92
13.9 -37.64 31.68 -1.987 -73.66 -1.987 -73.66 -37.64 31.68
14 -37.38 25.30 -2 -81.96 -2 -81.96 -37.38 25.30
14.1 -37.29 18.88 -2.013 -90.27 -2.013 -90.27 -37.29 18.88
14.2 -37.38 12.48 -2.027 -98.57 -2.027 -98.57 -37.38 12.48
14.3 -37.64 6.18 -2.04 -106.88 -2.04 -106.88 -37.64 6.18
14.4 -38.09 0.08 -2.053 -115.18 -2.053 -115.18 -38.09 0.08
14.5 -38.74 -5.68 -2.066 -123.49 -2.066 -123.49 -38.74 -5.68
14.6 -39.62 -10.93 -2.079 -131.80 -2.079 -131.80 -39.62 -10.93
14.7 -40.78 -15.32 -2.092 -140.11 -2.092 -140.11 -40.78 -15.32
14.8 -42.26 -18.29 -2.105 -148.42 -2.105 -148.42 -42.26 -18.29
14.9 -44.14 -18.68 -2.118 -156.73 -2.118 -156.73 -44.14 -18.68
15 -46.42 -14.09 -2.131 -165.04 -2.131 -165.04 -46.42 -14.09
15.1 -48.71 -0.13 -2.144 -173.35 -2.144 -173.35 -48.71 -0.13
15.2 -49.45 24.08 -2.157 178.34 -2.157 178.34 -49.45 24.08
15.3 -47.77 44.66 -2.17 170.02 -2.17 170.02 -47.77 44.66
15.4 -45.37 53.95 -2.183 161.71 -2.183 161.71 -45.37 53.95
15.5 -43.24 56.00 -2.196 153.39 -2.196 153.39 -43.24 56.00
15.6 -41.53 54.35 -2.209 145.08 -2.209 145.08 -41.53 54.35
15.7 -40.19 50.73 -2.222 136.76 -2.222 136.76 -40.19 50.73
15.8 -39.15 46.01 -2.235 128.45 -2.235 128.45 -39.15 46.01
15.9 -38.36 40.63 -2.248 120.13 -2.248 120.13 -38.36 40.63
16 -37.79 34.84 -2.261 111.81 -2.261 111.81 -37.79 34.84
16.1 -37.41 28.81 -2.274 103.49 -2.274 103.49 -37.41 28.81
16.2 -37.21 22.66 -2.288 95.18 -2.288 95.18 -37.21 22.66
16.3 -37.19 16.48 -2.301 86.86 -2.301 86.86 -37.19 16.48
16.4 -37.33 10.36 -2.314 78.54 -2.314 78.54 -37.33 10.36
16.5 -37.66 4.38 -2.327 70.22 -2.327 70.22 -37.66 4.38
16.6 -38.17 -1.33 -2.34 61.90 -2.34 61.90 -38.17 -1.33
16.7 -38.88 -6.62 -2.353 53.58 -2.353 53.58 -38.88 -6.62
16.8 -39.83 -11.24 -2.365 45.25 -2.365 45.25 -39.83 -11.24
16.9 -41.06 -14.77 -2.378 36.93 -2.378 36.93 -41.06 -14.77
17 -42.6 -16.45 -2.391 28.61 -2.391 28.61 -42.6 -16.45
17.1 -44.49 -14.86 -2.404 20.28 -2.404 20.28 -44.49 -14.86
17.2 -46.6 -7.31 -2.417 11.96 -2.417 11.96 -46.6 -7.31
17.3 -48.21 9.23 -2.43 3.63 -2.43 3.63 -48.21 9.23
17.4 -48.03 30.68 -2.443 -4.70 -2.443 -4.70 -48.03 30.68
17.5 -46.24 45.68 -2.455 -13.03 -2.455 -13.03 -46.24 45.68
17.6 -44.14 52.01 -2.468 -21.36 -2.468 -21.36 -44.14 52.01
17.7 -42.3 52.96 -2.481 -29.69 -2.481 -29.69 -42.3 52.96
17.8 -40.81 50.95 -2.494 -38.02 -2.494 -38.02 -40.81 50.95
17.9 -39.63 47.28 -2.507 -46.35 -2.507 -46.35 -39.63 47.28
18 -38.71 42.63 -2.52 -54.68 -2.52 -54.68 -38.71 42.63
