! yapnr rf coupon B: B24 P-MO (variant, family P-MO)
! stackup JLC06161H-2116C, nominal parameters; reference planes 10 mm from each end; 50 ohm (renormalized from the line's Zc)
! model: 2D quasi-static RLGC (Djordjevic-Sarkar, Huray roughness, Wheeler loss); generated by python -m yapnr.rf.coupons expected
# GHz S DB R 50
0.1 -41.3 68.08 -0.03528 -8.20 -0.03528 -8.20 -41.3 68.08
0.2 -35.96 65.32 -0.05598 -16.25 -0.05598 -16.25 -35.96 65.32
0.3 -32.78 59.89 -0.07483 -24.27 -0.07483 -24.27 -32.78 59.89
0.4 -30.56 53.51 -0.09285 -32.26 -0.09285 -32.26 -30.56 53.51
0.5 -28.92 46.66 -0.1104 -40.24 -0.1104 -40.24 -28.92 46.66
0.6 -27.67 39.55 -0.1276 -48.20 -0.1276 -48.20 -27.67 39.55
0.7 -26.73 32.29 -0.1443 -56.16 -0.1443 -56.16 -26.73 32.29
0.8 -26.03 24.94 -0.1607 -64.10 -0.1607 -64.10 -26.03 24.94
0.9 -25.53 17.51 -0.1765 -72.03 -0.1765 -72.03 -25.53 17.51
1 -25.21 10.05 -0.1918 -79.96 -0.1918 -79.96 -25.21 10.05
1.1 -25.07 2.57 -0.2065 -87.88 -0.2065 -87.88 -25.07 2.57
1.2 -25.1 -4.93 -0.2206 -95.80 -0.2206 -95.80 -25.1 -4.93
1.3 -25.29 -12.42 -0.234 -103.71 -0.234 -103.71 -25.29 -12.42
1.4 -25.66 -19.89 -0.2469 -111.62 -0.2469 -111.62 -25.66 -19.89
1.5 -26.22 -27.32 -0.2594 -119.53 -0.2594 -119.53 -26.22 -27.32
1.6 -27.01 -34.68 -0.2714 -127.44 -0.2714 -127.44 -27.01 -34.68
1.7 -28.05 -41.95 -0.2832 -135.35 -0.2832 -135.35 -28.05 -41.95
1.8 -29.44 -49.02 -0.2949 -143.27 -0.2949 -143.27 -29.44 -49.02
1.9 -31.3 -55.76 -0.3066 -151.18 -0.3066 -151.18 -31.3 -55.76
2 -33.88 -61.75 -0.3185 -159.09 -0.3185 -159.09 -33.88 -61.75
2.1 -37.81 -65.68 -0.3307 -167.01 -0.3307 -167.01 -37.81 -65.68
2.2 -45.23 -58.90 -0.3432 -174.92 -0.3432 -174.92 -45.23 -58.90
2.3 -48.79 49.71 -0.3562 177.16 -0.3562 177.16 -48.79 49.71
2.4 -39.32 68.86 -0.3697 169.25 -0.3697 169.25 -39.32 68.86
2.5 -34.76 66.22 -0.3837 161.34 -0.3837 161.34 -34.76 66.22
2.6 -31.88 60.60 -0.398 153.43 -0.398 153.43 -31.88 60.60
2.7 -29.85 54.04 -0.4126 145.53 -0.4126 145.53 -29.85 54.04
2.8 -28.34 47.07 -0.4274 137.63 -0.4274 137.63 -28.34 47.07
2.9 -27.19 39.90 -0.4423 129.74 -0.4423 129.74 -27.19 39.90
3 -26.33 32.61 -0.4571 121.85 -0.4571 121.85 -26.33 32.61
3.1 -25.69 25.25 -0.4717 113.96 -0.4717 113.96 -25.69 25.25
3.2 -25.25 17.87 -0.4859 106.08 -0.4859 106.08 -25.25 17.87
3.3 -24.99 10.47 -0.4997 98.20 -0.4997 98.20 -24.99 10.47
3.4 -24.9 3.08 -0.513 90.32 -0.513 90.32 -24.9 3.08
3.5 -24.98 -4.29 -0.5257 82.45 -0.5257 82.45 -24.98 -4.29
3.6 -25.22 -11.63 -0.5379 74.57 -0.5379 74.57 -25.22 -11.63
3.7 -25.64 -18.90 -0.5496 66.69 -0.5496 66.69 -25.64 -18.90
3.8 -26.25 -26.07 -0.5608 58.81 -0.5608 58.81 -26.25 -26.07
3.9 -27.08 -33.11 -0.5718 50.93 -0.5718 50.93 -27.08 -33.11
4 -28.19 -39.91 -0.5825 43.05 -0.5825 43.05 -28.19 -39.91
4.1 -29.65 -46.34 -0.5932 35.16 -0.5932 35.16 -29.65 -46.34
4.2 -31.6 -52.05 -0.6041 27.27 -0.6041 27.27 -31.6 -52.05
4.3 -34.31 -56.22 -0.6151 19.38 -0.6151 19.38 -34.31 -56.22
4.4 -38.4 -55.93 -0.6265 11.49 -0.6265 11.49 -38.4 -55.93
4.5 -45.22 -33.85 -0.6383 3.59 -0.6383 3.59 -45.22 -33.85
4.6 -44.41 44.04 -0.6506 -4.30 -0.6506 -4.30 -44.41 44.04
4.7 -37.89 61.57 -0.6635 -12.20 -0.6635 -12.20 -37.89 61.57
4.8 -33.99 61.13 -0.6768 -20.09 -0.6768 -20.09 -33.99 61.13
4.9 -31.38 56.78 -0.6905 -27.99 -0.6905 -27.99 -31.38 56.78
5 -29.49 51.02 -0.7045 -35.87 -0.7045 -35.87 -29.49 51.02
5.1 -28.07 44.62 -0.7188 -43.76 -0.7188 -43.76 -28.07 44.62
5.2 -27 37.88 -0.7331 -51.64 -0.7331 -51.64 -27 37.88
5.3 -26.19 30.94 -0.7473 -59.52 -0.7473 -59.52 -26.19 30.94
5.4 -25.6 23.88 -0.7613 -67.40 -0.7613 -67.40 -25.6 23.88
5.5 -25.2 16.76 -0.7749 -75.27 -0.7749 -75.27 -25.2 16.76
5.6 -24.97 9.62 -0.7882 -83.14 -0.7882 -83.14 -24.97 9.62
5.7 -24.92 2.47 -0.8009 -91.01 -0.8009 -91.01 -24.92 2.47
5.8 -25.02 -4.65 -0.813 -98.88 -0.813 -98.88 -25.02 -4.65
5.9 -25.29 -11.72 -0.8247 -106.75 -0.8247 -106.75 -25.29 -11.72
6 -25.74 -18.70 -0.8359 -114.62 -0.8359 -114.62 -25.74 -18.70
6.1 -26.39 -25.54 -0.8466 -122.49 -0.8466 -122.49 -26.39 -25.54
6.2 -27.26 -32.17 -0.8571 -130.37 -0.8571 -130.37 -27.26 -32.17
6.3 -28.41 -38.45 -0.8675 -138.24 -0.8675 -138.24 -28.41 -38.45
6.4 -29.91 -44.15 -0.8778 -146.13 -0.8778 -146.13 -29.91 -44.15
6.5 -31.92 -48.74 -0.8882 -154.01 -0.8882 -154.01 -31.92 -48.74
6.6 -34.68 -50.90 -0.8989 -161.90 -0.8989 -161.90 -34.68 -50.90
6.7 -38.72 -46.18 -0.91 -169.79 -0.91 -169.79 -38.72 -46.18
6.8 -43.88 -15.07 -0.9215 -177.69 -0.9215 -177.69 -43.88 -15.07
6.9 -41.77 40.37 -0.9335 174.42 -0.9335 174.42 -41.77 40.37
7 -36.8 55.76 -0.946 166.53 -0.946 166.53 -36.8 55.76
7.1 -33.4 56.55 -0.959 158.63 -0.959 158.63 -33.4 56.55
7.2 -31.01 53.12 -0.9724 150.74 -0.9724 150.74 -31.01 53.12
7.3 -29.25 48.02 -0.9861 142.86 -0.9861 142.86 -29.25 48.02
7.4 -27.92 42.11 -1 134.97 -1 134.97 -27.92 42.11
7.5 -26.9 35.75 -1.014 127.09 -1.014 127.09 -26.9 35.75
7.6 -26.14 29.13 -1.028 119.21 -1.028 119.21 -26.14 29.13
7.7 -25.58 22.36 -1.041 111.33 -1.041 111.33 -25.58 22.36
7.8 -25.22 15.50 -1.055 103.46 -1.055 103.46 -25.22 15.50
7.9 -25.03 8.60 -1.067 95.59 -1.067 95.59 -25.03 8.60
8 -25 1.69 -1.08 87.72 -1.08 87.72 -25 1.69
8.1 -25.13 -5.18 -1.092 79.85 -1.092 79.85 -25.13 -5.18
8.2 -25.43 -11.98 -1.103 71.97 -1.103 71.97 -25.43 -11.98
8.3 -25.9 -18.67 -1.114 64.10 -1.114 64.10 -25.9 -18.67
8.4 -26.58 -25.17 -1.124 56.22 -1.124 56.22 -26.58 -25.17
8.5 -27.48 -31.37 -1.134 48.34 -1.134 48.34 -27.48 -31.37
8.6 -28.67 -37.10 -1.145 40.46 -1.145 40.46 -28.67 -37.10
8.7 -30.22 -42.03 -1.155 32.57 -1.155 32.57 -30.22 -42.03
8.8 -32.26 -45.41 -1.165 24.68 -1.165 24.68 -32.26 -45.41
8.9 -35.03 -45.44 -1.175 16.79 -1.175 16.79 -35.03 -45.44
9 -38.81 -36.41 -1.186 8.89 -1.186 8.89 -38.81 -36.41
9.1 -42.23 -2.46 -1.198 1.00 -1.198 1.00 -42.23 -2.46
9.2 -39.82 38.08 -1.209 -6.90 -1.209 -6.90 -39.82 38.08
9.3 -35.83 51.15 -1.222 -14.80 -1.222 -14.80 -35.83 51.15
9.4 -32.85 52.49 -1.235 -22.70 -1.235 -22.70 -32.85 52.49
9.5 -30.68 49.70 -1.248 -30.59 -1.248 -30.59 -30.68 49.70
9.6 -29.04 45.11 -1.261 -38.49 -1.261 -38.49 -29.04 45.11
9.7 -27.79 39.60 -1.275 -46.38 -1.275 -46.38 -27.79 39.60
9.8 -26.83 33.58 -1.288 -54.26 -1.288 -54.26 -26.83 33.58
9.9 -26.12 27.25 -1.302 -62.15 -1.302 -62.15 -26.12 27.25
10 -25.6 20.74 -1.315 -70.03 -1.315 -70.03 -25.6 20.74
10.1 -25.27 14.12 -1.328 -77.91 -1.328 -77.91 -25.27 14.12
10.2 -25.11 7.45 -1.341 -85.79 -1.341 -85.79 -25.11 7.45
10.3 -25.11 0.78 -1.353 -93.67 -1.353 -93.67 -25.11 0.78
10.4 -25.27 -5.85 -1.364 -101.55 -1.364 -101.55 -25.27 -5.85
10.5 -25.6 -12.38 -1.375 -109.43 -1.375 -109.43 -25.6 -12.38
10.6 -26.1 -18.77 -1.386 -117.31 -1.386 -117.31 -26.1 -18.77
10.7 -26.81 -24.91 -1.396 -125.20 -1.396 -125.20 -26.81 -24.91
10.8 -27.75 -30.67 -1.406 -133.08 -1.406 -133.08 -27.75 -30.67
10.9 -28.97 -35.82 -1.416 -140.98 -1.416 -140.98 -28.97 -35.82
11 -30.55 -39.90 -1.426 -148.87 -1.426 -148.87 -30.55 -39.90
11.1 -32.62 -41.98 -1.436 -156.77 -1.436 -156.77 -32.62 -41.98
11.2 -35.35 -39.71 -1.447 -164.67 -1.447 -164.67 -35.35 -39.71
11.3 -38.72 -26.73 -1.457 -172.58 -1.457 -172.58 -38.72 -26.73
11.4 -40.66 6.35 -1.469 179.52 -1.469 179.52 -40.66 6.35
11.5 -38.24 36.72 -1.48 171.61 -1.48 171.61 -38.24 36.72
11.6 -34.93 47.48 -1.493 163.70 -1.493 163.70 -34.93 47.48
11.7 -32.32 48.90 -1.505 155.80 -1.505 155.80 -32.32 48.90
11.8 -30.34 46.49 -1.518 147.89 -1.518 147.89 -30.34 46.49
11.9 -28.83 42.27 -1.531 139.99 -1.531 139.99 -28.83 42.27
12 -27.66 37.08 -1.545 132.09 -1.545 132.09 -27.66 37.08
12.1 -26.77 31.35 -1.558 124.19 -1.558 124.19 -26.77 31.35
12.2 -26.1 25.28 -1.571 116.30 -1.571 116.30 -26.1 25.28
12.3 -25.63 19.00 -1.584 108.41 -1.584 108.41 -25.63 19.00
12.4 -25.34 12.61 -1.597 100.51 -1.597 100.51 -25.34 12.61
12.5 -25.21 6.17 -1.609 92.63 -1.609 92.63 -25.21 6.17
12.6 -25.24 -0.28 -1.621 84.74 -1.621 84.74 -25.24 -0.28
12.7 -25.44 -6.66 -1.632 76.85 -1.632 76.85 -25.44 -6.66
12.8 -25.8 -12.93 -1.643 68.95 -1.643 68.95 -25.8 -12.93
12.9 -26.34 -19.00 -1.654 61.06 -1.654 61.06 -26.34 -19.00
13 -27.08 -24.77 -1.664 53.16 -1.664 53.16 -27.08 -24.77
13.1 -28.06 -30.06 -1.674 45.26 -1.674 45.26 -28.06 -30.06
13.2 -29.32 -34.56 -1.683 37.36 -1.683 37.36 -29.32 -34.56
13.3 -30.94 -37.71 -1.693 29.45 -1.693 29.45 -30.94 -37.71
13.4 -33.02 -38.31 -1.703 21.54 -1.703 21.54 -33.02 -38.31
13.5 -35.65 -33.55 -1.714 13.63 -1.714 13.63 -35.65 -33.55
13.6 -38.46 -17.27 -1.725 5.71 -1.725 5.71 -38.46 -17.27
13.7 -39.21 12.92 -1.736 -2.21 -1.736 -2.21 -39.21 12.92
13.8 -36.88 35.93 -1.747 -10.13 -1.747 -10.13 -36.88 35.93
13.9 -34.07 44.52 -1.76 -18.05 -1.76 -18.05 -34.07 44.52
14 -31.78 45.69 -1.772 -25.96 -1.772 -25.96 -31.78 45.69
14.1 -29.99 43.45 -1.785 -33.88 -1.785 -33.88 -29.99 43.45
14.2 -28.6 39.47 -1.798 -41.79 -1.798 -41.79 -28.6 39.47
14.3 -27.52 34.54 -1.811 -49.70 -1.811 -49.70 -27.52 34.54
14.4 -26.7 29.04 -1.824 -57.61 -1.824 -57.61 -26.7 29.04
14.5 -26.09 23.19 -1.837 -65.52 -1.837 -65.52 -26.09 23.19
14.6 -25.67 17.13 -1.85 -73.43 -1.85 -73.43 -25.67 17.13
14.7 -25.42 10.95 -1.863 -81.33 -1.863 -81.33 -25.42 10.95
14.8 -25.33 4.72 -1.875 -89.23 -1.875 -89.23 -25.33 4.72
14.9 -25.4 -1.49 -1.886 -97.13 -1.886 -97.13 -25.4 -1.49
15 -25.63 -7.63 -1.897 -105.04 -1.897 -105.04 -25.63 -7.63
15.1 -26.02 -13.62 -1.908 -112.94 -1.908 -112.94 -26.02 -13.62
15.2 -26.6 -19.36 -1.918 -120.85 -1.918 -120.85 -26.6 -19.36
15.3 -27.39 -24.72 -1.928 -128.76 -1.928 -128.76 -27.39 -24.72
15.4 -28.4 -29.48 -1.938 -136.68 -1.938 -136.68 -28.4 -29.48
15.5 -29.71 -33.26 -1.948 -144.60 -1.948 -144.60 -29.71 -33.26
15.6 -31.37 -35.33 -1.957 -152.52 -1.957 -152.52 -31.37 -35.33
15.7 -33.45 -34.24 -1.967 -160.44 -1.967 -160.44 -33.45 -34.24
15.8 -35.91 -26.83 -1.978 -168.37 -1.978 -168.37 -35.91 -26.83
15.9 -38.02 -8.18 -1.989 -176.30 -1.989 -176.30 -38.02 -8.18
16 -37.89 18.04 -2 175.77 -2 175.77 -37.89 18.04
16.1 -35.68 35.46 -2.011 167.83 -2.011 167.83 -35.68 35.46
16.2 -33.25 42.06 -2.024 159.90 -2.024 159.90 -33.25 42.06
16.3 -31.23 42.78 -2.036 151.97 -2.036 151.97 -31.23 42.78
16.4 -29.62 40.54 -2.049 144.04 -2.049 144.04 -29.62 40.54
16.5 -28.36 36.71 -2.062 136.11 -2.062 136.11 -28.36 36.71
16.6 -27.37 31.96 -2.075 128.19 -2.075 128.19 -27.37 31.96
16.7 -26.62 26.64 -2.088 120.26 -2.088 120.26 -26.62 26.64
16.8 -26.07 20.99 -2.1 112.34 -2.1 112.34 -26.07 20.99
16.9 -25.71 15.12 -2.113 104.42 -2.113 104.42 -25.71 15.12
17 -25.5 9.14 -2.125 96.51 -2.125 96.51 -25.5 9.14
17.1 -25.46 3.12 -2.137 88.59 -2.137 88.59 -25.46 3.12
17.2 -25.57 -2.86 -2.148 80.67 -2.148 80.67 -25.57 -2.86
17.3 -25.84 -8.74 -2.159 72.75 -2.159 72.75 -25.84 -8.74
17.4 -26.28 -14.44 -2.169 64.83 -2.169 64.83 -26.28 -14.44
17.5 -26.9 -19.82 -2.179 56.90 -2.179 56.90 -26.9 -19.82
17.6 -27.73 -24.73 -2.189 48.98 -2.189 48.98 -27.73 -24.73
17.7 -28.8 -28.89 -2.199 41.04 -2.199 41.04 -28.8 -28.89
17.8 -30.16 -31.82 -2.209 33.11 -2.209 33.11 -30.16 -31.82
17.9 -31.84 -32.63 -2.219 25.17 -2.219 25.17 -31.84 -32.63
18 -33.88 -29.58 -2.229 17.23 -2.229 17.23 -33.88 -29.58
