! yapnr Order 0 O0-D: O0-D A20 M dL9 (line, family M)
! stackup OSHPARK-4L-FR408HR, nominal parameters; geometry of the OSHPARK-4L-FR408HR design
! model: 2D quasi-static RLGC (Djordjevic-Sarkar, Huray roughness, Wheeler loss); generated by python -m yapnr.rf.coupons expected --stackup OSHPARK-4L-FR408HR --upload D
! reference planes 10 mm from each end; 50 ohm (from the M line's Zc)
# GHz S DB R 50
0.03 -66.682 43.10 -0.0035322 -0.56 -0.0035322 -0.56 -66.682 43.10
0.06 -63.712 44.83 -0.0051818 -1.10 -0.0051818 -1.10 -63.712 44.83
0.09 -61.904 46.15 -0.0065493 -1.64 -0.0065493 -1.64 -61.904 46.15
0.12 -60.569 47.27 -0.0077719 -2.18 -0.0077719 -2.18 -60.569 47.27
0.15 -59.495 48.24 -0.0089033 -2.72 -0.0089033 -2.72 -59.495 48.24
0.18 -58.586 49.09 -0.0099707 -3.26 -0.0099707 -3.26 -58.586 49.09
0.21 -57.792 49.84 -0.01099 -3.80 -0.01099 -3.80 -57.792 49.84
0.24 -57.083 50.50 -0.011972 -4.34 -0.011972 -4.34 -57.083 50.50
0.27 -56.44 51.08 -0.012924 -4.87 -0.012924 -4.87 -56.44 51.08
0.3 -55.849 51.59 -0.01385 -5.41 -0.01385 -5.41 -55.849 51.59
0.33 -55.301 52.03 -0.014756 -5.95 -0.014756 -5.95 -55.301 52.03
0.36 -54.79 52.42 -0.015643 -6.48 -0.015643 -6.48 -54.79 52.42
0.39 -54.31 52.75 -0.016515 -7.02 -0.016515 -7.02 -54.31 52.75
0.42 -53.857 53.03 -0.017372 -7.56 -0.017372 -7.56 -53.857 53.03
0.45 -53.428 53.27 -0.018218 -8.09 -0.018218 -8.09 -53.428 53.27
0.48 -53.02 53.47 -0.019052 -8.63 -0.019052 -8.63 -53.02 53.47
0.51 -52.631 53.64 -0.019876 -9.16 -0.019876 -9.16 -52.631 53.64
0.54 -52.258 53.76 -0.020691 -9.70 -0.020691 -9.70 -52.258 53.76
0.57 -51.901 53.86 -0.021498 -10.23 -0.021498 -10.23 -51.901 53.86
0.6 -51.559 53.93 -0.022298 -10.77 -0.022298 -10.77 -51.559 53.93
0.63 -51.229 53.97 -0.02309 -11.30 -0.02309 -11.30 -51.229 53.97
0.66 -50.911 53.98 -0.023876 -11.84 -0.023876 -11.84 -50.911 53.98
0.69 -50.604 53.97 -0.024657 -12.37 -0.024657 -12.37 -50.604 53.97
0.72 -50.308 53.94 -0.025431 -12.91 -0.025431 -12.91 -50.308 53.94
0.75 -50.022 53.88 -0.026201 -13.44 -0.026201 -13.44 -50.022 53.88
0.78 -49.744 53.81 -0.026965 -13.98 -0.026965 -13.98 -49.744 53.81
0.81 -49.475 53.72 -0.027725 -14.51 -0.027725 -14.51 -49.475 53.72
0.84 -49.214 53.61 -0.028481 -15.04 -0.028481 -15.04 -49.214 53.61
0.87 -48.96 53.49 -0.029232 -15.58 -0.029232 -15.58 -48.96 53.49
0.9 -48.714 53.35 -0.02998 -16.11 -0.02998 -16.11 -48.714 53.35
0.93 -48.474 53.20 -0.030724 -16.65 -0.030724 -16.65 -48.474 53.20
0.96 -48.241 53.03 -0.031464 -17.18 -0.031464 -17.18 -48.241 53.03
0.99 -48.014 52.85 -0.032201 -17.72 -0.032201 -17.72 -48.014 52.85
1.02 -47.792 52.66 -0.032936 -18.25 -0.032936 -18.25 -47.792 52.66
1.05 -47.577 52.45 -0.033667 -18.78 -0.033667 -18.78 -47.577 52.45
1.08 -47.366 52.24 -0.034395 -19.32 -0.034395 -19.32 -47.366 52.24
1.11 -47.161 52.01 -0.03512 -19.85 -0.03512 -19.85 -47.161 52.01
1.14 -46.961 51.78 -0.035843 -20.38 -0.035843 -20.38 -46.961 51.78
1.17 -46.765 51.53 -0.036563 -20.92 -0.036563 -20.92 -46.765 51.53
1.2 -46.573 51.28 -0.037281 -21.45 -0.037281 -21.45 -46.573 51.28
1.23 -46.386 51.02 -0.037996 -21.99 -0.037996 -21.99 -46.386 51.02
1.26 -46.204 50.75 -0.03871 -22.52 -0.03871 -22.52 -46.204 50.75
1.29 -46.025 50.47 -0.039421 -23.05 -0.039421 -23.05 -46.025 50.47
1.32 -45.85 50.19 -0.040129 -23.59 -0.040129 -23.59 -45.85 50.19
1.35 -45.679 49.90 -0.040836 -24.12 -0.040836 -24.12 -45.679 49.90
1.38 -45.511 49.60 -0.041541 -24.65 -0.041541 -24.65 -45.511 49.60
1.41 -45.347 49.30 -0.042244 -25.19 -0.042244 -25.19 -45.347 49.30
1.44 -45.186 48.98 -0.042945 -25.72 -0.042945 -25.72 -45.186 48.98
1.47 -45.028 48.67 -0.043644 -26.25 -0.043644 -26.25 -45.028 48.67
1.5 -44.874 48.35 -0.044342 -26.79 -0.044342 -26.79 -44.874 48.35
1.53 -44.722 48.02 -0.045038 -27.32 -0.045038 -27.32 -44.722 48.02
1.56 -44.574 47.69 -0.045732 -27.85 -0.045732 -27.85 -44.574 47.69
1.59 -44.428 47.35 -0.046425 -28.39 -0.046425 -28.39 -44.428 47.35
1.62 -44.286 47.01 -0.047116 -28.92 -0.047116 -28.92 -44.286 47.01
1.65 -44.146 46.66 -0.047805 -29.45 -0.047805 -29.45 -44.146 46.66
1.68 -44.008 46.31 -0.048493 -29.99 -0.048493 -29.99 -44.008 46.31
1.71 -43.873 45.95 -0.04918 -30.52 -0.04918 -30.52 -43.873 45.95
1.74 -43.741 45.59 -0.049865 -31.05 -0.049865 -31.05 -43.741 45.59
1.77 -43.611 45.23 -0.050548 -31.58 -0.050548 -31.58 -43.611 45.23
1.8 -43.484 44.86 -0.051231 -32.12 -0.051231 -32.12 -43.484 44.86
1.83 -43.358 44.49 -0.051912 -32.65 -0.051912 -32.65 -43.358 44.49
1.86 -43.235 44.12 -0.052592 -33.18 -0.052592 -33.18 -43.235 44.12
1.89 -43.115 43.74 -0.05327 -33.72 -0.05327 -33.72 -43.115 43.74
1.92 -42.996 43.36 -0.053947 -34.25 -0.053947 -34.25 -42.996 43.36
1.95 -42.88 42.98 -0.054623 -34.78 -0.054623 -34.78 -42.88 42.98
1.98 -42.765 42.59 -0.055298 -35.31 -0.055298 -35.31 -42.765 42.59
2.01 -42.653 42.20 -0.055972 -35.85 -0.055972 -35.85 -42.653 42.20
2.04 -42.542 41.81 -0.056644 -36.38 -0.056644 -36.38 -42.542 41.81
2.07 -42.434 41.41 -0.057316 -36.91 -0.057316 -36.91 -42.434 41.41
2.1 -42.327 41.01 -0.057986 -37.45 -0.057986 -37.45 -42.327 41.01
2.13 -42.222 40.61 -0.058655 -37.98 -0.058655 -37.98 -42.222 40.61
2.16 -42.119 40.21 -0.059323 -38.51 -0.059323 -38.51 -42.119 40.21
2.19 -42.018 39.80 -0.05999 -39.04 -0.05999 -39.04 -42.018 39.80
2.22 -41.918 39.40 -0.060656 -39.58 -0.060656 -39.58 -41.918 39.40
2.25 -41.82 38.99 -0.061321 -40.11 -0.061321 -40.11 -41.82 38.99
2.28 -41.724 38.57 -0.061985 -40.64 -0.061985 -40.64 -41.724 38.57
2.31 -41.629 38.16 -0.062648 -41.17 -0.062648 -41.17 -41.629 38.16
2.34 -41.536 37.74 -0.06331 -41.71 -0.06331 -41.71 -41.536 37.74
2.37 -41.445 37.32 -0.063972 -42.24 -0.063972 -42.24 -41.445 37.32
2.4 -41.355 36.90 -0.064632 -42.77 -0.064632 -42.77 -41.355 36.90
2.43 -41.267 36.48 -0.065291 -43.31 -0.065291 -43.31 -41.267 36.48
2.46 -41.18 36.06 -0.065949 -43.84 -0.065949 -43.84 -41.18 36.06
2.49 -41.094 35.63 -0.066606 -44.37 -0.066606 -44.37 -41.094 35.63
2.52 -41.01 35.20 -0.067263 -44.90 -0.067263 -44.90 -41.01 35.20
2.55 -40.928 34.77 -0.067918 -45.44 -0.067918 -45.44 -40.928 34.77
2.58 -40.847 34.34 -0.068573 -45.97 -0.068573 -45.97 -40.847 34.34
2.61 -40.767 33.91 -0.069227 -46.50 -0.069227 -46.50 -40.767 33.91
2.64 -40.688 33.47 -0.06988 -47.03 -0.06988 -47.03 -40.688 33.47
2.67 -40.611 33.04 -0.070532 -47.57 -0.070532 -47.57 -40.611 33.04
2.7 -40.536 32.60 -0.071183 -48.10 -0.071183 -48.10 -40.536 32.60
2.73 -40.461 32.16 -0.071834 -48.63 -0.071834 -48.63 -40.461 32.16
2.76 -40.388 31.72 -0.072483 -49.16 -0.072483 -49.16 -40.388 31.72
2.79 -40.316 31.28 -0.073132 -49.70 -0.073132 -49.70 -40.316 31.28
2.82 -40.245 30.84 -0.07378 -50.23 -0.07378 -50.23 -40.245 30.84
2.85 -40.176 30.40 -0.074427 -50.76 -0.074427 -50.76 -40.176 30.40
2.88 -40.107 29.95 -0.075074 -51.29 -0.075074 -51.29 -40.107 29.95
2.91 -40.04 29.50 -0.07572 -51.82 -0.07572 -51.82 -40.04 29.50
2.94 -39.974 29.06 -0.076364 -52.36 -0.076364 -52.36 -39.974 29.06
2.97 -39.909 28.61 -0.077009 -52.89 -0.077009 -52.89 -39.909 28.61
3 -39.846 28.16 -0.077652 -53.42 -0.077652 -53.42 -39.846 28.16
3.03 -39.783 27.71 -0.078295 -53.95 -0.078295 -53.95 -39.783 27.71
3.06 -39.722 27.25 -0.078936 -54.49 -0.078936 -54.49 -39.722 27.25
3.09 -39.662 26.80 -0.079578 -55.02 -0.079578 -55.02 -39.662 26.80
3.12 -39.602 26.35 -0.080218 -55.55 -0.080218 -55.55 -39.602 26.35
3.15 -39.544 25.89 -0.080858 -56.08 -0.080858 -56.08 -39.544 25.89
3.18 -39.487 25.44 -0.081496 -56.62 -0.081496 -56.62 -39.487 25.44
3.21 -39.431 24.98 -0.082135 -57.15 -0.082135 -57.15 -39.431 24.98
3.24 -39.376 24.52 -0.082772 -57.68 -0.082772 -57.68 -39.376 24.52
3.27 -39.322 24.06 -0.083409 -58.21 -0.083409 -58.21 -39.322 24.06
3.3 -39.269 23.60 -0.084045 -58.74 -0.084045 -58.74 -39.269 23.60
3.33 -39.217 23.14 -0.084681 -59.28 -0.084681 -59.28 -39.217 23.14
3.36 -39.166 22.68 -0.085315 -59.81 -0.085315 -59.81 -39.166 22.68
3.39 -39.116 22.22 -0.085949 -60.34 -0.085949 -60.34 -39.116 22.22
3.42 -39.067 21.76 -0.086583 -60.87 -0.086583 -60.87 -39.067 21.76
3.45 -39.019 21.29 -0.087215 -61.41 -0.087215 -61.41 -39.019 21.29
3.48 -38.972 20.83 -0.087847 -61.94 -0.087847 -61.94 -38.972 20.83
3.51 -38.926 20.36 -0.088479 -62.47 -0.088479 -62.47 -38.926 20.36
3.54 -38.881 19.90 -0.089109 -63.00 -0.089109 -63.00 -38.881 19.90
3.57 -38.837 19.43 -0.089739 -63.53 -0.089739 -63.53 -38.837 19.43
3.6 -38.794 18.96 -0.090369 -64.07 -0.090369 -64.07 -38.794 18.96
3.63 -38.751 18.49 -0.090997 -64.60 -0.090997 -64.60 -38.751 18.49
3.66 -38.71 18.03 -0.091625 -65.13 -0.091625 -65.13 -38.71 18.03
3.69 -38.669 17.56 -0.092253 -65.66 -0.092253 -65.66 -38.669 17.56
3.72 -38.63 17.09 -0.092879 -66.20 -0.092879 -66.20 -38.63 17.09
3.75 -38.591 16.62 -0.093505 -66.73 -0.093505 -66.73 -38.591 16.62
3.78 -38.553 16.14 -0.094131 -67.26 -0.094131 -67.26 -38.553 16.14
3.81 -38.516 15.67 -0.094756 -67.79 -0.094756 -67.79 -38.516 15.67
3.84 -38.48 15.20 -0.09538 -68.32 -0.09538 -68.32 -38.48 15.20
3.87 -38.445 14.73 -0.096004 -68.86 -0.096004 -68.86 -38.445 14.73
3.9 -38.41 14.25 -0.096626 -69.39 -0.096626 -69.39 -38.41 14.25
3.93 -38.377 13.78 -0.097249 -69.92 -0.097249 -69.92 -38.377 13.78
3.96 -38.344 13.30 -0.09787 -70.45 -0.09787 -70.45 -38.344 13.30
3.99 -38.312 12.83 -0.098492 -70.98 -0.098492 -70.98 -38.312 12.83
4.02 -38.281 12.35 -0.099112 -71.52 -0.099112 -71.52 -38.281 12.35
4.05 -38.251 11.88 -0.099732 -72.05 -0.099732 -72.05 -38.251 11.88
4.08 -38.222 11.40 -0.10035 -72.58 -0.10035 -72.58 -38.222 11.40
4.11 -38.193 10.92 -0.10097 -73.11 -0.10097 -73.11 -38.193 10.92
4.14 -38.165 10.45 -0.10159 -73.64 -0.10159 -73.64 -38.165 10.45
4.17 -38.139 9.97 -0.10221 -74.18 -0.10221 -74.18 -38.139 9.97
4.2 -38.112 9.49 -0.10282 -74.71 -0.10282 -74.71 -38.112 9.49
4.23 -38.087 9.01 -0.10344 -75.24 -0.10344 -75.24 -38.087 9.01
4.26 -38.063 8.53 -0.10405 -75.77 -0.10405 -75.77 -38.063 8.53
4.29 -38.039 8.05 -0.10467 -76.31 -0.10467 -76.31 -38.039 8.05
4.32 -38.016 7.57 -0.10528 -76.84 -0.10528 -76.84 -38.016 7.57
4.35 -37.994 7.09 -0.1059 -77.37 -0.1059 -77.37 -37.994 7.09
4.38 -37.973 6.61 -0.10651 -77.90 -0.10651 -77.90 -37.973 6.61
4.41 -37.952 6.13 -0.10712 -78.43 -0.10712 -78.43 -37.952 6.13
4.44 -37.933 5.64 -0.10774 -78.97 -0.10774 -78.97 -37.933 5.64
4.47 -37.914 5.16 -0.10835 -79.50 -0.10835 -79.50 -37.914 5.16
4.5 -37.896 4.68 -0.10896 -80.03 -0.10896 -80.03 -37.896 4.68
4.53 -37.878 4.20 -0.10957 -80.56 -0.10957 -80.56 -37.878 4.20
4.56 -37.862 3.71 -0.11018 -81.09 -0.11018 -81.09 -37.862 3.71
4.59 -37.846 3.23 -0.11079 -81.63 -0.11079 -81.63 -37.846 3.23
4.62 -37.831 2.74 -0.1114 -82.16 -0.1114 -82.16 -37.831 2.74
4.65 -37.817 2.26 -0.11201 -82.69 -0.11201 -82.69 -37.817 2.26
4.68 -37.803 1.77 -0.11261 -83.22 -0.11261 -83.22 -37.803 1.77
4.71 -37.791 1.29 -0.11322 -83.75 -0.11322 -83.75 -37.791 1.29
4.74 -37.779 0.80 -0.11383 -84.29 -0.11383 -84.29 -37.779 0.80
4.77 -37.768 0.32 -0.11443 -84.82 -0.11443 -84.82 -37.768 0.32
4.8 -37.757 -0.17 -0.11504 -85.35 -0.11504 -85.35 -37.757 -0.17
4.83 -37.747 -0.65 -0.11564 -85.88 -0.11564 -85.88 -37.747 -0.65
4.86 -37.739 -1.14 -0.11625 -86.41 -0.11625 -86.41 -37.739 -1.14
4.89 -37.73 -1.63 -0.11685 -86.95 -0.11685 -86.95 -37.73 -1.63
4.92 -37.723 -2.11 -0.11745 -87.48 -0.11745 -87.48 -37.723 -2.11
4.95 -37.716 -2.60 -0.11806 -88.01 -0.11806 -88.01 -37.716 -2.60
4.98 -37.711 -3.09 -0.11866 -88.54 -0.11866 -88.54 -37.711 -3.09
5.01 -37.706 -3.58 -0.11926 -89.07 -0.11926 -89.07 -37.706 -3.58
5.04 -37.701 -4.07 -0.11986 -89.61 -0.11986 -89.61 -37.701 -4.07
5.07 -37.698 -4.55 -0.12046 -90.14 -0.12046 -90.14 -37.698 -4.55
5.1 -37.695 -5.04 -0.12106 -90.67 -0.12106 -90.67 -37.695 -5.04
5.13 -37.693 -5.53 -0.12166 -91.20 -0.12166 -91.20 -37.693 -5.53
5.16 -37.691 -6.02 -0.12226 -91.73 -0.12226 -91.73 -37.691 -6.02
5.19 -37.691 -6.51 -0.12286 -92.27 -0.12286 -92.27 -37.691 -6.51
5.22 -37.691 -7.00 -0.12346 -92.80 -0.12346 -92.80 -37.691 -7.00
5.25 -37.692 -7.49 -0.12406 -93.33 -0.12406 -93.33 -37.692 -7.49
5.28 -37.694 -7.98 -0.12465 -93.86 -0.12465 -93.86 -37.694 -7.98
5.31 -37.696 -8.47 -0.12525 -94.39 -0.12525 -94.39 -37.696 -8.47
5.34 -37.7 -8.96 -0.12584 -94.93 -0.12584 -94.93 -37.7 -8.96
5.37 -37.704 -9.45 -0.12644 -95.46 -0.12644 -95.46 -37.704 -9.45
5.4 -37.708 -9.94 -0.12704 -95.99 -0.12704 -95.99 -37.708 -9.94
5.43 -37.714 -10.43 -0.12763 -96.52 -0.12763 -96.52 -37.714 -10.43
5.46 -37.72 -10.92 -0.12822 -97.05 -0.12822 -97.05 -37.72 -10.92
5.49 -37.727 -11.41 -0.12882 -97.59 -0.12882 -97.59 -37.727 -11.41
5.52 -37.735 -11.91 -0.12941 -98.12 -0.12941 -98.12 -37.735 -11.91
5.55 -37.744 -12.40 -0.13 -98.65 -0.13 -98.65 -37.744 -12.40
5.58 -37.753 -12.89 -0.13059 -99.18 -0.13059 -99.18 -37.753 -12.89
5.61 -37.764 -13.38 -0.13119 -99.71 -0.13119 -99.71 -37.764 -13.38
5.64 -37.775 -13.87 -0.13178 -100.25 -0.13178 -100.25 -37.775 -13.87
5.67 -37.786 -14.37 -0.13237 -100.78 -0.13237 -100.78 -37.786 -14.37
5.7 -37.799 -14.86 -0.13296 -101.31 -0.13296 -101.31 -37.799 -14.86
5.73 -37.812 -15.35 -0.13355 -101.84 -0.13355 -101.84 -37.812 -15.35
5.76 -37.826 -15.84 -0.13414 -102.37 -0.13414 -102.37 -37.826 -15.84
5.79 -37.841 -16.34 -0.13473 -102.91 -0.13473 -102.91 -37.841 -16.34
5.82 -37.857 -16.83 -0.13531 -103.44 -0.13531 -103.44 -37.857 -16.83
5.85 -37.874 -17.32 -0.1359 -103.97 -0.1359 -103.97 -37.874 -17.32
5.88 -37.891 -17.81 -0.13649 -104.50 -0.13649 -104.50 -37.891 -17.81
5.91 -37.909 -18.31 -0.13708 -105.03 -0.13708 -105.03 -37.909 -18.31
5.94 -37.928 -18.80 -0.13766 -105.57 -0.13766 -105.57 -37.928 -18.80
5.97 -37.948 -19.29 -0.13825 -106.10 -0.13825 -106.10 -37.948 -19.29
6 -37.968 -19.79 -0.13883 -106.63 -0.13883 -106.63 -37.968 -19.79
