! yapnr rf: line-osh-m-w0p70-l30-m-eq, footprint re-simulated (optimization grid)
! spec sha256 2b14f09414fe5124b2a66d810472f7a5070febd8e6cda128ebeb37b74ed78107
! 2 ports renormalized to 50 ohm, e^(+jwt) convention
# GHz S RI R 50
3.000000000 -1.564437335e-02 -1.412685619e-02 -9.563260445e-01  4.109673072e-02 -9.563260445e-01  4.109673072e-02 -1.564437335e-02 -1.412685619e-02
3.025000000 -1.664683419e-02 -2.303558579e-02 -9.546256734e-01  6.795260738e-02 -9.546256734e-01  6.795260738e-02 -1.664683419e-02 -2.303558579e-02
3.050000000 -1.814789858e-02 -3.186960440e-02 -9.520899241e-01  9.472572877e-02 -9.520899241e-01  9.472572877e-02 -1.814789858e-02 -3.186960440e-02
3.075000000 -2.014187804e-02 -4.059978509e-02 -9.487241734e-01  1.213838036e-01 -9.487241734e-01  1.213838036e-01 -2.014187804e-02 -4.059978509e-02
3.100000000 -2.262077731e-02 -4.919713352e-02 -9.445357317e-01  1.478946230e-01 -9.445357317e-01  1.478946230e-01 -2.262077731e-02 -4.919713352e-02
3.125000000 -2.557540772e-02 -5.763362525e-02 -9.395333575e-01  1.742269610e-01 -9.395333575e-01  1.742269610e-01 -2.557540772e-02 -5.763362525e-02
3.150000000 -2.899417731e-02 -6.588189252e-02 -9.337276856e-01  2.003501295e-01 -9.337276856e-01  2.003501295e-01 -2.899417731e-02 -6.588189252e-02
3.175000000 -3.286443332e-02 -7.391536463e-02 -9.271307109e-01  2.262342709e-01 -9.271307109e-01  2.262342709e-01 -3.286443332e-02 -7.391536463e-02
3.200000000 -3.717151688e-02 -8.170859160e-02 -9.197560431e-01  2.518505246e-01 -9.197560431e-01  2.518505246e-01 -3.717151688e-02 -8.170859160e-02
3.225000000 -4.189947228e-02 -8.923707451e-02 -9.116186456e-01  2.771709551e-01 -9.116186456e-01  2.771709551e-01 -4.189947228e-02 -8.923707451e-02
3.250000000 -4.703083221e-02 -9.647753497e-02 -9.027348279e-01  3.021687551e-01 -9.027348279e-01  3.021687551e-01 -4.703083221e-02 -9.647753497e-02
3.275000000 -5.254679204e-02 -1.034080508e-01 -8.931221007e-01  3.268183834e-01 -8.931221007e-01  3.268183834e-01 -5.254679204e-02 -1.034080508e-01
3.300000000 -5.842724755e-02 -1.100079724e-01 -8.827991467e-01  3.510954634e-01 -8.827991467e-01  3.510954634e-01 -5.842724755e-02 -1.100079724e-01
3.325000000 -6.465110638e-02 -1.162582195e-01 -8.717855560e-01  3.749770993e-01 -8.717855560e-01  3.749770993e-01 -6.465110638e-02 -1.162582195e-01
3.350000000 -7.119608422e-02 -1.221412033e-01 -8.601018883e-01  3.984417231e-01 -8.601018883e-01  3.984417231e-01 -7.119608422e-02 -1.221412033e-01
3.375000000 -7.803925693e-02 -1.276408524e-01 -8.477693714e-01  4.214692140e-01 -8.477693714e-01  4.214692140e-01 -7.803925693e-02 -1.276408524e-01
3.400000000 -8.515686248e-02 -1.327427516e-01 -8.348098852e-01  4.440409420e-01 -8.348098852e-01  4.440409420e-01 -8.515686248e-02 -1.327427516e-01
3.425000000 -9.252455608e-02 -1.374340040e-01 -8.212458429e-01  4.661396728e-01 -8.212458429e-01  4.661396728e-01 -9.252455608e-02 -1.374340040e-01
3.450000000 -1.001176611e-01 -1.417032720e-01 -8.070999992e-01  4.877496341e-01 -8.070999992e-01  4.877496341e-01 -1.001176611e-01 -1.417032720e-01
3.475000000 -1.079109161e-01 -1.455408974e-01 -7.923954725e-01  5.088565161e-01 -7.923954725e-01  5.088565161e-01 -1.079109161e-01 -1.455408974e-01
3.500000000 -1.158790166e-01 -1.489386340e-01 -7.771555293e-01  5.294473554e-01 -7.771555293e-01  5.294473554e-01 -1.158790166e-01 -1.489386340e-01
3.525000000 -1.239962916e-01 -1.518899694e-01 -7.614035686e-01  5.495106573e-01 -7.614035686e-01  5.495106573e-01 -1.239962916e-01 -1.518899694e-01
3.550000000 -1.322370930e-01 -1.543898739e-01 -7.451629526e-01  5.690362859e-01 -7.451629526e-01  5.690362859e-01 -1.322370930e-01 -1.543898739e-01
3.575000000 -1.405757255e-01 -1.564348922e-01 -7.284569777e-01  5.880154340e-01 -7.284569777e-01  5.880154340e-01 -1.405757255e-01 -1.564348922e-01
3.600000000 -1.489867080e-01 -1.580231314e-01 -7.113086408e-01  6.064406806e-01 -7.113086408e-01  6.064406806e-01 -1.489867080e-01 -1.580231314e-01
3.625000000 -1.574445516e-01 -1.591541943e-01 -6.937408033e-01  6.243057714e-01 -6.937408033e-01  6.243057714e-01 -1.574445516e-01 -1.591541943e-01
3.650000000 -1.659245212e-01 -1.598289500e-01 -6.757757242e-01  6.416056956e-01 -6.757757242e-01  6.416056956e-01 -1.659245212e-01 -1.598289500e-01
3.675000000 -1.744016809e-01 -1.600499889e-01 -6.574354475e-01  6.583366015e-01 -6.574354475e-01  6.583366015e-01 -1.744016809e-01 -1.600499889e-01
3.700000000 -1.828523152e-01 -1.598205830e-01 -6.387413193e-01  6.744955239e-01 -6.387413193e-01  6.744955239e-01 -1.828523152e-01 -1.598205830e-01
3.725000000 -1.912525179e-01 -1.591459496e-01 -6.197142557e-01  6.900807052e-01 -6.197142557e-01  6.900807052e-01 -1.912525179e-01 -1.591459496e-01
3.750000000 -1.995795898e-01 -1.580317189e-01 -6.003745456e-01  7.050910147e-01 -6.003745456e-01  7.050910147e-01 -1.995795898e-01 -1.580317189e-01
3.775000000 -2.078110380e-01 -1.564851885e-01 -5.807418530e-01  7.195263583e-01 -5.807418530e-01  7.195263583e-01 -2.078110380e-01 -1.564851885e-01
3.800000000 -2.159252446e-01 -1.545143914e-01 -5.608351812e-01  7.333872999e-01 -5.608351812e-01  7.333872999e-01 -2.159252446e-01 -1.545143914e-01
3.825000000 -2.239011630e-01 -1.521285211e-01 -5.406728887e-01  7.466751194e-01 -5.406728887e-01  7.466751194e-01 -2.239011630e-01 -1.521285211e-01
3.850000000 -2.317185789e-01 -1.493376742e-01 -5.202725095e-01  7.593917659e-01 -5.202725095e-01  7.593917659e-01 -2.317185789e-01 -1.493376742e-01
3.875000000 -2.393578874e-01 -1.461529458e-01 -4.996509663e-01  7.715397088e-01 -4.996509663e-01  7.715397088e-01 -2.393578874e-01 -1.461529458e-01
3.900000000 -2.468004993e-01 -1.425860684e-01 -4.788242938e-01  7.831219058e-01 -4.788242938e-01  7.831219058e-01 -2.468004993e-01 -1.425860684e-01
3.925000000 -2.540284031e-01 -1.386498270e-01 -4.578078538e-01  7.941417613e-01 -4.578078538e-01  7.941417613e-01 -2.540284031e-01 -1.386498270e-01
3.950000000 -2.610246680e-01 -1.343573377e-01 -4.366162212e-01  8.046029345e-01 -4.366162212e-01  8.046029345e-01 -2.610246680e-01 -1.343573377e-01
3.975000000 -2.677730544e-01 -1.297226114e-01 -4.152632230e-01  8.145094167e-01 -4.152632230e-01  8.145094167e-01 -2.677730544e-01 -1.297226114e-01
4.000000000 -2.742582567e-01 -1.247600400e-01 -3.937619959e-01  8.238653426e-01 -3.937619959e-01  8.238653426e-01 -2.742582567e-01 -1.247600400e-01
4.025000000 -2.804657506e-01 -1.194847214e-01 -3.721249307e-01  8.326750359e-01 -3.721249307e-01  8.326750359e-01 -2.804657506e-01 -1.194847214e-01
4.050000000 -2.863819551e-01 -1.139119490e-01 -3.503637932e-01  8.409428326e-01 -3.503637932e-01  8.409428326e-01 -2.863819551e-01 -1.139119490e-01
4.075000000 -2.919940571e-01 -1.080576283e-01 -3.284896740e-01  8.486731384e-01 -3.284896740e-01  8.486731384e-01 -2.919940571e-01 -1.080576283e-01
4.100000000 -2.972900790e-01 -1.019381014e-01 -3.065129986e-01  8.558703528e-01 -3.065129986e-01  8.558703528e-01 -2.972900790e-01 -1.019381014e-01
4.125000000 -3.022588797e-01 -9.557005654e-02 -2.844435892e-01  8.625388017e-01 -2.844435892e-01  8.625388017e-01 -3.022588797e-01 -9.557005654e-02
4.150000000 -3.068901417e-01 -8.897054399e-02 -2.622906956e-01  8.686826961e-01 -2.622906956e-01  8.686826961e-01 -3.068901417e-01 -8.897054399e-02
4.175000000 -3.111743962e-01 -8.215687981e-02 -2.400629488e-01  8.743061042e-01 -2.400629488e-01  8.743061042e-01 -3.111743962e-01 -8.215687981e-02
4.200000000 -3.151029436e-01 -7.514677133e-02 -2.177685303e-01  8.794128906e-01 -2.177685303e-01  8.794128906e-01 -3.151029436e-01 -7.514677133e-02
4.225000000 -3.186679957e-01 -6.795782355e-02 -1.954150953e-01  8.840066633e-01 -1.954150953e-01  8.840066633e-01 -3.186679957e-01 -6.795782355e-02
4.250000000 -3.218624579e-01 -6.060823084e-02 -1.730098811e-01  8.880907958e-01 -1.730098811e-01  8.880907958e-01 -3.218624579e-01 -6.060823084e-02
4.275000000 -3.246800983e-01 -5.311608341e-02 -1.505597348e-01  8.916683372e-01 -1.505597348e-01  8.916683372e-01 -3.246800983e-01 -5.311608341e-02
4.300000000 -3.271154594e-01 -4.549961138e-02 -1.280711821e-01  8.947420127e-01 -1.280711821e-01  8.947420127e-01 -3.271154594e-01 -4.549961138e-02
4.325000000 -3.291638686e-01 -3.777704788e-02 -1.055504842e-01  8.973141959e-01 -1.055504842e-01  8.973141959e-01 -3.291638686e-01 -3.777704788e-02
4.350000000 -3.308213790e-01 -2.996702536e-02 -8.300359737e-02  8.993869240e-01 -8.300359737e-02  8.993869240e-01 -3.308213790e-01 -2.996702536e-02
4.375000000 -3.320848418e-01 -2.208801871e-02 -6.043626385e-02  9.009618430e-01 -6.043626385e-02  9.009618430e-01 -3.320848418e-01 -2.208801871e-02
4.400000000 -3.329518483e-01 -1.415877658e-02 -3.785412918e-02  9.020402108e-01 -3.785412918e-02  9.020402108e-01 -3.329518483e-01 -1.415877658e-02
4.425000000 -3.334207569e-01 -6.197924574e-03 -1.526257235e-02  9.026228911e-01 -1.526257235e-02  9.026228911e-01 -3.334207569e-01 -6.197924574e-03
4.450000000 -3.334906833e-01  1.775589435e-03  7.332980966e-03  9.027103316e-01  7.332980966e-03  9.027103316e-01 -3.334906833e-01  1.775589435e-03
4.475000000 -3.331614908e-01  9.743205041e-03  2.992723499e-02  9.023025715e-01  2.992723499e-02  9.023025715e-01 -3.331614908e-01  9.743205041e-03
4.500000000 -3.324338044e-01  1.768600227e-02  5.251483625e-02  9.013992324e-01  5.251483625e-02  9.013992324e-01 -3.324338044e-01  1.768600227e-02
4.525000000 -3.313090014e-01  2.558522092e-02  7.509038472e-02  8.999995240e-01  7.509038472e-02  8.999995240e-01 -3.313090014e-01  2.558522092e-02
4.550000000 -3.297892023e-01  3.342224935e-02  9.764835518e-02  8.981022553e-01  9.764835518e-02  8.981022553e-01 -3.297892023e-01  3.342224935e-02
4.575000000 -3.278772879e-01  4.117857781e-02  1.201830303e-01  8.957058439e-01  1.201830303e-01  8.957058439e-01 -3.278772879e-01  4.117857781e-02
4.600000000 -3.255768994e-01  4.883562582e-02  1.426885138e-01  8.928083246e-01  1.426885138e-01  8.928083246e-01 -3.255768994e-01  4.883562582e-02
4.625000000 -3.228924502e-01  5.637498149e-02  1.651586562e-01  8.894073636e-01  1.651586562e-01  8.894073636e-01 -3.228924502e-01  5.637498149e-02
4.650000000 -3.198291354e-01  6.377832146e-02  1.875869813e-01  8.855002845e-01  1.875869813e-01  8.855002845e-01 -3.198291354e-01  6.377832146e-02
4.675000000 -3.163929256e-01  7.102744670e-02  2.099667242e-01  8.810840771e-01  2.099667242e-01  8.810840771e-01 -3.163929256e-01  7.102744670e-02
4.700000000 -3.125906063e-01  7.810427183e-02  2.322907154e-01  8.761554254e-01  2.322907154e-01  8.761554254e-01 -3.125906063e-01  7.810427183e-02
4.725000000 -3.084297465e-01  8.499093426e-02  2.545513758e-01  8.707107419e-01  2.545513758e-01  8.707107419e-01 -3.084297465e-01  8.499093426e-02
4.750000000 -3.039187055e-01  9.166980136e-02  2.767407007e-01  8.647461888e-01  2.767407007e-01  8.647461888e-01 -3.039187055e-01  9.166980136e-02
4.775000000 -2.990667349e-01  9.812330016e-02  2.988501305e-01  8.582577078e-01  2.988501305e-01  8.582577078e-01 -2.990667349e-01  9.812330016e-02
4.800000000 -2.938837801e-01  1.043344568e-01  3.208706271e-01  8.512410954e-01  3.208706271e-01  8.512410954e-01 -2.938837801e-01  1.043344568e-01
4.825000000 -2.883807054e-01  1.102863680e-01  3.427925432e-01  8.436919976e-01  3.427925432e-01  8.436919976e-01 -2.883807054e-01  1.102863680e-01
4.850000000 -2.825691472e-01  1.159626862e-01  3.646056181e-01  8.356060042e-01  3.646056181e-01  8.356060042e-01 -2.825691472e-01  1.159626862e-01
4.875000000 -2.764616341e-01  1.213472371e-01  3.862989699e-01  8.269786426e-01  3.862989699e-01  8.269786426e-01 -2.764616341e-01  1.213472371e-01
4.900000000 -2.700715198e-01  1.264244715e-01  4.078610230e-01  8.178054794e-01  4.078610230e-01  8.178054794e-01 -2.700715198e-01  1.264244715e-01
4.925000000 -2.634130262e-01  1.311791573e-01  4.292795121e-01  8.080821474e-01  4.292795121e-01  8.080821474e-01 -2.634130262e-01  1.311791573e-01
4.950000000 -2.565012191e-01  1.355966631e-01  4.505415098e-01  7.978043822e-01  4.505415098e-01  7.978043822e-01 -2.565012191e-01  1.355966631e-01
4.975000000 -2.493520724e-01  1.396628441e-01  4.716332585e-01  7.869681484e-01  4.716332585e-01  7.869681484e-01 -2.493520724e-01  1.396628441e-01
5.000000000 -2.419822814e-01  1.433642664e-01  4.925404349e-01  7.755696001e-01  4.925404349e-01  7.755696001e-01 -2.419822814e-01  1.433642664e-01
5.025000000 -2.344095657e-01  1.466880102e-01  5.132477753e-01  7.636052580e-01  5.132477753e-01  7.636052580e-01 -2.344095657e-01  1.466880102e-01
5.050000000 -2.266522092e-01  1.496221306e-01  5.337394706e-01  7.510719892e-01  5.337394706e-01  7.510719892e-01 -2.266522092e-01  1.496221306e-01
5.075000000 -2.187295233e-01  1.521551987e-01  5.539988182e-01  7.379671231e-01  5.539988182e-01  7.379671231e-01 -2.187295233e-01  1.521551987e-01
5.100000000 -2.106614140e-01  1.542769355e-01  5.740084567e-01  7.242885309e-01  5.740084567e-01  7.242885309e-01 -2.106614140e-01  1.542769355e-01
5.125000000 -2.024686457e-01  1.559777231e-01  5.937502666e-01  7.100346585e-01  5.937502666e-01  7.100346585e-01 -2.024686457e-01  1.559777231e-01
5.150000000 -1.941726752e-01  1.572491207e-01  6.132054092e-01  6.952046460e-01  6.132054092e-01  6.952046460e-01 -1.941726752e-01  1.572491207e-01
5.175000000 -1.857956544e-01  1.580835967e-01  6.323543591e-01  6.797983800e-01  6.323543591e-01  6.797983800e-01 -1.857956544e-01  1.580835967e-01
5.200000000 -1.773603990e-01  1.584747838e-01  6.511769517e-01  6.638165447e-01  6.511769517e-01  6.638165447e-01 -1.773603990e-01  1.584747838e-01
5.225000000 -1.688903403e-01  1.584174529e-01  6.696523656e-01  6.472607564e-01  6.696523656e-01  6.472607564e-01 -1.688903403e-01  1.584174529e-01
5.250000000 -1.604094172e-01  1.579075939e-01  6.877592742e-01  6.301335454e-01  6.877592742e-01  6.301335454e-01 -1.604094172e-01  1.579075939e-01
5.275000000 -1.519421328e-01  1.569424805e-01  7.054757410e-01  6.124385481e-01  7.054757410e-01  6.124385481e-01 -1.519421328e-01  1.569424805e-01
5.300000000 -1.435132695e-01  1.555207274e-01  7.227795155e-01  5.941804019e-01  7.227795155e-01  5.941804019e-01 -1.435132695e-01  1.555207274e-01
5.325000000 -1.351480233e-01  1.536423163e-01  7.396478806e-01  5.753649642e-01  7.396478806e-01  5.753649642e-01 -1.351480233e-01  1.536423163e-01
5.350000000 -1.268718189e-01  1.513087018e-01  7.560578232e-01  5.559993106e-01  7.560578232e-01  5.559993106e-01 -1.268718189e-01  1.513087018e-01
5.375000000 -1.187102212e-01  1.485227940e-01  7.719861264e-01  5.360917686e-01  7.719861264e-01  5.360917686e-01 -1.187102212e-01  1.485227940e-01
5.400000000 -1.106889056e-01  1.452890372e-01  7.874093958e-01  5.156520186e-01  7.874093958e-01  5.156520186e-01 -1.106889056e-01  1.452890372e-01
5.425000000 -1.028335140e-01  1.416134565e-01  8.023041954e-01  4.946911014e-01  8.023041954e-01  4.946911014e-01 -1.028335140e-01  1.416134565e-01
5.450000000 -9.516956812e-02  1.375036138e-01  8.166471307e-01  4.732214678e-01  8.166471307e-01  4.732214678e-01 -9.516956812e-02  1.375036138e-01
5.475000000 -8.772238934e-02  1.329687414e-01  8.304149421e-01  4.512570089e-01  8.304149421e-01  4.512570089e-01 -8.772238934e-02  1.329687414e-01
5.500000000 -8.051692898e-02  1.280196218e-01  8.435846353e-01  4.288130750e-01  8.435846353e-01  4.288130750e-01 -8.051692898e-02  1.280196218e-01
5.525000000 -7.357770484e-02  1.226686981e-01  8.561335689e-01  4.059065019e-01  8.561335689e-01  4.059065019e-01 -7.357770484e-02  1.226686981e-01
5.550000000 -6.692862484e-02  1.169299865e-01  8.680396161e-01  3.825555523e-01  8.680396161e-01  3.825555523e-01 -6.692862484e-02  1.169299865e-01
5.575000000 -6.059286719e-02  1.108190369e-01  8.792812887e-01  3.587798698e-01  8.792812887e-01  3.587798698e-01 -6.059286719e-02  1.108190369e-01
5.600000000 -5.459282032e-02  1.043530189e-01  8.898377478e-01  3.346006829e-01  8.898377478e-01  3.346006829e-01 -5.459282032e-02  1.043530189e-01
5.625000000 -4.894990619e-02  9.755052069e-02  8.996890746e-01  3.100404095e-01  8.996890746e-01  3.100404095e-01 -4.894990619e-02  9.755052069e-02
5.650000000 -4.368445303e-02  9.043159740e-02  9.088162602e-01  2.851229728e-01  9.088162602e-01  2.851229728e-01 -4.368445303e-02  9.043159740e-02
5.675000000 -3.881571952e-02  8.301776068e-02  9.172013538e-01  2.598734977e-01  9.172013538e-01  2.598734977e-01 -3.881571952e-02  8.301776068e-02
5.700000000 -3.436156792e-02  7.533170503e-02  9.248276049e-01  2.343183787e-01  9.248276049e-01  2.343183787e-01 -3.436156792e-02  7.533170503e-02
5.725000000 -3.033859778e-02  6.739755461e-02  9.316794923e-01  2.084851878e-01  9.316794923e-01  2.084851878e-01 -3.033859778e-02  6.739755461e-02
5.750000000 -2.676184700e-02  5.924043230e-02  9.377428984e-01  1.824025643e-01  9.377428984e-01  1.824025643e-01 -2.676184700e-02  5.924043230e-02
5.775000000 -2.364480260e-02  5.088658627e-02  9.430051597e-01  1.561001518e-01  9.430051597e-01  1.561001518e-01 -2.364480260e-02  5.088658627e-02
5.800000000 -2.099926250e-02  4.236320364e-02  9.474551719e-01  1.296084855e-01  9.474551719e-01  1.296084855e-01 -2.099926250e-02  4.236320364e-02
5.825000000 -1.883527726e-02  3.369819270e-02  9.510834743e-01  1.029587456e-01  9.510834743e-01  1.029587456e-01 -1.883527726e-02  3.369819270e-02
5.850000000 -1.716104638e-02  2.492021965e-02  9.538822915e-01  7.618290930e-02  9.538822915e-01  7.618290930e-02 -1.716104638e-02  2.492021965e-02
5.875000000 -1.598297725e-02  1.605840344e-02  9.558455842e-01  4.931330570e-02  9.558455842e-01  4.931330570e-02 -1.598297725e-02  1.605840344e-02
5.900000000 -1.530548249e-02  7.142273012e-03  9.569691176e-01  2.238272167e-02  9.569691176e-01  2.238272167e-02 -1.530548249e-02  7.142273012e-03
5.925000000 -1.513115047e-02 -1.798349107e-03  9.572504337e-01 -4.575834257e-03  9.572504337e-01 -4.575834257e-03 -1.513115047e-02 -1.798349107e-03
5.950000000 -1.546058178e-02 -1.073358818e-02  9.566889128e-01 -3.152925755e-02  9.566889128e-01 -3.152925755e-02 -1.546058178e-02 -1.073358818e-02
5.975000000 -1.629245053e-02 -1.963351880e-02  9.552857576e-01 -5.844442597e-02  9.552857576e-01 -5.844442597e-02 -1.629245053e-02 -1.963351880e-02
6.000000000 -1.762352039e-02 -2.846838351e-02  9.530439831e-01 -8.528837915e-02  9.530439831e-01 -8.528837915e-02 -1.762352039e-02 -2.846838351e-02
6.025000000 -1.944860964e-02 -3.720879137e-02  9.499684157e-01 -1.120284434e-01  9.499684157e-01 -1.120284434e-01 -1.944860964e-02 -3.720879137e-02
6.050000000 -2.176063575e-02 -4.582568841e-02  9.460656593e-01 -1.386323490e-01  9.460656593e-01 -1.386323490e-01 -2.176063575e-02 -4.582568841e-02
6.075000000 -2.455067516e-02 -5.429069459e-02  9.413440416e-01 -1.650684043e-01  9.413440416e-01 -1.650684043e-01 -2.455067516e-02 -5.429069459e-02
6.100000000 -2.780797864e-02 -6.257615297e-02  9.358135676e-01 -1.913056251e-01  9.358135676e-01 -1.913056251e-01 -2.780797864e-02 -6.257615297e-02
6.125000000 -3.152007972e-02 -7.065524722e-02  9.294858532e-01 -2.173137715e-01  9.294858532e-01 -2.173137715e-01 -3.152007972e-02 -7.065524722e-02
6.150000000 -3.567293423e-02 -7.850220373e-02  9.223739888e-01 -2.430636468e-01  9.223739888e-01 -2.430636468e-01 -3.567293423e-02 -7.850220373e-02
6.175000000 -4.025081488e-02 -8.609230065e-02  9.144925674e-01 -2.685269490e-01  9.144925674e-01 -2.685269490e-01 -4.025081488e-02 -8.609230065e-02
6.200000000 -4.523680042e-02 -9.340196316e-02  9.058574104e-01 -2.936765702e-01  9.058574104e-01 -2.936765702e-01 -4.523680042e-02 -9.340196316e-02
6.225000000 -5.061236521e-02 -1.004090003e-01  8.964856698e-01 -3.184865535e-01  8.964856698e-01 -3.184865535e-01 -5.061236521e-02 -1.004090003e-01
6.250000000 -5.635800223e-02 -1.070923233e-01  8.863955591e-01 -3.429321333e-01  8.863955591e-01 -3.429321333e-01 -5.635800223e-02 -1.070923233e-01
6.275000000 -6.245292913e-02 -1.134325000e-01  8.756063444e-01 -3.669899228e-01  8.756063444e-01 -3.669899228e-01 -6.245292913e-02 -1.134325000e-01
6.300000000 -6.887535764e-02 -1.194113231e-01  8.641382252e-01 -3.906378240e-01  8.641382252e-01 -3.906378240e-01 -6.887535764e-02 -1.194113231e-01
6.325000000 -7.560265852e-02 -1.250122380e-01  8.520121900e-01 -4.138551178e-01  8.520121900e-01 -4.138551178e-01 -7.560265852e-02 -1.250122380e-01
6.350000000 -8.261130313e-02 -1.302202436e-01  8.392498982e-01 -4.366226432e-01  8.392498982e-01 -4.366226432e-01 -8.261130313e-02 -1.302202436e-01
6.375000000 -8.987710099e-02 -1.350218923e-01  8.258736515e-01 -4.589225133e-01  8.258736515e-01 -4.589225133e-01 -8.987710099e-02 -1.350218923e-01
6.400000000 -9.737544787e-02 -1.394054159e-01  8.119060498e-01 -4.807385165e-01  8.119060498e-01 -4.807385165e-01 -9.737544787e-02 -1.394054159e-01
6.425000000 -1.050810698e-01 -1.433606973e-01  7.973701824e-01 -5.020557568e-01  7.973701824e-01 -5.020557568e-01 -1.050810698e-01 -1.433606973e-01
6.450000000 -1.129687403e-01 -1.468790910e-01  7.822891894e-01 -5.228608466e-01  7.822891894e-01 -5.228608466e-01 -1.129687403e-01 -1.468790910e-01
6.475000000 -1.210127603e-01 -1.499537411e-01  7.666864205e-01 -5.431418264e-01  7.666864205e-01 -5.431418264e-01 -1.210127603e-01 -1.499537411e-01
6.500000000 -1.291875715e-01 -1.525791132e-01  7.505851936e-01 -5.628880465e-01  7.505851936e-01 -5.628880465e-01 -1.291875715e-01 -1.525791132e-01
6.525000000 -1.374675296e-01 -1.547514351e-01  7.340087334e-01 -5.820902797e-01  7.340087334e-01 -5.820902797e-01 -1.374675296e-01 -1.547514351e-01
6.550000000 -1.458271379e-01 -1.564681801e-01  7.169801440e-01 -6.007405000e-01  7.169801440e-01 -6.007405000e-01 -1.458271379e-01 -1.564681801e-01
6.575000000 -1.542411026e-01 -1.577284056e-01  6.995222605e-01 -6.188319560e-01  6.995222605e-01 -6.188319560e-01 -1.542411026e-01 -1.577284056e-01
6.600000000 -1.626843442e-01 -1.585326188e-01  6.816575810e-01 -6.363591367e-01  6.816575810e-01 -6.363591367e-01 -1.626843442e-01 -1.585326188e-01
6.625000000 -1.711321298e-01 -1.588826757e-01  6.634082427e-01 -6.533176220e-01  6.634082427e-01 -6.533176220e-01 -1.711321298e-01 -1.588826757e-01
6.650000000 -1.795602011e-01 -1.587817845e-01  6.447958580e-01 -6.697041108e-01  6.447958580e-01 -6.697041108e-01 -1.795602011e-01 -1.587817845e-01
6.675000000 -1.879447242e-01 -1.582344921e-01  6.258415189e-01 -6.855163323e-01  6.258415189e-01 -6.855163323e-01 -1.879447242e-01 -1.582344921e-01
6.700000000 -1.962624905e-01 -1.572464895e-01  6.065657392e-01 -7.007529136e-01  6.065657392e-01 -7.007529136e-01 -1.962624905e-01 -1.572464895e-01
6.725000000 -2.044909487e-01 -1.558246296e-01  5.869883380e-01 -7.154133900e-01  5.869883380e-01 -7.154133900e-01 -2.044909487e-01 -1.558246296e-01
6.750000000 -2.126081300e-01 -1.539768879e-01  5.671285371e-01 -7.294980539e-01  5.671285371e-01 -7.294980539e-01 -2.126081300e-01 -1.539768879e-01
6.775000000 -2.205929412e-01 -1.517120397e-01  5.470048271e-01 -7.430078680e-01  5.470048271e-01 -7.430078680e-01 -2.205929412e-01 -1.517120397e-01
6.800000000 -2.284248749e-01 -1.490400362e-01  5.266350004e-01 -7.559444869e-01  5.266350004e-01 -7.559444869e-01 -2.284248749e-01 -1.490400362e-01
6.825000000 -2.360842763e-01 -1.459714501e-01  5.060361888e-01 -7.683100396e-01  5.060361888e-01 -7.683100396e-01 -2.360842763e-01 -1.459714501e-01
6.850000000 -2.435522586e-01 -1.425178377e-01  4.852247419e-01 -7.801071983e-01  4.852247419e-01 -7.801071983e-01 -2.435522586e-01 -1.425178377e-01
6.875000000 -2.508106389e-01 -1.386915448e-01  4.642163061e-01 -7.913390765e-01  4.642163061e-01 -7.913390765e-01 -2.508106389e-01 -1.386915448e-01
6.900000000 -2.578421539e-01 -1.345055377e-01  4.430258416e-01 -8.020090731e-01  4.430258416e-01 -8.020090731e-01 -2.578421539e-01 -1.345055377e-01
6.925000000 -2.646302891e-01 -1.299736488e-01  4.216674020e-01 -8.121210231e-01  4.216674020e-01 -8.121210231e-01 -2.646302891e-01 -1.299736488e-01
6.950000000 -2.711593457e-01 -1.251102802e-01  4.001545344e-01 -8.216788629e-01  4.001545344e-01 -8.216788629e-01 -2.711593457e-01 -1.251102802e-01
6.975000000 -2.774146429e-01 -1.199302398e-01  3.784998006e-01 -8.306867832e-01  3.784998006e-01 -8.306867832e-01 -2.774146429e-01 -1.199302398e-01
7.000000000 -2.833821509e-01 -1.144491382e-01  3.567152494e-01 -8.391490515e-01  3.567152494e-01 -8.391490515e-01 -2.833821509e-01 -1.144491382e-01
