! yapnr rf: line-osh-m-w0p70-l30-m-eq-em528, footprint re-simulated (optimization grid)
! spec sha256 7b6dca186f67ffe80401c38c1661462f2ee6b0123bc5c257b6d00ebfec3f2405
! 2 ports renormalized to 50 ohm, e^(+jwt) convention
# GHz S RI R 50
3.000000000 -1.765616528e-02 -4.133970070e-02 -9.594352867e-01  1.117671520e-01 -9.594352867e-01  1.117671520e-01 -1.765616528e-02 -4.133970070e-02
3.025000000 -2.030725674e-02 -5.133783514e-02 -9.552990574e-01  1.395286006e-01 -9.552990574e-01  1.395286006e-01 -2.030725674e-02 -5.133783514e-02
3.050000000 -2.353102833e-02 -6.115394484e-02 -9.502612563e-01  1.670953175e-01 -9.502612563e-01  1.670953175e-01 -2.353102833e-02 -6.115394484e-02
3.075000000 -2.731374511e-02 -7.075350051e-02 -9.443347512e-01  1.944301457e-01 -9.443347512e-01  1.944301457e-01 -2.731374511e-02 -7.075350051e-02
3.100000000 -3.163969368e-02 -8.010304618e-02 -9.375344313e-01  2.214969938e-01 -9.375344313e-01  2.214969938e-01 -3.163969368e-02 -8.010304618e-02
3.125000000 -3.649059293e-02 -8.917063528e-02 -9.298773243e-01  2.482611612e-01 -9.298773243e-01  2.482611612e-01 -3.649059293e-02 -8.917063528e-02
3.150000000 -4.184654964e-02 -9.792552059e-02 -9.213822287e-01  2.746891407e-01 -9.213822287e-01  2.746891407e-01 -4.184654964e-02 -9.792552059e-02
3.175000000 -4.768542391e-02 -1.063389758e-01 -9.120697372e-01  3.007493083e-01 -9.120697372e-01  3.007493083e-01 -4.768542391e-02 -1.063389758e-01
3.200000000 -5.398354533e-02 -1.143836745e-01 -9.019620285e-01  3.264113869e-01 -9.019620285e-01  3.264113869e-01 -5.398354533e-02 -1.143836745e-01
3.225000000 -6.071564112e-02 -1.220344757e-01 -8.910826241e-01  3.516471750e-01 -8.910826241e-01  3.516471750e-01 -6.071564112e-02 -1.220344757e-01
3.250000000 -6.785500550e-02 -1.292680020e-01 -8.794563649e-01  3.764301203e-01 -8.794563649e-01  3.764301203e-01 -6.785500550e-02 -1.292680020e-01
3.275000000 -7.537383524e-02 -1.360629733e-01 -8.671090846e-01  4.007356766e-01 -8.671090846e-01  4.007356766e-01 -7.537383524e-02 -1.360629733e-01
3.300000000 -8.324326052e-02 -1.424001400e-01 -8.540675436e-01  4.245411944e-01 -8.540675436e-01  4.245411944e-01 -8.324326052e-02 -1.424001400e-01
3.325000000 -9.143353854e-02 -1.482623404e-01 -8.403592387e-01  4.478259857e-01 -8.403592387e-01  4.478259857e-01 -9.143353854e-02 -1.482623404e-01
3.350000000 -9.991432289e-02 -1.536344733e-01 -8.260122098e-01  4.705713000e-01 -8.260122098e-01  4.705713000e-01 -9.991432289e-02 -1.536344733e-01
3.375000000 -1.086546228e-01 -1.585036206e-01 -8.110549275e-01  4.927603935e-01 -8.110549275e-01  4.927603935e-01 -1.086546228e-01 -1.585036206e-01
3.400000000 -1.176231301e-01 -1.628589038e-01 -7.955161121e-01  5.143784133e-01 -7.955161121e-01  5.143784133e-01 -1.176231301e-01 -1.628589038e-01
3.425000000 -1.267883071e-01 -1.666915898e-01 -7.794245552e-01  5.354124694e-01 -7.794245552e-01  5.354124694e-01 -1.267883071e-01 -1.666915898e-01
3.450000000 -1.361184680e-01 -1.699950582e-01 -7.628090099e-01  5.558515666e-01 -7.628090099e-01  5.558515666e-01 -1.361184680e-01 -1.699950582e-01
3.475000000 -1.455821074e-01 -1.727646162e-01 -7.456980175e-01  5.756864683e-01 -7.456980175e-01  5.756864683e-01 -1.455821074e-01 -1.727646162e-01
3.500000000 -1.551478824e-01 -1.749976872e-01 -7.281197247e-01  5.949098125e-01 -7.281197247e-01  5.949098125e-01 -1.551478824e-01 -1.749976872e-01
3.525000000 -1.647847628e-01 -1.766934454e-01 -7.101019398e-01  6.135157488e-01 -7.101019398e-01  6.135157488e-01 -1.647847628e-01 -1.766934454e-01
3.550000000 -1.744623364e-01 -1.778529465e-01 -6.916717404e-01  6.315001365e-01 -6.916717404e-01  6.315001365e-01 -1.744623364e-01 -1.778529465e-01
3.575000000 -1.841506374e-01 -1.784789411e-01 -6.728556611e-01  6.488602276e-01 -6.728556611e-01  6.488602276e-01 -1.841506374e-01 -1.784789411e-01
3.600000000 -1.938204571e-01 -1.785757702e-01 -6.536794338e-01  6.655946700e-01 -6.536794338e-01  6.655946700e-01 -1.938204571e-01 -1.785757702e-01
3.625000000 -2.034432941e-01 -1.781493187e-01 -6.341680199e-01  6.817033540e-01 -6.341680199e-01  6.817033540e-01 -2.034432941e-01 -1.781493187e-01
3.650000000 -2.129913801e-01 -1.772070148e-01 -6.143454782e-01  6.971874151e-01 -6.143454782e-01  6.971874151e-01 -2.129913801e-01 -1.772070148e-01
3.675000000 -2.224379587e-01 -1.757574427e-01 -5.942349967e-01  7.120489177e-01 -5.942349967e-01  7.120489177e-01 -2.224379587e-01 -1.757574427e-01
3.700000000 -2.317569700e-01 -1.738108446e-01 -5.738586706e-01  7.262911307e-01 -5.738586706e-01  7.262911307e-01 -2.317569700e-01 -1.738108446e-01
3.725000000 -2.409234910e-01 -1.713782519e-01 -5.532377750e-01  7.399179104e-01 -5.532377750e-01  7.399179104e-01 -2.409234910e-01 -1.713782519e-01
3.750000000 -2.499134956e-01 -1.684722077e-01 -5.323922758e-01  7.529341710e-01 -5.323922758e-01  7.529341710e-01 -2.499134956e-01 -1.684722077e-01
3.775000000 -2.587039809e-01 -1.651060276e-01 -5.113413412e-01  7.653452546e-01 -5.113413412e-01  7.653452546e-01 -2.587039809e-01 -1.651060276e-01
3.800000000 -2.672731051e-01 -1.612940177e-01 -4.901028424e-01  7.771571920e-01 -4.901028424e-01  7.771571920e-01 -2.672731051e-01 -1.612940177e-01
3.825000000 -2.755999659e-01 -1.570513663e-01 -4.686937493e-01  7.883763968e-01 -4.686937493e-01  7.883763968e-01 -2.755999659e-01 -1.570513663e-01
3.850000000 -2.836648510e-01 -1.523938942e-01 -4.471298895e-01  7.990096482e-01 -4.471298895e-01  7.990096482e-01 -2.836648510e-01 -1.523938942e-01
3.875000000 -2.914490602e-01 -1.473381611e-01 -4.254261173e-01  8.090639740e-01 -4.254261173e-01  8.090639740e-01 -2.914490602e-01 -1.473381611e-01
3.900000000 -2.989349532e-01 -1.419013387e-01 -4.035962426e-01  8.185466047e-01 -4.035962426e-01  8.185466047e-01 -2.989349532e-01 -1.419013387e-01
3.925000000 -3.061059761e-01 -1.361010567e-01 -3.816531540e-01  8.274648175e-01 -3.816531540e-01  8.274648175e-01 -3.061059761e-01 -1.361010567e-01
3.950000000 -3.129465585e-01 -1.299555848e-01 -3.596087086e-01  8.358259837e-01 -3.596087086e-01  8.358259837e-01 -3.129465585e-01 -1.299555848e-01
3.975000000 -3.194421850e-01 -1.234835252e-01 -3.374739226e-01  8.436373707e-01 -3.374739226e-01  8.436373707e-01 -3.194421850e-01 -1.234835252e-01
4.000000000 -3.255793415e-01 -1.167039433e-01 -3.152588551e-01  8.509061719e-01 -3.152588551e-01  8.509061719e-01 -3.255793415e-01 -1.167039433e-01
4.025000000 -3.313454934e-01 -1.096362193e-01 -2.929728232e-01  8.576393630e-01 -2.929728232e-01  8.576393630e-01 -3.313454934e-01 -1.096362193e-01
4.050000000 -3.367291130e-01 -1.023000628e-01 -2.706241939e-01  8.638437320e-01 -2.706241939e-01  8.638437320e-01 -3.367291130e-01 -1.023000628e-01
4.075000000 -3.417196167e-01 -9.471541820e-02 -2.482206703e-01  8.695257389e-01 -2.482206703e-01  8.695257389e-01 -3.417196167e-01 -9.471541820e-02
4.100000000 -3.463073657e-01 -8.690241463e-02 -2.257692780e-01  8.746914898e-01 -2.257692780e-01  8.746914898e-01 -3.463073657e-01 -8.690241463e-02
4.125000000 -3.504836563e-01 -7.888131804e-02 -2.032763651e-01  8.793467045e-01 -2.032763651e-01  8.793467045e-01 -3.504836563e-01 -7.888131804e-02
4.150000000 -3.542406589e-01 -7.067259993e-02 -1.807477347e-01  8.834966686e-01 -1.807477347e-01  8.834966686e-01 -3.542406589e-01 -7.067259993e-02
4.175000000 -3.575714416e-01 -6.229676883e-02 -1.581886519e-01  8.871461962e-01 -1.581886519e-01  8.871461962e-01 -3.575714416e-01 -6.229676883e-02
4.200000000 -3.604699180e-01 -5.377448279e-02 -1.356039416e-01  8.902996037e-01 -1.356039416e-01  8.902996037e-01 -3.604699180e-01 -5.377448279e-02
4.225000000 -3.629308422e-01 -4.512653367e-02 -1.129979538e-01  8.929606954e-01 -1.129979538e-01  8.929606954e-01 -3.629308422e-01 -4.512653367e-02
4.250000000 -3.649498066e-01 -3.637370111e-02 -9.037477387e-02  8.951327083e-01 -9.037477387e-02  8.951327083e-01 -3.649498066e-01 -3.637370111e-02
4.275000000 -3.665232145e-01 -2.753691256e-02 -6.773813614e-02  8.968183239e-01 -6.773813614e-02  8.968183239e-01 -3.665232145e-01 -2.753691256e-02
4.300000000 -3.676482817e-01 -1.863715478e-02 -4.509152598e-02  8.980196374e-01 -4.509152598e-02  8.980196374e-01 -3.676482817e-01 -1.863715478e-02
4.325000000 -3.683230251e-01 -9.695411712e-03 -2.243816485e-02  8.987381463e-01 -2.243816485e-02  8.987381463e-01 -3.683230251e-01 -9.695411712e-03
4.350000000 -3.685462621e-01 -7.327586328e-04  2.186721768e-04  8.989747272e-01  2.186721768e-04  8.989747272e-01 -3.685462621e-01 -7.327586328e-04
4.375000000 -3.683175964e-01  8.229891968e-03  2.287593982e-02  8.987296497e-01  2.287593982e-02  8.987296497e-01 -3.683175964e-01  8.229891968e-03
4.400000000 -3.676374231e-01  1.717142958e-02  4.553046833e-02  8.980025647e-01  4.553046833e-02  8.980025647e-01 -3.676374231e-01  1.717142958e-02
4.425000000 -3.665069271e-01  2.607096682e-02  6.817909181e-02  8.967925079e-01  6.817909181e-02  8.967925079e-01 -3.665069271e-01  2.607096682e-02
4.450000000 -3.649280787e-01  3.490752138e-02  9.081845158e-02  8.950979156e-01  9.081845158e-02  8.950979156e-01 -3.649280787e-01  3.490752138e-02
4.475000000 -3.629036616e-01  4.366015781e-02  1.134450785e-01  8.929166140e-01  1.134450785e-01  8.929166140e-01 -3.629036616e-01  4.366015781e-02
4.500000000 -3.604372571e-01  5.230801074e-02  1.360551826e-01  8.902458574e-01  1.360551826e-01  8.902458574e-01 -3.604372571e-01  5.230801074e-02
4.525000000 -3.575332750e-01  6.083024155e-02  1.586446906e-01  8.870823288e-01  1.586446906e-01  8.870823288e-01 -3.575332750e-01  6.083024155e-02
4.550000000 -3.541969680e-01  6.920603639e-02  1.812091901e-01  8.834221551e-01  1.812091901e-01  8.834221551e-01 -3.541969680e-01  6.920603639e-02
4.575000000 -3.504344189e-01  7.741468595e-02  2.037439029e-01  8.792609310e-01  2.037439029e-01  8.792609310e-01 -3.504344189e-01  7.741468595e-02
4.600000000 -3.462526009e-01  8.543555645e-02  2.262434834e-01  8.745937637e-01  2.262434834e-01  8.745937637e-01 -3.462526009e-01  8.543555645e-02
4.625000000 -3.416593383e-01  9.324820351e-02  2.487021218e-01  8.694152896e-01  2.487021218e-01  8.694152896e-01 -3.416593383e-01  9.324820351e-02
4.650000000 -3.366633678e-01  1.008322783e-01  2.711133966e-01  8.637197156e-01  2.711133966e-01  8.637197156e-01 -3.366633678e-01  1.008322783e-01
4.675000000 -3.312743373e-01  1.081676687e-01  2.934702388e-01  8.575008646e-01  2.934702388e-01  8.575008646e-01 -3.312743373e-01  1.081676687e-01
4.700000000 -3.255028187e-01  1.152344788e-01  3.157648872e-01  8.507522211e-01  3.157648872e-01  8.507522211e-01 -3.255028187e-01  1.152344788e-01
4.725000000 -3.193603581e-01  1.220130399e-01  3.379888225e-01  8.434669744e-01  3.379888225e-01  8.434669744e-01 -3.193603581e-01  1.220130399e-01
4.750000000 -3.128594742e-01  1.284840045e-01  3.601327366e-01  8.356380755e-01  3.601327366e-01  8.356380755e-01 -3.128594742e-01  1.284840045e-01
4.775000000 -3.060136774e-01  1.346283470e-01  3.821864308e-01  8.272583242e-01  3.821864308e-01  8.272583242e-01 -3.060136774e-01  1.346283470e-01
4.800000000 -2.988375261e-01  1.404273875e-01  4.041388901e-01  8.183203583e-01  4.041388901e-01  8.183203583e-01 -2.988375261e-01  1.404273875e-01
4.825000000 -2.913465966e-01  1.458629060e-01  4.259781166e-01  8.088168070e-01  4.259781166e-01  8.088168070e-01 -2.913465966e-01  1.458629060e-01
4.850000000 -2.835575141e-01  1.509171350e-01  4.476912239e-01  7.987402832e-01  4.476912239e-01  7.987402832e-01 -2.835575141e-01  1.509171350e-01
4.875000000 -2.754879867e-01  1.555728851e-01  4.692642347e-01  7.880835550e-01  4.692642347e-01  7.880835550e-01 -2.754879867e-01  1.555728851e-01
4.900000000 -2.671567228e-01  1.598135898e-01  4.906822918e-01  7.768395163e-01  4.906822918e-01  7.768395163e-01 -2.671567228e-01  1.598135898e-01
4.925000000 -2.585835772e-01  1.636233347e-01  5.119293661e-01  7.650013884e-01  5.119293661e-01  7.650013884e-01 -2.585835772e-01  1.636233347e-01
4.950000000 -2.497893738e-01  1.669870633e-01  5.329884983e-01  7.525627133e-01  5.329884983e-01  7.525627133e-01 -2.497893738e-01  1.669870633e-01
4.975000000 -2.407960643e-01  1.698904587e-01  5.538415733e-01  7.395175305e-01  5.538415733e-01  7.395175305e-01 -2.407960643e-01  1.698904587e-01
5.000000000 -2.316266159e-01  1.723202478e-01  5.744694750e-01  7.258604018e-01  5.744694750e-01  7.258604018e-01 -2.316266159e-01  1.723202478e-01
5.025000000 -2.223050177e-01  1.742640837e-01  5.948519767e-01  7.115865994e-01  5.948519767e-01  7.115865994e-01 -2.223050177e-01  1.742640837e-01
5.050000000 -2.128563062e-01  1.757107705e-01  6.149678631e-01  6.966920862e-01  6.149678631e-01  6.966920862e-01 -2.128563062e-01  1.757107705e-01
5.075000000 -2.033064588e-01  1.766502958e-01  6.347948214e-01  6.811737887e-01  6.347948214e-01  6.811737887e-01 -2.033064588e-01  1.766502958e-01
5.100000000 -1.936823812e-01  1.770739058e-01  6.543096681e-01  6.650294911e-01  6.543096681e-01  6.650294911e-01 -1.936823812e-01  1.770739058e-01
5.125000000 -1.840118892e-01  1.769742578e-01  6.734881499e-01  6.482581804e-01  6.734881499e-01  6.482581804e-01 -1.840118892e-01  1.769742578e-01
5.150000000 -1.743235259e-01  1.763454503e-01  6.923052792e-01  6.308599079e-01  6.923052792e-01  6.308599079e-01 -1.743235259e-01  1.763454503e-01
5.175000000 -1.646466459e-01  1.751831502e-01  7.107351286e-01  6.128361149e-01  7.107351286e-01  6.128361149e-01 -1.646466459e-01  1.751831502e-01
5.200000000 -1.550111743e-01  1.734846888e-01  7.287511301e-01  5.941895567e-01  7.287511301e-01  5.941895567e-01 -1.550111743e-01  1.734846888e-01
5.225000000 -1.454476299e-01  1.712491017e-01  7.463260081e-01  5.749245232e-01  7.463260081e-01  5.749245232e-01 -1.454476299e-01  1.712491017e-01
5.250000000 -1.359869744e-01  1.684772766e-01  7.634319510e-01  5.550468639e-01  7.634319510e-01  5.550468639e-01 -1.359869744e-01  1.684772766e-01
5.275000000 -1.266604957e-01  1.651719384e-01  7.800406903e-01  5.345641188e-01  7.800406903e-01  5.345641188e-01 -1.266604957e-01  1.651719384e-01
5.300000000 -1.174997316e-01  1.613378329e-01  7.961236308e-01  5.134855472e-01  7.961236308e-01  5.134855472e-01 -1.174997316e-01  1.613378329e-01
5.325000000 -1.085362945e-01  1.569816855e-01  8.116519597e-01  4.918222617e-01  8.116519597e-01  4.918222617e-01 -1.085362945e-01  1.569816855e-01
5.350000000 -9.980173659e-02  1.521122798e-01  8.265968186e-01  4.695872269e-01  8.265968186e-01  4.695872269e-01 -9.980173659e-02  1.521122798e-01
5.375000000 -9.132741558e-02  1.467405197e-01  8.409294191e-01  4.467953514e-01  8.409294191e-01  4.467953514e-01 -9.132741558e-02  1.467405197e-01
5.400000000 -8.314430263e-02  1.408794104e-01  8.546212272e-01  4.234634958e-01  8.546212272e-01  4.234634958e-01 -8.314430263e-02  1.408794104e-01
5.425000000 -7.528282369e-02  1.345440825e-01  8.676441303e-01  3.996104700e-01  8.676441303e-01  3.996104700e-01 -7.528282369e-02  1.345440825e-01
5.450000000 -6.777271278e-02  1.277518063e-01  8.799705614e-01  3.752571165e-01  8.799705614e-01  3.752571165e-01 -6.777271278e-02  1.277518063e-01
5.475000000 -6.064279143e-02  1.205219120e-01  8.915737454e-01  3.504261554e-01  8.915737454e-01  3.504261554e-01 -6.064279143e-02  1.205219120e-01
5.500000000 -5.392085566e-02  1.128758270e-01  9.024277752e-01  3.251423408e-01  9.024277752e-01  3.251423408e-01 -5.392085566e-02  1.128758270e-01
5.525000000 -4.763345764e-02  1.048369505e-01  9.125078570e-01  2.994322666e-01  9.125078570e-01  2.994322666e-01 -4.763345764e-02  1.048369505e-01
5.550000000 -4.180577658e-02  9.643064424e-02  9.217904373e-01  2.733243738e-01  9.217904373e-01  2.733243738e-01 -4.180577658e-02  9.643064424e-02
5.575000000 -3.646144784e-02  8.768416436e-02  9.302533718e-01  2.468488723e-01  9.302533718e-01  2.468488723e-01 -3.646144784e-02  8.768416436e-02
5.600000000 -3.162236719e-02  7.862643626e-02  9.378760962e-01  2.200376625e-01  9.378760962e-01  2.200376625e-01 -3.162236719e-02  7.862643626e-02
5.625000000 -2.730855937e-02  6.928811032e-02  9.446397860e-01  1.929241536e-01  9.446397860e-01  1.929241536e-01 -2.730855937e-02  6.928811032e-02
5.650000000 -2.353805488e-02  5.970128073e-02  9.505274629e-01  1.655432829e-01  9.505274629e-01  1.655432829e-01 -2.353805488e-02  5.970128073e-02
5.675000000 -2.032667058e-02  4.989935882e-02  9.555242072e-01  1.379310917e-01  9.555242072e-01  1.379310917e-01 -2.032667058e-02  4.989935882e-02
5.700000000 -1.768799297e-02  3.991699425e-02  9.596171747e-01  1.101249662e-01  9.596171747e-01  1.101249662e-01 -1.768799297e-02  3.991699425e-02
5.725000000 -1.563321628e-02  2.978970549e-02  9.627957858e-01  8.216297432e-02  9.627957858e-01  8.216297432e-02 -1.563321628e-02  2.978970549e-02
5.750000000 -1.417106331e-02  1.955389364e-02  9.650517512e-01  5.408415512e-02  9.650517512e-01  5.408415512e-02 -1.417106331e-02  1.955389364e-02
5.775000000 -1.330774593e-02  9.246504829e-03  9.663791606e-01  2.592802271e-02  9.663791606e-01  2.592802271e-02 -1.330774593e-02  9.246504829e-03
5.800000000 -1.304692461e-02 -1.095126977e-03  9.667745156e-01 -2.265527314e-03  9.667745156e-01 -2.265527314e-03 -1.304692461e-02 -1.095126977e-03
5.825000000 -1.338968598e-02 -1.143340220e-02  9.662367554e-01 -3.045639077e-02  9.662367554e-01 -3.045639077e-02 -1.338968598e-02 -1.143340220e-02
5.850000000 -1.433449786e-02 -2.173082278e-02  9.647672814e-01 -5.860446804e-02  9.647672814e-01 -5.860446804e-02 -1.433449786e-02 -2.173082278e-02
5.875000000 -1.587722245e-02 -3.195003319e-02  9.623699446e-01 -8.666988336e-02  9.623699446e-01 -8.666988336e-02 -1.587722245e-02 -3.195003319e-02
5.900000000 -1.801119002e-02 -4.205413694e-02  9.590510034e-01 -1.146131327e-01  9.590510034e-01 -1.146131327e-01 -1.801119002e-02 -4.205413694e-02
5.925000000 -2.072717601e-02 -5.200688790e-02  9.548190912e-01 -1.423953866e-01  9.548190912e-01 -1.423953866e-01 -2.072717601e-02 -5.200688790e-02
5.950000000 -2.401350906e-02 -6.177284683e-02  9.496851450e-01 -1.699785473e-01  9.496851450e-01 -1.699785473e-01 -2.401350906e-02 -6.177284683e-02
5.975000000 -2.785618055e-02 -7.131764172e-02  9.436622936e-01 -1.973255636e-01  9.436622936e-01 -1.973255636e-01 -2.785618055e-02 -7.131764172e-02
6.000000000 -3.223891460e-02 -8.060810585e-02  9.367657711e-01 -2.244005357e-01  9.367657711e-01 -2.244005357e-01 -3.223891460e-02 -8.060810585e-02
6.025000000 -3.714326703e-02 -8.961243602e-02  9.290128199e-01 -2.511688042e-01  9.290128199e-01 -2.511688042e-01 -3.714326703e-02 -8.961243602e-02
6.050000000 -4.254891280e-02 -9.830036875e-02  9.204224623e-01 -2.775972684e-01  9.204224623e-01 -2.775972684e-01 -4.254891280e-02 -9.830036875e-02
6.075000000 -4.843361453e-02 -1.066432694e-01  9.110154631e-01 -3.036543182e-01  9.110154631e-01 -3.036543182e-01 -4.843361453e-02 -1.066432694e-01
6.100000000 -5.477351135e-02 -1.146142412e-01  9.008141063e-01 -3.293100352e-01  9.008141063e-01 -3.293100352e-01 -5.477351135e-02 -1.146142412e-01
6.125000000 -6.154316083e-02 -1.221883004e-01  8.898420873e-01 -3.545362588e-01  8.898420873e-01 -3.545362588e-01 -6.154316083e-02 -1.221883004e-01
6.150000000 -6.871577900e-02 -1.293423196e-01  8.781243227e-01 -3.793066558e-01  8.781243227e-01 -3.793066558e-01 -6.871577900e-02 -1.293423196e-01
6.175000000 -7.626340736e-02 -1.360552609e-01  8.656867823e-01 -4.035967842e-01  8.656867823e-01 -4.035967842e-01 -7.626340736e-02 -1.360552609e-01
6.200000000 -8.415697948e-02 -1.423081304e-01  8.525563347e-01 -4.273841979e-01  8.525563347e-01 -4.273841979e-01 -8.415697948e-02 -1.423081304e-01
6.225000000 -9.236664863e-02 -1.480840300e-01  8.387605772e-01 -4.506483195e-01  8.387605772e-01 -4.506483195e-01 -9.236664863e-02 -1.480840300e-01
6.250000000 -1.008618552e-01 -1.533682626e-01  8.243275891e-01 -4.733707213e-01  8.243275891e-01 -4.733707213e-01 -1.008618552e-01 -1.533682626e-01
6.275000000 -1.096114781e-01 -1.581482209e-01  8.092859274e-01 -4.955347740e-01  8.092859274e-01 -4.955347740e-01 -1.096114781e-01 -1.581482209e-01
6.300000000 -1.185842287e-01 -1.624134108e-01  7.936642085e-01 -5.171259617e-01  7.936642085e-01 -5.171259617e-01 -1.185842287e-01 -1.624134108e-01
6.325000000 -1.277484133e-01 -1.661555338e-01  7.774912529e-01 -5.381315749e-01  7.774912529e-01 -5.381315749e-01 -1.277484133e-01 -1.661555338e-01
6.350000000 -1.370725665e-01 -1.693681277e-01  7.607956699e-01 -5.585407880e-01  7.607956699e-01 -5.585407880e-01 -1.370725665e-01 -1.693681277e-01
6.375000000 -1.465251668e-01 -1.720469428e-01  7.436059143e-01 -5.783445749e-01  7.436059143e-01 -5.783445749e-01 -1.465251668e-01 -1.720469428e-01
6.400000000 -1.560749879e-01 -1.741894602e-01  7.259500892e-01 -5.975356018e-01  7.259500892e-01 -5.975356018e-01 -1.560749879e-01 -1.741894602e-01
6.425000000 -1.656911962e-01 -1.757951350e-01  7.078558328e-01 -6.161081635e-01  7.078558328e-01 -6.161081635e-01 -1.656911962e-01 -1.757951350e-01
6.450000000 -1.753433165e-01 -1.768652090e-01  6.893502217e-01 -6.340581751e-01  6.893502217e-01 -6.340581751e-01 -1.753433165e-01 -1.768652090e-01
6.475000000 -1.850015230e-01 -1.774026073e-01  6.704597015e-01 -6.513829284e-01  6.704597015e-01 -6.513829284e-01 -1.850015230e-01 -1.774026073e-01
6.500000000 -1.946365992e-01 -1.774119685e-01  6.512099020e-01 -6.680811993e-01  6.512099020e-01 -6.680811993e-01 -1.946365992e-01 -1.774119685e-01
6.525000000 -2.042200406e-01 -1.768994571e-01  6.316257345e-01 -6.841529266e-01  6.316257345e-01 -6.841529266e-01 -2.042200406e-01 -1.768994571e-01
6.550000000 -2.137242536e-01 -1.758727002e-01  6.117310640e-01 -6.995993348e-01  6.117310640e-01 -6.995993348e-01 -2.137242536e-01 -1.758727002e-01
6.575000000 -2.231224326e-01 -1.743407470e-01  5.915489106e-01 -7.144226448e-01  5.915489106e-01 -7.144226448e-01 -2.231224326e-01 -1.743407470e-01
6.600000000 -2.323887873e-01 -1.723138151e-01  5.711012737e-01 -7.286260184e-01  5.711012737e-01 -7.286260184e-01 -2.323887873e-01 -1.723138151e-01
6.625000000 -2.414984871e-01 -1.698033492e-01  5.504091261e-01 -7.422134752e-01  5.504091261e-01 -7.422134752e-01 -2.414984871e-01 -1.698033492e-01
6.650000000 -2.504276898e-01 -1.668218498e-01  5.294924324e-01 -7.551897533e-01  5.294924324e-01 -7.551897533e-01 -2.504276898e-01 -1.668218498e-01
6.675000000 -2.591536253e-01 -1.633827572e-01  5.083701084e-01 -7.675602054e-01  5.083701084e-01 -7.675602054e-01 -2.591536253e-01 -1.633827572e-01
6.700000000 -2.676545245e-01 -1.595004934e-01  4.870600178e-01 -7.793307414e-01  4.870600178e-01 -7.793307414e-01 -2.676545245e-01 -1.595004934e-01
6.725000000 -2.759096722e-01 -1.551902706e-01  4.655790000e-01 -7.905076929e-01  4.655790000e-01 -7.905076929e-01 -2.759096722e-01 -1.551902706e-01
6.750000000 -2.838994346e-01 -1.504680756e-01  4.439428453e-01 -8.010977377e-01  4.439428453e-01 -8.010977377e-01 -2.838994346e-01 -1.504680756e-01
6.775000000 -2.916051913e-01 -1.453506584e-01  4.221662805e-01 -8.111078575e-01  4.221662805e-01 -8.111078575e-01 -2.916051913e-01 -1.453506584e-01
6.800000000 -2.990094191e-01 -1.398553209e-01  4.002630953e-01 -8.205451462e-01  4.002630953e-01 -8.205451462e-01 -2.990094191e-01 -1.398553209e-01
6.825000000 -3.060956598e-01 -1.339999659e-01  3.782459635e-01 -8.294168610e-01  3.782459635e-01 -8.294168610e-01 -3.060956598e-01 -1.339999659e-01
6.850000000 -3.128484531e-01 -1.278030283e-01  3.561267375e-01 -8.377302171e-01  3.561267375e-01 -8.377302171e-01 -3.128484531e-01 -1.278030283e-01
6.875000000 -3.192534807e-01 -1.212831797e-01  3.339162436e-01 -8.454923787e-01  3.339162436e-01 -8.454923787e-01 -3.192534807e-01 -1.212831797e-01
6.900000000 -3.252973245e-01 -1.144597199e-01  3.116244969e-01 -8.527103961e-01  3.116244969e-01 -8.527103961e-01 -3.252973245e-01 -1.144597199e-01
6.925000000 -3.309676721e-01 -1.073519446e-01  2.892607041e-01 -8.593910729e-01  2.892607041e-01 -8.593910729e-01 -3.309676721e-01 -1.073519446e-01
6.950000000 -3.362531186e-01 -9.997966230e-02  2.668332655e-01 -8.655410040e-01  2.668332655e-01 -8.655410040e-01 -3.362531186e-01 -9.997966230e-02
6.975000000 -3.411432256e-01 -9.236282590e-02  2.443498924e-01 -8.711664613e-01  2.443498924e-01 -8.711664613e-01 -3.411432256e-01 -9.236282590e-02
7.000000000 -3.456285032e-01 -8.452158539e-02  2.218176329e-01 -8.762733592e-01  2.218176329e-01 -8.762733592e-01 -3.456285032e-01 -8.452158539e-02
