! yapnr rf: antenna-x10, binary design on the optimization grid
! spec sha256 6d76e102596c44698a476305de89e6432791258e8245bcfd53b0e58c02666d0d
! renormalized to 50 ohm, e^(+jwt) convention
# GHz S RI R 50
8.000000000  8.426366512e-01 -2.158018735e-01
8.040000000  8.274216273e-01 -2.512949264e-01
8.080000000  8.102467951e-01 -2.859099640e-01
8.120000000  7.912059536e-01 -3.195005229e-01
8.160000000  7.704086761e-01 -3.519668611e-01
8.200000000  7.479553930e-01 -3.832524376e-01
8.240000000  7.239187377e-01 -4.133296404e-01
8.280000000  6.983347874e-01 -4.421795085e-01
8.320000000  6.712050835e-01 -4.697709204e-01
8.360000000  6.425077517e-01 -4.960441160e-01
8.400000000  6.122142097e-01 -5.209018070e-01
8.440000000  5.803071358e-01 -5.442090075e-01
8.480000000  5.467956435e-01 -5.658006036e-01
8.520000000  5.117247509e-01 -5.854940569e-01
8.560000000  4.751779064e-01 -6.031037994e-01
8.600000000  4.372730855e-01 -6.184539218e-01
8.640000000  3.981544118e-01 -6.313865779e-01
8.680000000  3.579820852e-01 -6.417648481e-01
8.720000000  3.169235041e-01 -6.494702779e-01
8.760000000  2.751478988e-01 -6.543965813e-01
8.800000000  2.328257506e-01 -6.564418213e-01
8.840000000  1.901330282e-01 -6.555016012e-01
8.880000000  1.472591239e-01 -6.514654467e-01
8.920000000  1.044165554e-01 -6.442177464e-01
8.960000000  6.185016383e-02 -6.336435732e-01
9.000000000  1.984370371e-02 -6.196386766e-01
9.040000000 -2.127767804e-02 -6.021221217e-01
9.080000000 -6.114972614e-02 -5.810496343e-01
9.120000000 -9.937586471e-02 -5.564257131e-01
9.160000000 -1.355374684e-01 -5.283129764e-01
9.200000000 -1.692061293e-01 -4.968378777e-01
9.240000000 -1.999563308e-01 -4.621926851e-01
9.280000000 -2.273771907e-01 -4.246343046e-01
9.320000000 -2.510824495e-01 -3.844809839e-01
9.360000000 -2.707185163e-01 -3.421080886e-01
9.400000000 -2.859710000e-01 -2.979439719e-01
9.440000000 -2.965705900e-01 -2.524665293e-01
9.480000000 -3.022993329e-01 -2.062004368e-01
9.520000000 -3.029982124e-01 -1.597144604e-01
9.560000000 -2.985765193e-01 -1.136177386e-01
9.600000000 -2.890228652e-01 -6.855369110e-02
9.640000000 -2.744169736e-01 -2.519029222e-02
9.680000000 -2.549407428e-01  1.579413490e-02
9.720000000 -2.308866435e-01  5.372972906e-02
9.760000000 -2.026614502e-01  8.797773827e-02
9.800000000 -1.707836484e-01  1.179553298e-01
9.840000000 -1.358736259e-01  1.431601715e-01
9.880000000 -9.863683643e-02  1.631920515e-01
9.920000000 -5.984132560e-02  1.777689853e-01
9.960000000 -2.029208833e-02  1.867360022e-01
10.000000000  1.919460257e-02  1.900660372e-01
10.040000000  5.781371106e-02  1.878538536e-01
10.080000000  9.478830626e-02  1.803053742e-01
10.120000000  1.293796711e-01  1.677258240e-01
10.160000000  1.608913570e-01  1.505103813e-01
10.200000000  1.886697605e-01  1.291403948e-01
10.240000000  2.121052655e-01  1.041866825e-01
10.280000000  2.306386211e-01  7.631922237e-02
10.320000000  2.437767415e-01  4.632010605e-02
10.360000000  2.511204440e-01  1.509452675e-02
10.400000000  2.524040144e-01 -1.632665891e-02
10.440000000  2.475433625e-01 -4.679917788e-02
10.480000000  2.366865621e-01 -7.509724318e-02
10.520000000  2.202584335e-01 -9.996712143e-02
10.560000000  1.989900724e-01 -1.202007230e-01
10.600000000  1.739251042e-01 -1.347238069e-01
10.640000000  1.463968438e-01 -1.426902487e-01
10.680000000  1.179740087e-01 -1.435718729e-01
10.720000000  9.037656591e-02 -1.372328762e-01
10.760000000  6.536705499e-02 -1.239788202e-01
10.800000000  4.462589872e-02 -1.045722737e-01
10.840000000  2.962154948e-02 -8.021009264e-02
10.880000000  2.148778171e-02 -5.246078914e-02
10.920000000  2.092097433e-02 -2.316430459e-02
10.960000000  2.810968443e-02  5.699298320e-03
11.000000000  4.270689036e-02  3.216138857e-02
11.040000000  6.385164528e-02  5.442176196e-02
11.080000000  9.024141845e-02  7.099349658e-02
11.120000000  1.202494972e-01  8.081751764e-02
11.160000000  1.520745264e-01  8.333122735e-02
11.200000000  1.839031625e-01  7.848138977e-02
11.240000000  2.140636191e-01  6.667993358e-02
11.280000000  2.411487895e-01  4.871082171e-02
11.320000000  2.640928354e-01  2.560448088e-02
11.360000000  2.821936423e-01 -1.498520757e-03
11.400000000  2.950834563e-01 -3.147202559e-02
11.440000000  3.026591287e-01 -6.329815768e-02
11.480000000  3.049898305e-01 -9.611868884e-02
11.520000000  3.022227147e-01 -1.292409943e-01
11.560000000  2.945055601e-01 -1.621045963e-01
11.600000000  2.819404320e-01 -1.942215058e-01
11.640000000  2.645749551e-01 -2.251078374e-01
11.680000000  2.424293871e-01 -2.542247733e-01
11.720000000  2.155499569e-01 -2.809438559e-01
11.760000000  1.840734295e-01 -3.045454332e-01
11.800000000  1.482857195e-01 -3.242511654e-01
11.840000000  1.086590273e-01 -3.392834960e-01
11.880000000  6.585707624e-02 -3.489386197e-01
11.920000000  2.070548158e-02 -3.526560892e-01
11.960000000 -2.586746163e-02 -3.500685502e-01
12.000000000 -7.290691812e-02 -3.410191725e-01
