! yapnr rf: antenna-x10, footprint re-simulated (refine 3)
! spec sha256 610baf4a0fb2ba4ef1c8cfcd4b0ca20bdc87be27183a6f686c22b10d0e099fe1
! 1 ports renormalized to 50 ohm, e^(+jwt) convention
# GHz S RI R 50
9.700000000 -5.022471833e-01  4.319204177e-01
9.710000000 -4.900229960e-01  4.372191822e-01
9.720000000 -4.775537131e-01  4.422096799e-01
9.730000000 -4.648443481e-01  4.468732522e-01
9.740000000 -4.518983168e-01  4.511956601e-01
9.750000000 -4.387213581e-01  4.551596419e-01
9.760000000 -4.253203592e-01  4.587474950e-01
9.770000000 -4.117048166e-01  4.619388790e-01
9.780000000 -3.978828218e-01  4.647177900e-01
9.790000000 -3.838651966e-01  4.670656640e-01
9.800000000 -3.696642249e-01  4.689638343e-01
9.810000000 -3.552951415e-01  4.703915735e-01
9.820000000 -3.407719345e-01  4.713325251e-01
9.830000000 -3.261116212e-01  4.717684152e-01
9.840000000 -3.113328852e-01  4.716813611e-01
9.850000000 -2.964575471e-01  4.710521645e-01
9.860000000 -2.815062465e-01  4.698661290e-01
9.870000000 -2.665027628e-01  4.681074351e-01
9.880000000 -2.514725662e-01  4.657612641e-01
9.890000000 -2.364442178e-01  4.628123446e-01
9.900000000 -2.214450189e-01  4.592500882e-01
9.910000000 -2.065052645e-01  4.550636622e-01
9.920000000 -1.916567264e-01  4.502438893e-01
9.930000000 -1.769334750e-01  4.447824928e-01
9.933333333 -1.720592728e-01  4.428186743e-01
9.940000000 -1.623694433e-01  4.386746403e-01
9.950000000 -1.479999500e-01  4.319173275e-01
9.960000000 -1.338613235e-01  4.245097645e-01
9.970000000 -1.199920137e-01  4.164523737e-01
9.980000000 -1.064289693e-01  4.077500641e-01
9.990000000 -9.321071399e-02  3.984093021e-01
10.000000000 -8.037604362e-02  3.884392417e-01
10.010000000 -6.796492553e-02  3.778508903e-01
10.020000000 -5.601484827e-02  3.666599773e-01
10.030000000 -4.456409879e-02  3.548840505e-01
10.040000000 -3.365033303e-02  3.425435016e-01
10.050000000 -2.331109570e-02  3.296609671e-01
10.060000000 -1.358120606e-02  3.162631235e-01
10.066666667 -7.450146772e-03  3.070590291e-01
10.070000000 -4.495109021e-03  3.023786115e-01
10.080000000  3.914380829e-03  2.880387494e-01
10.090000000  1.161620430e-02  2.732773315e-01
10.100000000  1.858203858e-02  2.581311180e-01
10.110000000  2.478528904e-02  2.426387241e-01
10.120000000  3.020181551e-02  2.268408626e-01
10.130000000  3.480971788e-02  2.107797225e-01
10.140000000  3.859083603e-02  1.945000966e-01
10.150000000  4.152942655e-02  1.780477738e-01
10.160000000  4.361282313e-02  1.614697843e-01
10.170000000  4.483142899e-02  1.448137713e-01
10.180000000  4.517927485e-02  1.281288823e-01
10.190000000  4.465345571e-02  1.114643366e-01
10.200000000  4.325441626e-02  9.486955696e-02
10.210000000  4.098613198e-02  7.839351323e-02
10.220000000  3.785570671e-02  6.208559505e-02
10.230000000  3.387357483e-02  4.599421569e-02
10.240000000  2.905340112e-02  3.016693106e-02
10.250000000  2.341243575e-02  1.464973866e-02
10.260000000  1.697019842e-02 -5.118562134e-04
10.270000000  9.749422744e-03 -1.527433554e-02
10.280000000  1.775593829e-03 -2.959596738e-02
10.290000000 -6.922533207e-03 -4.343756498e-02
10.300000000 -1.631505948e-02 -5.676104606e-02
