! yapnr rf: antenna-x10, footprint re-simulated (refine 2)
! spec sha256 610baf4a0fb2ba4ef1c8cfcd4b0ca20bdc87be27183a6f686c22b10d0e099fe1
! 1 ports renormalized to 50 ohm, e^(+jwt) convention
# GHz S RI R 50
9.700000000 -4.213741635e-01  4.520821419e-01
9.710000000 -4.073878157e-01  4.556549675e-01
9.720000000 -3.931744306e-01  4.588074728e-01
9.730000000 -3.787464442e-01  4.615181527e-01
9.740000000 -3.641149485e-01  4.637699028e-01
9.750000000 -3.492939686e-01  4.655433891e-01
9.760000000 -3.342991171e-01  4.668194449e-01
9.770000000 -3.191491042e-01  4.675772372e-01
9.780000000 -3.038613680e-01  4.678003964e-01
9.790000000 -2.884564702e-01  4.674710448e-01
9.800000000 -2.729566527e-01  4.665720139e-01
9.810000000 -2.573873124e-01  4.650852716e-01
9.820000000 -2.417725359e-01  4.629973661e-01
9.830000000 -2.261395092e-01  4.602941643e-01
9.840000000 -2.105169930e-01  4.569628522e-01
9.850000000 -1.949367096e-01  4.529906209e-01
9.860000000 -1.794288922e-01  4.483693563e-01
9.870000000 -1.640265835e-01  4.430911203e-01
9.880000000 -1.487640616e-01  4.371498934e-01
9.890000000 -1.336780875e-01  4.305405032e-01
9.900000000 -1.188036043e-01  4.232625125e-01
9.910000000 -1.041777914e-01  4.153164464e-01
9.920000000 -8.983848683e-02  4.067052421e-01
9.930000000 -7.582483685e-02  3.974337067e-01
9.933333333 -7.123246148e-02  3.941979268e-01
9.940000000 -6.217497159e-02  3.875102915e-01
9.950000000 -4.892735278e-02  3.769458756e-01
9.960000000 -3.612035118e-02  3.657539933e-01
9.970000000 -2.379309483e-02  3.539501450e-01
9.980000000 -1.198231313e-02  3.415538622e-01
9.990000000 -7.249217716e-04  3.285867041e-01
10.000000000  9.943162092e-03  3.150729249e-01
10.010000000  1.998641709e-02  3.010389028e-01
10.020000000  2.937254669e-02  2.865147165e-01
10.030000000  3.806996942e-02  2.715323038e-01
10.040000000  4.604897346e-02  2.561259665e-01
10.050000000  5.328145189e-02  2.403319327e-01
10.060000000  5.974260406e-02  2.241891677e-01
10.066666667  6.361008749e-02  2.132535160e-01
10.070000000  6.540941476e-02  2.077381285e-01
10.080000000  7.026151054e-02  1.910210087e-01
10.090000000  7.428126279e-02  1.740814861e-01
10.100000000  7.745418797e-02  1.569648088e-01
10.110000000  7.976849480e-02  1.397170985e-01
10.120000000  8.121544032e-02  1.223853231e-01
10.130000000  8.178944024e-02  1.050168279e-01
10.140000000  8.148811838e-02  8.765977539e-02
10.150000000  8.031216306e-02  7.036219940e-02
10.160000000  7.826542762e-02  5.317199860e-02
10.170000000  7.535525493e-02  3.613643902e-02
10.180000000  7.159152214e-02  1.930264034e-02
10.190000000  6.698733086e-02  2.716632651e-03
10.200000000  6.155871586e-02 -1.357663505e-02
10.210000000  5.532517125e-02 -2.953384284e-02
10.220000000  4.830775583e-02 -4.511255989e-02
10.230000000  4.053058556e-02 -6.027233127e-02
10.240000000  3.202018143e-02 -7.497456549e-02
10.250000000  2.280618587e-02 -8.918315455e-02
10.260000000  1.291864432e-02 -1.028633080e-01
10.270000000  2.390238635e-03 -1.159829167e-01
10.280000000 -8.744672177e-03 -1.285122665e-01
10.290000000 -2.044915794e-02 -1.404247529e-01
10.300000000 -3.268711183e-02 -1.516951637e-01
