! yapnr rf: line-osh-m-w0p40-l30-m-nom, footprint re-simulated (optimization grid)
! spec sha256 d65bbbedd31d98c95967689ff5c38d7c570dd369000dbdf92ff01945cfde60dd
! 2 ports renormalized to 50 ohm, e^(+jwt) convention
# GHz S RI R 50
3.000000000  2.491373532e-03 -3.481015026e-04 -9.557467051e-01 -6.795297448e-04 -9.557467051e-01 -6.795297448e-04  2.491373532e-03 -3.481015027e-04
3.025000000  2.537866840e-03  1.254322843e-03 -9.554311752e-01  2.438773257e-02 -9.554311752e-01  2.438773257e-02  2.537866840e-03  1.254322843e-03
3.050000000  2.668382444e-03  2.852446531e-03 -9.544557064e-01  4.943798852e-02 -9.544557064e-01  4.943798852e-02  2.668382444e-03  2.852446531e-03
3.075000000  2.882362792e-03  4.441875544e-03 -9.528210063e-01  7.445373828e-02 -9.528210063e-01  7.445373828e-02  2.882362792e-03  4.441875544e-03
3.100000000  3.179498333e-03  6.018113199e-03 -9.505282294e-01  9.941748579e-02 -9.505282294e-01  9.941748579e-02  3.179498333e-03  6.018113199e-03
3.125000000  3.558756848e-03  7.576959806e-03 -9.475790486e-01  1.243116876e-01 -9.475790486e-01  1.243116876e-01  3.558756848e-03  7.576959806e-03
3.150000000  4.019098856e-03  9.114074634e-03 -9.439755926e-01  1.491189445e-01 -9.439755926e-01  1.491189445e-01  4.019098856e-03  9.114074634e-03
3.175000000  4.559268188e-03  1.062530917e-02 -9.397204773e-01  1.738218424e-01 -9.397204773e-01  1.738218424e-01  4.559268188e-03  1.062530917e-02
3.200000000  5.177754202e-03  1.210661599e-02 -9.348168115e-01  1.984029962e-01 -9.348168115e-01  1.984029962e-01  5.177754202e-03  1.210661599e-02
3.225000000  5.872900740e-03  1.355387519e-02 -9.292681430e-01  2.228452796e-01 -9.292681430e-01  2.228452796e-01  5.872900740e-03  1.355387519e-02
3.250000000  6.643006384e-03  1.496315627e-02 -9.230785210e-01  2.471314872e-01 -9.230785210e-01  2.471314872e-01  6.643006384e-03  1.496315627e-02
3.275000000  7.485879672e-03  1.633054366e-02 -9.162524296e-01  2.712447501e-01 -9.162524296e-01  2.712447501e-01  7.485879672e-03  1.633054366e-02
3.300000000  8.399453240e-03  1.765216907e-02 -9.087948144e-01  2.951682402e-01 -9.087948144e-01  2.951682402e-01  8.399453240e-03  1.765216907e-02
3.325000000  9.381124155e-03  1.892441783e-02 -9.007110876e-01  3.188853178e-01 -9.007110876e-01  3.188853178e-01  9.381124155e-03  1.892441783e-02
3.350000000  1.042819339e-02  2.014372426e-02 -8.920070928e-01  3.423795358e-01 -8.920070928e-01  3.423795358e-01  1.042819339e-02  2.014372426e-02
3.375000000  1.153777143e-02  2.130675353e-02 -8.826891366e-01  3.656345680e-01 -8.826891366e-01  3.656345680e-01  1.153777143e-02  2.130675353e-02
3.400000000  1.270668302e-02  2.241039370e-02 -8.727639737e-01  3.886342763e-01 -8.727639737e-01  3.886342763e-01  1.270668302e-02  2.241039370e-02
3.425000000  1.393172186e-02  2.345162286e-02 -8.622387766e-01  4.113627383e-01 -8.622387766e-01  4.113627383e-01  1.393172186e-02  2.345162286e-02
3.450000000  1.520955877e-02  2.442764108e-02 -8.511211654e-01  4.338041948e-01 -8.511211654e-01  4.338041948e-01  1.520955877e-02  2.442764108e-02
3.475000000  1.653669834e-02  2.533579607e-02 -8.394191671e-01  4.559431461e-01 -8.394191671e-01  4.559431461e-01  1.653669834e-02  2.533579607e-02
3.500000000  1.790954655e-02  2.617355204e-02 -8.271411780e-01  4.777643975e-01 -8.271411780e-01  4.777643975e-01  1.790954655e-02  2.617355204e-02
3.525000000  1.932463733e-02  2.693849882e-02 -8.142960645e-01  4.992528460e-01 -8.142960645e-01  4.992528460e-01  1.932463733e-02  2.693849882e-02
3.550000000  2.077786691e-02  2.762857992e-02 -8.008929729e-01  5.203939031e-01 -8.008929729e-01  5.203939031e-01  2.077786691e-02  2.762857992e-02
3.575000000  2.226547883e-02  2.824174102e-02 -7.869414946e-01  5.411730776e-01 -7.869414946e-01  5.411730776e-01  2.226547883e-02  2.824174102e-02
3.600000000  2.378312190e-02  2.877649669e-02 -7.724515697e-01  5.615762480e-01 -7.724515697e-01  5.615762480e-01  2.378312190e-02  2.877649669e-02
3.625000000  2.532676960e-02  2.923123481e-02 -7.574334962e-01  5.815895350e-01 -7.574334962e-01  5.815895350e-01  2.532676960e-02  2.923123481e-02
3.650000000  2.689205338e-02  2.960491120e-02 -7.418979596e-01  6.011993365e-01 -7.418979596e-01  6.011993365e-01  2.689205338e-02  2.960491120e-02
3.675000000  2.847465702e-02  2.989653933e-02 -7.258559871e-01  6.203923494e-01 -7.258559871e-01  6.203923494e-01  2.847465702e-02  2.989653933e-02
3.700000000  3.007031272e-02  3.010531405e-02 -7.093188973e-01  6.391556250e-01 -7.093188973e-01  6.391556250e-01  3.007031272e-02  3.010531405e-02
3.725000000  3.167475024e-02  3.023068232e-02 -6.922984584e-01  6.574763936e-01 -6.922984584e-01  6.574763936e-01  3.167475024e-02  3.023068232e-02
3.750000000  3.328351709e-02  3.027229854e-02 -6.748065467e-01  6.753424571e-01 -6.748065467e-01  6.753424571e-01  3.328351709e-02  3.027229854e-02
3.775000000  3.489253865e-02  3.022978680e-02 -6.568555431e-01  6.927417039e-01 -6.568555431e-01  6.927417039e-01  3.489253865e-02  3.022978680e-02
3.800000000  3.649714339e-02  3.010349370e-02 -6.384579341e-01  7.096626069e-01 -6.384579341e-01  7.096626069e-01  3.649714339e-02  3.010349370e-02
3.825000000  3.809320492e-02  2.989343816e-02 -6.196265939e-01  7.260938330e-01 -6.196265939e-01  7.260938330e-01  3.809320492e-02  2.989343816e-02
3.850000000  3.967614777e-02  2.960046700e-02 -6.003746309e-01  7.420244780e-01 -6.003746309e-01  7.420244780e-01  3.967614777e-02  2.960046700e-02
3.875000000  4.124167061e-02  2.922531471e-02 -5.807154221e-01  7.574439686e-01 -5.807154221e-01  7.574439686e-01  4.124167061e-02  2.922531471e-02
3.900000000  4.278546768e-02  2.876910184e-02 -5.606626137e-01  7.723420852e-01 -5.606626137e-01  7.723420852e-01  4.278546768e-02  2.876910184e-02
3.925000000  4.430329377e-02  2.823315783e-02 -5.402301273e-01  7.867089552e-01 -5.402301273e-01  7.867089552e-01  4.430329377e-02  2.823315783e-02
3.950000000  4.579103472e-02  2.761893395e-02 -5.194320574e-01  8.005351194e-01 -5.194320574e-01  8.005351194e-01  4.579103472e-02  2.761893395e-02
3.975000000  4.724469946e-02  2.692805749e-02 -4.982827937e-01  8.138114442e-01 -4.982827937e-01  8.138114442e-01  4.724469946e-02  2.692805749e-02
4.000000000  4.866031706e-02  2.616242467e-02 -4.767968576e-01  8.265292379e-01 -4.767968576e-01  8.265292379e-01  4.866031706e-02  2.616242467e-02
4.025000000  5.003419220e-02  2.532384412e-02 -4.549890562e-01  8.386801305e-01 -4.549890562e-01  8.386801305e-01  5.003419220e-02  2.532384412e-02
4.050000000  5.136246635e-02  2.441475847e-02 -4.328742424e-01  8.502562433e-01 -4.328742424e-01  8.502562433e-01  5.136246635e-02  2.441475847e-02
4.075000000  5.264152849e-02  2.343760392e-02 -4.104675083e-01  8.612500396e-01 -4.104675083e-01  8.612500396e-01  5.264152849e-02  2.343760392e-02
4.100000000  5.386791387e-02  2.239498989e-02 -3.877841362e-01  8.716543641e-01 -3.877841362e-01  8.716543641e-01  5.386791387e-02  2.239498989e-02
4.125000000  5.503819890e-02  2.128995011e-02 -3.648395424e-01  8.814624756e-01 -3.648395424e-01  8.814624756e-01  5.503819890e-02  2.128995011e-02
4.150000000  5.614921255e-02  2.012546705e-02 -3.416493113e-01  8.906680139e-01 -3.416493113e-01  8.906680139e-01  5.614921255e-02  2.012546705e-02
4.175000000  5.719792057e-02  1.890479169e-02 -3.182291859e-01  8.992650139e-01 -3.182291859e-01  8.992650139e-01  5.719792057e-02  1.890479169e-02
4.200000000  5.818147172e-02  1.763126742e-02 -2.945950562e-01  9.072479076e-01 -2.945950562e-01  9.072479076e-01  5.818147172e-02  1.763126742e-02
4.225000000  5.909721545e-02  1.630830532e-02 -2.707628572e-01  9.146115558e-01 -2.707628572e-01  9.146115558e-01  5.909721545e-02  1.630830532e-02
4.250000000  5.994268354e-02  1.493943857e-02 -2.467487497e-01  9.213511885e-01 -2.467487497e-01  9.213511885e-01  5.994268354e-02  1.493943857e-02
4.275000000  6.071560157e-02  1.352825192e-02 -2.225689071e-01  9.274624720e-01 -2.225689071e-01  9.274624720e-01  6.071560157e-02  1.352825192e-02
4.300000000  6.141386402e-02  1.207851161e-02 -1.982395795e-01  9.329414835e-01 -1.982395795e-01  9.329414835e-01  6.141386402e-02  1.207851161e-02
4.325000000  6.203549785e-02  1.059443446e-02 -1.737770570e-01  9.377847181e-01 -1.737770570e-01  9.377847181e-01  6.203549785e-02  1.059443446e-02
4.350000000  6.257886319e-02  9.079751218e-03 -1.491977968e-01  9.419890501e-01 -1.491977968e-01  9.419890501e-01  6.257886319e-02  9.079751218e-03
4.375000000  6.304241254e-02  7.538897360e-03 -1.245182650e-01  9.455517815e-01 -1.245182650e-01  9.455517815e-01  6.304241254e-02  7.538897360e-03
4.400000000  6.342488997e-02  5.976028718e-03 -9.975503054e-02  9.484706124e-01 -9.975503054e-02  9.484706124e-01  6.342488997e-02  5.976028718e-03
4.425000000  6.372524169e-02  4.395426571e-03 -7.492467005e-02  9.507436608e-01 -7.492467005e-02  9.507436608e-01  6.372524169e-02  4.395426571e-03
4.450000000  6.394263607e-02  2.801407370e-03 -5.004391493e-02  9.523694480e-01 -5.004391493e-02  9.523694480e-01  6.394263607e-02  2.801407370e-03
4.475000000  6.407647561e-02  1.198292268e-03 -2.512933969e-02  9.533469228e-01 -2.512933969e-02  9.533469228e-01  6.407647561e-02  1.198292268e-03
4.500000000  6.412637683e-02 -4.096491028e-04 -1.977055589e-04  9.536754378e-01 -1.977055589e-04  9.536754378e-01  6.412637683e-02 -4.096491028e-04
4.525000000  6.409218065e-02 -2.018141626e-03  2.473429115e-02  9.533547655e-01  2.473429115e-02  9.533547655e-01  6.409218065e-02 -2.018141626e-03
4.550000000  6.397395951e-02 -3.622828895e-03  4.965001090e-02  9.523850881e-01  4.965001090e-02  9.523850881e-01  6.397395951e-02 -3.622828895e-03
4.575000000  6.377200866e-02 -5.219194984e-03  7.453280499e-02  9.507669968e-01  7.453280499e-02  9.507669968e-01  6.377200866e-02 -5.219194984e-03
4.600000000  6.348686618e-02 -6.802941994e-03  9.936601752e-02  9.485014933e-01  9.936601752e-02  9.485014933e-01  6.348686618e-02 -6.802941994e-03
4.625000000  6.311928211e-02 -8.369683072e-03  1.241330149e-01  9.455899913e-01  1.241330149e-01  9.455899913e-01  6.311928211e-02 -8.369683072e-03
4.650000000  6.267024430e-02 -9.915057772e-03  1.488171779e-01  9.420343183e-01  1.488171779e-01  9.420343183e-01  6.267024430e-02 -9.915057772e-03
4.675000000  6.214095444e-02 -1.143484732e-02  1.734019502e-01  9.378367112e-01  1.734019502e-01  9.378367112e-01  6.214095444e-02 -1.143484732e-02
4.700000000  6.153281445e-02 -1.292490343e-02  1.978707783e-01  9.329998290e-01  1.978707783e-01  9.329998290e-01  6.153281445e-02 -1.292490343e-02
4.725000000  6.084745519e-02 -1.438114884e-02  2.222072109e-01  9.275267350e-01  2.222072109e-01  9.275267350e-01  6.084745519e-02 -1.438114884e-02
4.750000000  6.008671278e-02 -1.579962760e-02  2.463948994e-01  9.214208943e-01  2.463948994e-01  9.214208943e-01  6.008671278e-02 -1.579962760e-02
4.775000000  5.925258290e-02 -1.717660033e-02  2.704174638e-01  9.146862137e-01  2.704174638e-01  9.146862137e-01  5.925258290e-02 -1.717660033e-02
4.800000000  5.834735684e-02 -1.850817020e-02  2.942588011e-01  9.073269497e-01  2.942588011e-01  9.073269497e-01  5.834735684e-02 -1.850817020e-02
4.825000000  5.737345684e-02 -1.979076021e-02  3.179027812e-01  8.993478025e-01  3.179027812e-01  8.993478025e-01  5.737345684e-02 -1.979076021e-02
4.850000000  5.633354792e-02 -2.102069875e-02  3.413334386e-01  8.907538546e-01  3.413334386e-01  8.907538546e-01  5.633354792e-02 -2.102069875e-02
4.875000000  5.523045115e-02 -2.219466497e-02  3.645348814e-01  8.815506084e-01  3.645348814e-01  8.815506084e-01  5.523045115e-02 -2.219466497e-02
4.900000000  5.406714670e-02 -2.330931274e-02  3.874913497e-01  8.717439687e-01  3.874913497e-01  8.717439687e-01  5.406714670e-02 -2.330931274e-02
4.925000000  5.284681060e-02 -2.436155215e-02  4.101871841e-01  8.613402566e-01  4.101871841e-01  8.613402566e-01  5.284681060e-02 -2.436155215e-02
4.950000000  5.157272207e-02 -2.534848303e-02  4.326069414e-01  8.503461657e-01  4.326069414e-01  8.503461657e-01  5.157272207e-02 -2.534848303e-02
4.975000000  5.024830655e-02 -2.626737250e-02  4.547351972e-01  8.387688580e-01  4.547351972e-01  8.387688580e-01  5.024830655e-02 -2.626737250e-02
5.000000000  4.887719719e-02 -2.711564644e-02  4.765569122e-01  8.266157730e-01  4.765569122e-01  8.266157730e-01  4.887719719e-02 -2.711564644e-02
5.025000000  4.746302986e-02 -2.789106883e-02  4.980569939e-01  8.138948778e-01  4.980569939e-01  8.138948778e-01  4.746302986e-02 -2.789106883e-02
5.050000000  4.600974767e-02 -2.859131354e-02  5.192207662e-01  8.006143818e-01  5.192207662e-01  8.006143818e-01  4.600974767e-02 -2.859131354e-02
5.075000000  4.452127560e-02 -2.921456941e-02  5.400335960e-01  7.867829800e-01  5.400335960e-01  7.867829800e-01  4.452127560e-02 -2.921456941e-02
5.100000000  4.300171188e-02 -2.975891224e-02  5.604811277e-01  7.724096993e-01  5.604811277e-01  7.724096993e-01  4.300171188e-02 -2.975891224e-02
5.125000000  4.145524766e-02 -3.022285151e-02  5.805491817e-01  7.575039718e-01  5.805491817e-01  7.575039718e-01  4.145524766e-02 -3.022285151e-02
5.150000000  3.988608543e-02 -3.060499426e-02  6.002238190e-01  7.420756016e-01  6.002238190e-01  7.420756016e-01  3.988608543e-02 -3.060499426e-02
5.175000000  3.829853851e-02 -3.090421030e-02  6.194912867e-01  7.261348038e-01  6.194912867e-01  7.261348038e-01  3.829853851e-02 -3.090421030e-02
5.200000000  3.669694138e-02 -3.111962028e-02  6.383381573e-01  7.096921017e-01  6.383381573e-01  7.096921017e-01  3.669694138e-02 -3.111962028e-02
5.225000000  3.508565392e-02 -3.125056130e-02  6.567511795e-01  6.927584560e-01  6.567511795e-01  6.927584560e-01  3.508565392e-02 -3.125056130e-02
5.250000000  3.346911767e-02 -3.129660355e-02  6.747174582e-01  6.753451024e-01  6.747174582e-01  6.753451024e-01  3.346911767e-02 -3.129660355e-02
5.275000000  3.185173607e-02 -3.125760293e-02  6.922243006e-01  6.574637088e-01  6.922243006e-01  6.574637088e-01  3.185173607e-02 -3.125760293e-02
5.300000000  3.023801286e-02 -3.113355465e-02  7.092594034e-01  6.391261781e-01  7.092594034e-01  6.391261781e-01  3.023801286e-02 -3.113355465e-02
5.325000000  2.863241715e-02 -3.092476662e-02  7.258107082e-01  6.203448075e-01  7.258107082e-01  6.203448075e-01  2.863241715e-02 -3.092476662e-02
5.350000000  2.703938574e-02 -3.063173187e-02  7.418664633e-01  6.011322319e-01  7.418664633e-01  6.011322319e-01  2.703938574e-02 -3.063173187e-02
5.375000000  2.546334142e-02 -3.025516241e-02  7.574152397e-01  5.815014083e-01  7.574152397e-01  5.815014083e-01  2.546334142e-02 -3.025516241e-02
5.400000000  2.390865110e-02 -2.979603687e-02  7.724459349e-01  5.614656189e-01  7.724459349e-01  5.614656189e-01  2.390865110e-02 -2.979603687e-02
5.425000000  2.237959437e-02 -2.925550201e-02  7.869477765e-01  5.410384774e-01  7.869477765e-01  5.410384774e-01  2.237959437e-02 -2.925550201e-02
5.450000000  2.088041430e-02 -2.863497735e-02  8.009103430e-01  5.202339017e-01  8.009103430e-01  5.202339017e-01  2.088041430e-02 -2.863497735e-02
5.475000000  1.941525953e-02 -2.793609520e-02  8.143236064e-01  4.990660576e-01  8.143236064e-01  4.990660576e-01  1.941525953e-02 -2.793609520e-02
5.500000000  1.798819843e-02 -2.716069578e-02  8.271778655e-01  4.775494645e-01  8.271778655e-01  4.775494645e-01  1.798819843e-02 -2.716069578e-02
5.525000000  1.660322131e-02 -2.631087017e-02  8.394638334e-01  4.556988621e-01  8.394638334e-01  4.556988621e-01  1.660322131e-02 -2.631087017e-02
5.550000000  1.526421988e-02 -2.538891958e-02  8.511726226e-01  4.335292301e-01  8.511726226e-01  4.335292301e-01  1.526421988e-02 -2.538891958e-02
5.575000000  1.397493339e-02 -2.439730326e-02  8.622957424e-01  4.110558010e-01  8.622957424e-01  4.110558010e-01  1.397493339e-02 -2.439730326e-02
5.600000000  1.273902073e-02 -2.333878440e-02  8.728250822e-01  3.882940920e-01  8.728250822e-01  3.882940920e-01  1.273902073e-02 -2.333878440e-02
5.625000000  1.155989551e-02 -2.221612693e-02  8.827529600e-01  3.652598392e-01  8.827529600e-01  3.652598392e-01  1.155989551e-02 -2.221612693e-02
5.650000000  1.044089856e-02 -2.103246199e-02  8.920720980e-01  3.419690313e-01  8.920720980e-01  3.419690313e-01  1.044089856e-02 -2.103246199e-02
5.675000000  9.385140743e-03 -1.979091574e-02  9.007756734e-01  3.184378184e-01  9.007756734e-01  3.184378184e-01  9.385140743e-03 -1.979091574e-02
5.700000000  8.395589161e-03 -1.849485542e-02  9.088572529e-01  2.946826798e-01  9.088572529e-01  2.946826798e-01  8.395589161e-03 -1.849485542e-02
5.725000000  7.475045691e-03 -1.714782216e-02  9.163109208e-01  2.707200708e-01  9.163109208e-01  2.707200708e-01  7.475045691e-03 -1.714782216e-02
5.750000000  6.626131327e-03 -1.575345470e-02  9.231311489e-01  2.465668093e-01  9.231311489e-01  2.465668093e-01  6.626131327e-03 -1.575345470e-02
5.775000000  5.851292426e-03 -1.431558346e-02  9.293129001e-01  2.222397631e-01  9.293129001e-01  2.222397631e-01  5.851292426e-03 -1.431558346e-02
5.800000000  5.152775098e-03 -1.283820065e-02  9.348516010e-01  1.977559276e-01  9.348516010e-01  1.977559276e-01  5.152775098e-03 -1.283820065e-02
5.825000000  4.532535019e-03 -1.132532295e-02  9.397431441e-01  1.731324454e-01  9.397431441e-01  1.731324454e-01  4.532535019e-03 -1.132532295e-02
5.850000000  3.992392415e-03 -9.781192323e-03  9.439838831e-01  1.483865932e-01  9.439838831e-01  1.483865932e-01  3.992392415e-03 -9.781192323e-03
5.875000000  3.533877892e-03 -8.209987857e-03  9.475706510e-01  1.235357607e-01  9.475706510e-01  1.235357607e-01  3.533877892e-03 -8.209987857e-03
5.900000000  3.158293227e-03 -6.616044162e-03  9.505007579e-01  9.859745585e-02  9.505007579e-01  9.859745585e-02  3.158293227e-03 -6.616044162e-03
5.925000000  2.866745897e-03 -5.003719759e-03  9.527720009e-01  7.358922171e-02  9.527720009e-01  7.358922171e-02  2.866745897e-03 -5.003719759e-03
5.950000000  2.660111754e-03 -3.377401824e-03  9.543826578e-01  4.852873552e-02  9.543826578e-01  4.852873552e-02  2.660111754e-03 -3.377401824e-03
5.975000000  2.539033319e-03 -1.741572850e-03  9.553315025e-01  2.343364353e-02  9.553315025e-01  2.343364353e-02  2.539033319e-03 -1.741572850e-03
6.000000000  2.503946851e-03 -1.007400159e-04  9.556177946e-01 -1.678373671e-03  9.556177946e-01 -1.678373671e-03  2.503946851e-03 -1.007400159e-04
6.025000000  2.555113214e-03  1.540559442e-03  9.552412805e-01 -2.678954532e-02  9.552412805e-01 -2.678954532e-02  2.555113214e-03  1.540559442e-03
6.050000000  2.692410457e-03  3.177743274e-03  9.542022049e-01 -5.188225297e-02  9.542022049e-01 -5.188225297e-02  2.692410457e-03  3.177743274e-03
6.075000000  2.915560709e-03  4.806264113e-03  9.525012958e-01 -7.693879103e-02  9.525012958e-01 -7.693879103e-02  2.915560709e-03  4.806264113e-03
6.100000000  3.223936647e-03  6.421632976e-03  9.501397759e-01 -1.019415125e-01  9.501397759e-01 -1.019415125e-01  3.223936647e-03  6.421632976e-03
6.125000000  3.616758072e-03  8.019326651e-03  9.471193511e-01 -1.268727935e-01  9.471193511e-01 -1.268727935e-01  3.616758072e-03  8.019326651e-03
6.150000000  4.092958118e-03  9.595025707e-03  9.434422205e-01 -1.517150462e-01  9.434422205e-01 -1.517150462e-01  4.092958118e-03  9.595025707e-03
6.175000000  4.651230289e-03  1.114435245e-02  9.391110724e-01 -1.764507445e-01  9.391110724e-01 -1.764507445e-01  4.651230289e-03  1.114435245e-02
6.200000000  5.290158934e-03  1.266306346e-02  9.341290602e-01 -2.010625022e-01  9.341290602e-01 -2.010625022e-01  5.290158934e-03  1.266306346e-02
6.225000000  6.008047968e-03  1.414698667e-02  9.284998469e-01 -2.255329094e-01  9.284998469e-01 -2.255329094e-01  6.008047968e-03  1.414698667e-02
6.250000000  6.802974574e-03  1.559196984e-02  9.222275212e-01 -2.498448947e-01  9.222275212e-01 -2.498448947e-01  6.802974574e-03  1.559196984e-02
6.275000000  7.672973278e-03  1.699396308e-02  9.153166852e-01 -2.739812856e-01  9.153166852e-01 -2.739812856e-01  7.672973278e-03  1.699396308e-02
6.300000000  8.615508812e-03  1.834912275e-02  9.077723660e-01 -2.979252877e-01  9.077723660e-01 -2.979252877e-01  8.615508812e-03  1.834912275e-02
6.325000000  9.628206289e-03  1.965350431e-02  8.996000638e-01 -3.216601157e-01  8.996000638e-01 -3.216601157e-01  9.628206289e-03  1.965350431e-02
6.350000000  1.070814237e-02  2.090367530e-02  8.908057404e-01 -3.451692043e-01  8.908057404e-01 -3.451692043e-01  1.070814237e-02  2.090367530e-02
6.375000000  1.185233350e-02  2.209605387e-02  8.813957979e-01 -3.684361602e-01  8.813957979e-01 -3.684361602e-01  1.185233350e-02  2.209605387e-02
6.400000000  1.305770802e-02  2.322745009e-02  8.713770822e-01 -3.914447609e-01  8.713770822e-01 -3.914447609e-01  1.305770802e-02  2.322745009e-02
6.425000000  1.432087423e-02  2.429477224e-02  8.607569093e-01 -4.141789418e-01  8.607569093e-01 -4.141789418e-01  1.432087423e-02  2.429477224e-02
6.450000000  1.563848151e-02  2.529504426e-02  8.495429559e-01 -4.366229735e-01  8.495429559e-01 -4.366229735e-01  1.563848151e-02  2.529504426e-02
6.475000000  1.700700026e-02  2.622551104e-02  8.377433952e-01 -4.587612065e-01  8.377433952e-01 -4.587612065e-01  1.700700026e-02  2.622551104e-02
6.500000000  1.842267226e-02  2.708357160e-02  8.253667264e-01 -4.805784147e-01  8.253667264e-01 -4.805784147e-01  1.842267226e-02  2.708357160e-02
6.525000000  1.988184805e-02  2.786669501e-02  8.124219158e-01 -5.020594724e-01  8.124219158e-01 -5.020594724e-01  1.988184805e-02  2.786669501e-02
6.550000000  2.138037016e-02  2.857278983e-02  7.989182507e-01 -5.231896911e-01  7.989182507e-01 -5.231896911e-01  2.138037016e-02  2.857278983e-02
6.575000000  2.291417396e-02  2.919979272e-02  7.848654281e-01 -5.439545769e-01  7.848654281e-01 -5.439545769e-01  2.291417396e-02  2.919979272e-02
6.600000000  2.447904227e-02  2.974600338e-02  7.702735327e-01 -5.643399047e-01  7.702735327e-01 -5.643399047e-01  2.447904227e-02  2.974600338e-02
6.625000000  2.607057903e-02  3.020997893e-02  7.551530127e-01 -5.843317548e-01  7.551530127e-01 -5.843317548e-01  2.607057903e-02  3.020997893e-02
6.650000000  2.768444292e-02  3.059043521e-02  7.395146670e-01 -6.039165004e-01  7.395146670e-01 -6.039165004e-01  2.768444292e-02  3.059043521e-02
6.675000000  2.931622953e-02  3.088637851e-02  7.233696770e-01 -6.230807815e-01  7.233696770e-01 -6.230807815e-01  2.931622953e-02  3.088637851e-02
6.700000000  3.096146685e-02  3.109699702e-02  7.067295326e-01 -6.418115968e-01  7.067295326e-01 -6.418115968e-01  3.096146685e-02  3.109699702e-02
6.725000000  3.261578168e-02  3.122160544e-02  6.896060367e-01 -6.600962717e-01  6.896060367e-01 -6.600962717e-01  3.261578168e-02  3.122160544e-02
6.750000000  3.427468544e-02  3.125981995e-02  6.720113454e-01 -6.779224356e-01  6.720113454e-01 -6.779224356e-01  3.427468544e-02  3.125981995e-02
6.775000000  3.593363418e-02  3.121146110e-02  6.539578092e-01 -6.952781729e-01  6.539578092e-01 -6.952781729e-01  3.593363418e-02  3.121146110e-02
6.800000000  3.758819889e-02  3.107649792e-02  6.354581667e-01 -7.121518050e-01  6.354581667e-01 -7.121518050e-01  3.758819889e-02  3.107649792e-02
6.825000000  3.923368287e-02  3.085545855e-02  6.165253553e-01 -7.285321070e-01  6.165253553e-01 -7.285321070e-01  3.923368287e-02  3.085545855e-02
6.850000000  4.086562421e-02  3.054880448e-02  5.971726124e-01 -7.444081613e-01  5.971726124e-01 -7.444081613e-01  4.086562421e-02  3.054880448e-02
6.875000000  4.247949747e-02  3.015754943e-02  5.774134852e-01 -7.597693814e-01  5.774134852e-01 -7.597693814e-01  4.247949747e-02  3.015754943e-02
6.900000000  4.407077539e-02  2.968285134e-02  5.572617383e-01 -7.746055824e-01  5.572617383e-01 -7.746055824e-01  4.407077539e-02  2.968285134e-02
6.925000000  4.563526122e-02  2.912589919e-02  5.367313910e-01 -7.889069197e-01  5.367313910e-01 -7.889069197e-01  4.563526122e-02  2.912589919e-02
6.950000000  4.716859842e-02  2.848836526e-02  5.158368085e-01 -8.026638727e-01  5.158368085e-01 -8.026638727e-01  4.716859842e-02  2.848836526e-02
6.975000000  4.866669794e-02  2.777181256e-02  4.945923212e-01 -8.158674614e-01  4.945923212e-01 -8.158674614e-01  4.866669794e-02  2.777181256e-02
7.000000000  5.012554337e-02  2.697810316e-02  4.730127386e-01 -8.285089204e-01  4.730127386e-01 -8.285089204e-01  5.012554337e-02  2.697810316e-02
