! yapnr rf: line-osh-m-w0p40-l10-m-eq, footprint re-simulated (optimization grid)
! spec sha256 c935ef6d7498bb9300fb0b23c3383117289fc7b83088d3c43a507d6c65a34e45
! 2 ports renormalized to 50 ohm, e^(+jwt) convention
# GHz S RI R 50
3.000000000  1.118549519e-02  6.043446320e-03  5.009138597e-01 -8.462055709e-01  5.009138597e-01 -8.462055709e-01  1.118549519e-02  6.043446320e-03
3.025000000  1.130097793e-02  5.983075371e-03  4.935904151e-01 -8.504957640e-01  4.935904151e-01 -8.504957640e-01  1.130097793e-02  5.983075371e-03
3.050000000  1.141547569e-02  5.920829086e-03  4.862302428e-01 -8.547226963e-01  4.862302428e-01 -8.547226963e-01  1.141547569e-02  5.920829086e-03
3.075000000  1.152887591e-02  5.856783104e-03  4.788337965e-01 -8.588861015e-01  4.788337965e-01 -8.588861015e-01  1.152887591e-02  5.856783104e-03
3.100000000  1.164139339e-02  5.790591300e-03  4.714017227e-01 -8.629856042e-01  4.714017227e-01 -8.629856042e-01  1.164139339e-02  5.790591300e-03
3.125000000  1.175275720e-02  5.722618267e-03  4.639344677e-01 -8.670209539e-01  4.639344677e-01 -8.670209539e-01  1.175275720e-02  5.722618267e-03
3.150000000  1.186315183e-02  5.652484332e-03  4.564326082e-01 -8.709918260e-01  4.564326082e-01 -8.709918260e-01  1.186315183e-02  5.652484332e-03
3.175000000  1.197234986e-02  5.580565828e-03  4.488966686e-01 -8.748979364e-01  4.488966686e-01 -8.748979364e-01  1.197234986e-02  5.580565828e-03
3.200000000  1.208036905e-02  5.506771392e-03  4.413271913e-01 -8.787389932e-01  4.413271913e-01 -8.787389932e-01  1.208036905e-02  5.506771392e-03
3.225000000  1.218712491e-02  5.431250913e-03  4.337247417e-01 -8.825147005e-01  4.337247417e-01 -8.825147005e-01  1.218712491e-02  5.431250913e-03
3.250000000  1.229255634e-02  5.354114193e-03  4.260899006e-01 -8.862247619e-01  4.260899006e-01 -8.862247619e-01  1.229255634e-02  5.354114193e-03
3.275000000  1.239665119e-02  5.275358579e-03  4.184232238e-01 -8.898688994e-01  4.184232238e-01 -8.898688994e-01  1.239665119e-02  5.275358579e-03
3.300000000  1.249940699e-02  5.195004032e-03  4.107253338e-01 -8.934468105e-01  4.107253338e-01 -8.934468105e-01  1.249940699e-02  5.195004032e-03
3.325000000  1.260079499e-02  5.113066567e-03  4.029967762e-01 -8.969582369e-01  4.029967762e-01 -8.969582369e-01  1.260079499e-02  5.113066567e-03
3.350000000  1.270086765e-02  5.029414526e-03  3.952381569e-01 -9.004028979e-01  3.952381569e-01 -9.004028979e-01  1.270086765e-02  5.029414526e-03
3.375000000  1.279958129e-02  4.944098101e-03  3.874500385e-01 -9.037805409e-01  3.874500385e-01 -9.037805409e-01  1.279958129e-02  4.944098101e-03
3.400000000  1.289693974e-02  4.857046029e-03  3.796329806e-01 -9.070909196e-01  3.796329806e-01 -9.070909196e-01  1.289693974e-02  4.857046029e-03
3.425000000  1.299292303e-02  4.768259409e-03  3.717875665e-01 -9.103337837e-01  3.717875665e-01 -9.103337837e-01  1.299292303e-02  4.768259409e-03
3.450000000  1.308745143e-02  4.677865753e-03  3.639143466e-01 -9.135089027e-01  3.639143466e-01 -9.135089027e-01  1.308745143e-02  4.677865753e-03
3.475000000  1.318052108e-02  4.585826932e-03  3.560139069e-01 -9.166160362e-01  3.560139069e-01 -9.166160362e-01  1.318052108e-02  4.585826932e-03
3.500000000  1.327204702e-02  4.492324546e-03  3.480868258e-01 -9.196549530e-01  3.480868258e-01 -9.196549530e-01  1.327204702e-02  4.492324546e-03
3.525000000  1.336200387e-02  4.397385374e-03  3.401337078e-01 -9.226254167e-01  3.401337078e-01 -9.226254167e-01  1.336200387e-02  4.397385374e-03
3.550000000  1.345036605e-02  4.301053590e-03  3.321551404e-01 -9.255272031e-01  3.321551404e-01 -9.255272031e-01  1.345036605e-02  4.301053590e-03
3.575000000  1.353711115e-02  4.203368484e-03  3.241517518e-01 -9.283600790e-01  3.241517518e-01 -9.283600790e-01  1.353711115e-02  4.203368484e-03
3.600000000  1.362222706e-02  4.104308437e-03  3.161240973e-01 -9.311238423e-01  3.161240973e-01 -9.311238423e-01  1.362222706e-02  4.104308437e-03
3.625000000  1.370573827e-02  4.003789441e-03  3.080728506e-01 -9.338182557e-01  3.080728506e-01 -9.338182557e-01  1.370573827e-02  4.003789441e-03
3.650000000  1.378757093e-02  3.901943875e-03  2.999985175e-01 -9.364431449e-01  2.999985175e-01 -9.364431449e-01  1.378757093e-02  3.901943875e-03
3.675000000  1.386780486e-02  3.798494661e-03  2.919017738e-01 -9.389982832e-01  2.919017738e-01 -9.389982832e-01  1.386780486e-02  3.798494661e-03
3.700000000  1.394630233e-02  3.693801173e-03  2.837831355e-01 -9.414835034e-01  2.837831355e-01 -9.414835034e-01  1.394630233e-02  3.693801173e-03
3.725000000  1.402313735e-02  3.587563613e-03  2.756432408e-01 -9.438986022e-01  2.756432408e-01 -9.438986022e-01  1.402313735e-02  3.587563613e-03
3.750000000  1.409819260e-02  3.480137761e-03  2.674826591e-01 -9.462434058e-01  2.674826591e-01 -9.462434058e-01  1.409819260e-02  3.480137761e-03
3.775000000  1.417147509e-02  3.371448087e-03  2.593020133e-01 -9.485177284e-01  2.593020133e-01 -9.485177284e-01  1.417147509e-02  3.371448087e-03
3.800000000  1.424294358e-02  3.261618764e-03  2.511018976e-01 -9.507213994e-01  2.511018976e-01 -9.507213994e-01  1.424294358e-02  3.261618764e-03
3.825000000  1.431257735e-02  3.150701056e-03  2.428829707e-01 -9.528542370e-01  2.428829707e-01 -9.528542370e-01  1.431257735e-02  3.150701056e-03
3.850000000  1.438036178e-02  3.038712870e-03  2.346458048e-01 -9.549160881e-01  2.346458048e-01 -9.549160881e-01  1.438036178e-02  3.038712870e-03
3.875000000  1.444630125e-02  2.925614493e-03  2.263910864e-01 -9.569067772e-01  2.263910864e-01 -9.569067772e-01  1.444630125e-02  2.925614493e-03
3.900000000  1.451036425e-02  2.811478845e-03  2.181193746e-01 -9.588261669e-01  2.181193746e-01 -9.588261669e-01  1.451036425e-02  2.811478845e-03
3.925000000  1.457257288e-02  2.696164305e-03  2.098313316e-01 -9.606741002e-01  2.098313316e-01 -9.606741002e-01  1.457257288e-02  2.696164305e-03
3.950000000  1.463288343e-02  2.579799726e-03  2.015275367e-01 -9.624504461e-01  2.015275367e-01 -9.624504461e-01  1.463288343e-02  2.579799726e-03
3.975000000  1.469129449e-02  2.462326110e-03  1.932086067e-01 -9.641550696e-01  1.932086067e-01 -9.641550696e-01  1.469129449e-02  2.462326110e-03
4.000000000  1.474777468e-02  2.343831376e-03  1.848751498e-01 -9.657878434e-01  1.848751498e-01 -9.657878434e-01  1.474777468e-02  2.343831376e-03
4.025000000  1.480231387e-02  2.224295575e-03  1.765277851e-01 -9.673486427e-01  1.765277851e-01 -9.673486427e-01  1.480231387e-02  2.224295575e-03
4.050000000  1.485487061e-02  2.103880586e-03  1.681671182e-01 -9.688373512e-01  1.681671182e-01 -9.688373512e-01  1.485487061e-02  2.103880586e-03
4.075000000  1.490542456e-02  1.982645746e-03  1.597937843e-01 -9.702538519e-01  1.597937843e-01 -9.702538519e-01  1.490542456e-02  1.982645746e-03
4.100000000  1.495396133e-02  1.860620218e-03  1.514084114e-01 -9.715980347e-01  1.514084114e-01 -9.715980347e-01  1.495396133e-02  1.860620218e-03
4.125000000  1.500046699e-02  1.737830783e-03  1.430116311e-01 -9.728697943e-01  1.430116311e-01 -9.728697943e-01  1.500046699e-02  1.737830783e-03
4.150000000  1.504492813e-02  1.614298916e-03  1.346040943e-01 -9.740690285e-01  1.346040943e-01 -9.740690285e-01  1.504492813e-02  1.614298916e-03
4.175000000  1.508733478e-02  1.490025583e-03  1.261863967e-01 -9.751956482e-01  1.261863967e-01 -9.751956482e-01  1.508733478e-02  1.490025583e-03
4.200000000  1.512768217e-02  1.364956267e-03  1.177592135e-01 -9.762495591e-01  1.177592135e-01 -9.762495591e-01  1.512768217e-02  1.364956267e-03
4.225000000  1.516594466e-02  1.239221061e-03  1.093231052e-01 -9.772306869e-01  1.093231052e-01 -9.772306869e-01  1.516594466e-02  1.239221061e-03
4.250000000  1.520212420e-02  1.112712694e-03  1.008787397e-01 -9.781389493e-01  1.008787397e-01 -9.781389493e-01  1.520212420e-02  1.112712694e-03
4.275000000  1.523620414e-02  9.854973346e-04  9.242672035e-02 -9.789742772e-01  9.242672035e-02 -9.789742772e-01  1.523620414e-02  9.854973346e-04
4.300000000  1.526816857e-02  8.576522117e-04  8.396766796e-02 -9.797366047e-01  8.396766796e-02 -9.797366047e-01  1.526816857e-02  8.576522117e-04
4.325000000  1.529799507e-02  7.293238374e-04  7.550219744e-02 -9.804258718e-01  7.550219744e-02 -9.804258718e-01  1.529799507e-02  7.293238374e-04
4.350000000  1.532568185e-02  6.004966045e-04  6.703097361e-02 -9.810420202e-01  6.703097361e-02 -9.810420202e-01  1.532568185e-02  6.004966045e-04
4.375000000  1.535121410e-02  4.712566807e-04  5.855459401e-02 -9.815850025e-01  5.855459401e-02 -9.815850025e-01  1.535121410e-02  4.712566807e-04
4.400000000  1.537458311e-02  3.416255480e-04  5.007376680e-02 -9.820547703e-01  5.007376680e-02 -9.820547703e-01  1.537458311e-02  3.416255480e-04
4.425000000  1.539578276e-02  2.116491099e-04  4.158905249e-02 -9.824512897e-01  4.158905249e-02 -9.824512897e-01  1.539578276e-02  2.116491099e-04
4.450000000  1.541480482e-02  8.125018878e-05  3.310117670e-02 -9.827745247e-01  3.310117670e-02 -9.827745247e-01  1.541480482e-02  8.125018878e-05
4.475000000  1.543164142e-02 -4.944016986e-05  2.461068994e-02 -9.830244522e-01  2.461068994e-02 -9.830244522e-01  1.543164142e-02 -4.944016986e-05
4.500000000  1.544628650e-02 -1.805037703e-04  1.611826705e-02 -9.832010500e-01  1.611826705e-02 -9.832010500e-01  1.544628650e-02 -1.805037704e-04
4.525000000  1.545873347e-02 -3.119414985e-04  7.624534574e-03 -9.833043031e-01  7.624534574e-03 -9.833043031e-01  1.545873347e-02 -3.119414985e-04
4.550000000  1.546897657e-02 -4.436756272e-04 -8.698994188e-04 -9.833342016e-01 -8.698994188e-04 -9.833342016e-01  1.546897657e-02 -4.436756272e-04
4.575000000  1.547700589e-02 -5.755936477e-04 -9.364416449e-03 -9.832907402e-01 -9.364416449e-03 -9.832907402e-01  1.547700589e-02 -5.755936477e-04
4.600000000  1.548281970e-02 -7.076700505e-04 -1.785837317e-02 -9.831739190e-01 -1.785837317e-02 -9.831739190e-01  1.548281970e-02 -7.076700505e-04
4.625000000  1.548641093e-02 -8.398430181e-04 -2.635114562e-02 -9.829837430e-01 -2.635114562e-02 -9.829837430e-01  1.548641093e-02 -8.398430181e-04
4.650000000  1.548777366e-02 -9.720477858e-04 -3.484207755e-02 -9.827202235e-01 -3.484207755e-02 -9.827202235e-01  1.548777366e-02 -9.720477858e-04
4.675000000  1.548690456e-02 -1.104246990e-03 -4.333054394e-02 -9.823833762e-01 -4.333054394e-02 -9.823833762e-01  1.548690456e-02 -1.104246990e-03
4.700000000  1.548379511e-02 -1.236433155e-03 -5.181589155e-02 -9.819732236e-01 -5.181589155e-02 -9.819732236e-01  1.548379511e-02 -1.236433155e-03
4.725000000  1.547844174e-02 -1.368571381e-03 -6.029748397e-02 -9.814897931e-01 -6.029748397e-02 -9.814897931e-01  1.547844174e-02 -1.368571381e-03
4.750000000  1.547084404e-02 -1.500627703e-03 -6.877471563e-02 -9.809331154e-01 -6.877471563e-02 -9.809331154e-01  1.547084404e-02 -1.500627703e-03
4.775000000  1.546098864e-02 -1.632696755e-03 -7.724689861e-02 -9.803032324e-01 -7.724689861e-02 -9.803032324e-01  1.546098864e-02 -1.632696755e-03
4.800000000  1.544888713e-02 -1.764631064e-03 -8.571346556e-02 -9.796001824e-01 -8.571346556e-02 -9.796001824e-01  1.544888713e-02 -1.764631064e-03
4.825000000  1.543453594e-02 -1.896462940e-03 -9.417376641e-02 -9.788240154e-01 -9.417376641e-02 -9.788240154e-01  1.543453594e-02 -1.896462940e-03
4.850000000  1.541794362e-02 -2.028049432e-03 -1.026271961e-01 -9.779747826e-01 -1.026271961e-01 -9.779747826e-01  1.541794362e-02 -2.028049432e-03
4.875000000  1.539911488e-02 -2.159416536e-03 -1.110731076e-01 -9.770525450e-01 -1.110731076e-01 -9.770525450e-01  1.539911488e-02 -2.159416536e-03
4.900000000  1.537805103e-02 -2.290436312e-03 -1.195108851e-01 -9.760573659e-01 -1.195108851e-01 -9.760573659e-01  1.537805103e-02 -2.290436312e-03
4.925000000  1.535476199e-02 -2.421083948e-03 -1.279398662e-01 -9.749893200e-01 -1.279398662e-01 -9.749893200e-01  1.535476199e-02 -2.421083948e-03
4.950000000  1.532924502e-02 -2.551310232e-03 -1.363594536e-01 -9.738484799e-01 -1.363594536e-01 -9.738484799e-01  1.532924502e-02 -2.551310232e-03
4.975000000  1.530149771e-02 -2.681100454e-03 -1.447689451e-01 -9.726349383e-01 -1.447689451e-01 -9.726349383e-01  1.530149771e-02 -2.681100454e-03
5.000000000  1.527153290e-02 -2.810393994e-03 -1.531677929e-01 -9.713487718e-01 -1.531677929e-01 -9.713487718e-01  1.527153290e-02 -2.810393994e-03
5.025000000  1.523932647e-02 -2.939282799e-03 -1.615552696e-01 -9.699900902e-01 -1.615552696e-01 -9.699900902e-01  1.523932647e-02 -2.939282799e-03
5.050000000  1.520491207e-02 -3.067600104e-03 -1.699308498e-01 -9.685589762e-01 -1.699308498e-01 -9.685589762e-01  1.520491207e-02 -3.067600104e-03
5.075000000  1.516826978e-02 -3.195488075e-03 -1.782938443e-01 -9.670555454e-01 -1.782938443e-01 -9.670555454e-01  1.516826978e-02 -3.195488075e-03
5.100000000  1.512942846e-02 -3.322744257e-03 -1.866436879e-01 -9.654798963e-01 -1.866436879e-01 -9.654798963e-01  1.512942846e-02 -3.322744257e-03
5.125000000  1.508839440e-02 -3.449436225e-03 -1.949797360e-01 -9.638321475e-01 -1.949797360e-01 -9.638321475e-01  1.508839440e-02 -3.449436225e-03
5.150000000  1.504517784e-02 -3.575428430e-03 -2.033013891e-01 -9.621124139e-01 -2.033013891e-01 -9.621124139e-01  1.504517784e-02 -3.575428430e-03
5.175000000  1.499979940e-02 -3.700689130e-03 -2.116080058e-01 -9.603208240e-01 -2.116080058e-01 -9.603208240e-01  1.499979940e-02 -3.700689130e-03
5.200000000  1.495226140e-02 -3.825161873e-03 -2.198989842e-01 -9.584575039e-01 -2.198989842e-01 -9.584575039e-01  1.495226140e-02 -3.825161873e-03
5.225000000  1.490257334e-02 -3.948799927e-03 -2.281736713e-01 -9.565225964e-01 -2.281736713e-01 -9.565225964e-01  1.490257334e-02 -3.948799927e-03
5.250000000  1.485074494e-02 -4.071566457e-03 -2.364314720e-01 -9.545162366e-01 -2.364314720e-01 -9.545162366e-01  1.485074494e-02 -4.071566457e-03
5.275000000  1.479676509e-02 -4.193476444e-03 -2.446717067e-01 -9.524385865e-01 -2.446717067e-01 -9.524385865e-01  1.479676509e-02 -4.193476444e-03
5.300000000  1.474065823e-02 -4.314463349e-03 -2.528938190e-01 -9.502897826e-01 -2.528938190e-01 -9.502897826e-01  1.474065823e-02 -4.314463349e-03
5.325000000  1.468242549e-02 -4.434547501e-03 -2.610971767e-01 -9.480699861e-01 -2.610971767e-01 -9.480699861e-01  1.468242549e-02 -4.434547501e-03
5.350000000  1.462208148e-02 -4.553683361e-03 -2.692811697e-01 -9.457793581e-01 -2.692811697e-01 -9.457793581e-01  1.462208148e-02 -4.553683361e-03
5.375000000  1.455965371e-02 -4.671824508e-03 -2.774452068e-01 -9.434180594e-01 -2.774452068e-01 -9.434180594e-01  1.455965371e-02 -4.671824508e-03
5.400000000  1.449515588e-02 -4.788951213e-03 -2.855886727e-01 -9.409862639e-01 -2.855886727e-01 -9.409862639e-01  1.449515588e-02 -4.788951213e-03
5.425000000  1.442861942e-02 -4.904965069e-03 -2.937109707e-01 -9.384841453e-01 -2.937109707e-01 -9.384841453e-01  1.442861942e-02 -4.904965069e-03
5.450000000  1.436006715e-02 -5.019848020e-03 -3.018114861e-01 -9.359118886e-01 -3.018114861e-01 -9.359118886e-01  1.436006715e-02 -5.019848020e-03
5.475000000  1.428951028e-02 -5.133525189e-03 -3.098896173e-01 -9.332696811e-01 -3.098896173e-01 -9.332696811e-01  1.428951028e-02 -5.133525189e-03
5.500000000  1.421697504e-02 -5.245961484e-03 -3.179447430e-01 -9.305577225e-01 -3.179447430e-01 -9.305577225e-01  1.421697504e-02 -5.245961484e-03
5.525000000  1.414246484e-02 -5.357128560e-03 -3.259762367e-01 -9.277762211e-01 -3.259762367e-01 -9.277762211e-01  1.414246484e-02 -5.357128560e-03
5.550000000  1.406598640e-02 -5.467012602e-03 -3.339834974e-01 -9.249253832e-01 -3.339834974e-01 -9.249253832e-01  1.406598640e-02 -5.467012602e-03
5.575000000  1.398756816e-02 -5.575569396e-03 -3.419659688e-01 -9.220054037e-01 -3.419659688e-01 -9.220054037e-01  1.398756816e-02 -5.575569396e-03
5.600000000  1.390719513e-02 -5.682849366e-03 -3.499229884e-01 -9.190165232e-01 -3.499229884e-01 -9.190165232e-01  1.390719513e-02 -5.682849366e-03
5.625000000  1.382492528e-02 -5.788724620e-03 -3.578540365e-01 -9.159589335e-01 -3.578540365e-01 -9.159589335e-01  1.382492528e-02 -5.788724620e-03
5.650000000  1.374075449e-02 -5.893293244e-03 -3.657584765e-01 -9.128328772e-01 -3.657584765e-01 -9.128328772e-01  1.374075449e-02 -5.893293244e-03
5.675000000  1.365472941e-02 -5.996382081e-03 -3.736357639e-01 -9.096385653e-01 -3.736357639e-01 -9.096385653e-01  1.365472941e-02 -5.996382081e-03
5.700000000  1.356688885e-02 -6.098039780e-03 -3.814852910e-01 -9.063762399e-01 -3.814852910e-01 -9.063762399e-01  1.356688885e-02 -6.098039780e-03
5.725000000  1.347723981e-02 -6.198154563e-03 -3.893064895e-01 -9.030461327e-01 -3.893064895e-01 -9.030461327e-01  1.347723981e-02 -6.198154563e-03
5.750000000  1.338582827e-02 -6.296700228e-03 -3.970987573e-01 -8.996484947e-01 -3.970987573e-01 -8.996484947e-01  1.338582827e-02 -6.296700228e-03
5.775000000  1.329267147e-02 -6.393628594e-03 -4.048614991e-01 -8.961835810e-01 -4.048614991e-01 -8.961835810e-01  1.329267147e-02 -6.393628594e-03
5.800000000  1.319777451e-02 -6.488915570e-03 -4.125941124e-01 -8.926516563e-01 -4.125941124e-01 -8.926516563e-01  1.319777451e-02 -6.488915570e-03
5.825000000  1.310116605e-02 -6.582528123e-03 -4.202960576e-01 -8.890529622e-01 -4.202960576e-01 -8.890529622e-01  1.310116605e-02 -6.582528123e-03
5.850000000  1.300284361e-02 -6.674480998e-03 -4.279667059e-01 -8.853877884e-01 -4.279667059e-01 -8.853877884e-01  1.300284361e-02 -6.674480998e-03
5.875000000  1.290285241e-02 -6.764712441e-03 -4.356055223e-01 -8.816563855e-01 -4.356055223e-01 -8.816563855e-01  1.290285241e-02 -6.764712441e-03
5.900000000  1.280120832e-02 -6.853252312e-03 -4.432119220e-01 -8.778590346e-01 -4.432119220e-01 -8.778590346e-01  1.280120832e-02 -6.853252312e-03
5.925000000  1.269795060e-02 -6.940033623e-03 -4.507853508e-01 -8.739960072e-01 -4.507853508e-01 -8.739960072e-01  1.269795060e-02 -6.940033623e-03
5.950000000  1.259312884e-02 -7.025040313e-03 -4.583252503e-01 -8.700675827e-01 -4.583252503e-01 -8.700675827e-01  1.259312884e-02 -7.025040313e-03
5.975000000  1.248677221e-02 -7.108230859e-03 -4.658310572e-01 -8.660740498e-01 -4.658310572e-01 -8.660740498e-01  1.248677221e-02 -7.108230859e-03
6.000000000  1.237891950e-02 -7.189546435e-03 -4.733022128e-01 -8.620157006e-01 -4.733022128e-01 -8.620157006e-01  1.237891950e-02 -7.189546435e-03
6.025000000  1.226962710e-02 -7.268961624e-03 -4.807381394e-01 -8.578928441e-01 -4.807381394e-01 -8.578928441e-01  1.226962710e-02 -7.268961624e-03
6.050000000  1.215889433e-02 -7.346431083e-03 -4.881382778e-01 -8.537057873e-01 -4.881382778e-01 -8.537057873e-01  1.215889433e-02 -7.346431083e-03
6.075000000  1.204675572e-02 -7.421927239e-03 -4.955020622e-01 -8.494548470e-01 -4.955020622e-01 -8.494548470e-01  1.204675572e-02 -7.421927239e-03
6.100000000  1.193322226e-02 -7.495440301e-03 -5.028289466e-01 -8.451403355e-01 -5.028289466e-01 -8.451403355e-01  1.193322226e-02 -7.495440301e-03
6.125000000  1.181831424e-02 -7.566952463e-03 -5.101183508e-01 -8.407625921e-01 -5.101183508e-01 -8.407625921e-01  1.181831424e-02 -7.566952463e-03
6.150000000  1.170207316e-02 -7.636444892e-03 -5.173697730e-01 -8.363219151e-01 -5.173697730e-01 -8.363219151e-01  1.170207316e-02 -7.636444892e-03
6.175000000  1.158450810e-02 -7.703938364e-03 -5.245826348e-01 -8.318186559e-01 -5.245826348e-01 -8.318186559e-01  1.158450810e-02 -7.703938364e-03
6.200000000  1.146568583e-02 -7.769355719e-03 -5.317564452e-01 -8.272531165e-01 -5.317564452e-01 -8.272531165e-01  1.146568583e-02 -7.769355719e-03
6.225000000  1.134564165e-02 -7.832747193e-03 -5.388906503e-01 -8.226256445e-01 -5.388906503e-01 -8.226256445e-01  1.134564165e-02 -7.832747193e-03
6.250000000  1.122441182e-02 -7.893999890e-03 -5.459847358e-01 -8.179365682e-01 -5.459847358e-01 -8.179365682e-01  1.122441182e-02 -7.893999890e-03
6.275000000  1.110207709e-02 -7.953140621e-03 -5.530381622e-01 -8.131862372e-01 -5.530381622e-01 -8.131862372e-01  1.110207709e-02 -7.953140621e-03
6.300000000  1.097862234e-02 -8.010092833e-03 -5.600504090e-01 -8.083749967e-01 -5.600504090e-01 -8.083749967e-01  1.097862234e-02 -8.010092833e-03
6.325000000  1.085413006e-02 -8.064830461e-03 -5.670209077e-01 -8.035032294e-01 -5.670209077e-01 -8.035032294e-01  1.085413006e-02 -8.064830461e-03
6.350000000  1.072858983e-02 -8.117337334e-03 -5.739491770e-01 -7.985712663e-01 -5.739491770e-01 -7.985712663e-01  1.072858983e-02 -8.117337334e-03
6.375000000  1.060202723e-02 -8.167584575e-03 -5.808346203e-01 -7.935795261e-01 -5.808346203e-01 -7.935795261e-01  1.060202723e-02 -8.167584575e-03
6.400000000  1.047449058e-02 -8.215558179e-03 -5.876767894e-01 -7.885283277e-01 -5.876767894e-01 -7.885283277e-01  1.047449058e-02 -8.215558179e-03
6.425000000  1.034597996e-02 -8.261280511e-03 -5.944751095e-01 -7.834180902e-01 -5.944751095e-01 -7.834180902e-01  1.034597996e-02 -8.261280511e-03
6.450000000  1.021656716e-02 -8.304696418e-03 -6.012291227e-01 -7.782491511e-01 -6.012291227e-01 -7.782491511e-01  1.021656716e-02 -8.304696418e-03
6.475000000  1.008629045e-02 -8.345851522e-03 -6.079383074e-01 -7.730219036e-01 -6.079383074e-01 -7.730219036e-01  1.008629045e-02 -8.345851522e-03
6.500000000  9.955197054e-03 -8.384678294e-03 -6.146021756e-01 -7.677367217e-01 -6.146021756e-01 -7.677367217e-01  9.955197054e-03 -8.384678294e-03
6.525000000  9.823376520e-03 -8.421222401e-03 -6.212202309e-01 -7.623939921e-01 -6.212202309e-01 -7.623939921e-01  9.823376520e-03 -8.421222401e-03
6.550000000  9.690836623e-03 -8.455400398e-03 -6.277919775e-01 -7.569941102e-01 -6.277919775e-01 -7.569941102e-01  9.690836623e-03 -8.455400398e-03
6.575000000  9.557644876e-03 -8.487199541e-03 -6.343169072e-01 -7.515374880e-01 -6.343169072e-01 -7.515374880e-01  9.557644876e-03 -8.487199541e-03
6.600000000  9.423826907e-03 -8.516604752e-03 -6.407945340e-01 -7.460245279e-01 -6.407945340e-01 -7.460245279e-01  9.423826907e-03 -8.516604752e-03
6.625000000  9.289399373e-03 -8.543583871e-03 -6.472243436e-01 -7.404556648e-01 -6.472243436e-01 -7.404556648e-01  9.289399373e-03 -8.543583871e-03
6.650000000  9.154400562e-03 -8.568126705e-03 -6.536058567e-01 -7.348313109e-01 -6.536058567e-01 -7.348313109e-01  9.154400562e-03 -8.568126705e-03
6.675000000  9.018845116e-03 -8.590234532e-03 -6.599385908e-01 -7.291518893e-01 -6.599385908e-01 -7.291518893e-01  9.018845116e-03 -8.590234532e-03
6.700000000  8.882767360e-03 -8.609894645e-03 -6.662220615e-01 -7.234178319e-01 -6.662220615e-01 -7.234178319e-01  8.882767360e-03 -8.609894645e-03
6.725000000  8.746224124e-03 -8.627119268e-03 -6.724558289e-01 -7.176295360e-01 -6.724558289e-01 -7.176295360e-01  8.746224124e-03 -8.627119268e-03
6.750000000  8.609250598e-03 -8.641916311e-03 -6.786394127e-01 -7.117874429e-01 -6.786394127e-01 -7.117874429e-01  8.609250598e-03 -8.641916311e-03
6.775000000  8.471916458e-03 -8.654256216e-03 -6.847723788e-01 -7.058919561e-01 -6.847723788e-01 -7.058919561e-01  8.471916458e-03 -8.654256216e-03
6.800000000  8.334287115e-03 -8.664177440e-03 -6.908542663e-01 -6.999435105e-01 -6.908542663e-01 -6.999435105e-01  8.334287115e-03 -8.664177440e-03
6.825000000  8.196383138e-03 -8.671603423e-03 -6.968846171e-01 -6.939425461e-01 -6.968846171e-01 -6.939425461e-01  8.196383138e-03 -8.671603423e-03
6.850000000  8.058297913e-03 -8.676567385e-03 -7.028629751e-01 -6.878895064e-01 -7.028629751e-01 -6.878895064e-01  8.058297913e-03 -8.676567385e-03
6.875000000  7.920009209e-03 -8.679006715e-03 -7.087888847e-01 -6.817848444e-01 -7.087888847e-01 -6.817848444e-01  7.920009209e-03 -8.679006715e-03
6.900000000  7.781584386e-03 -8.678907606e-03 -7.146618588e-01 -6.756290523e-01 -7.146618588e-01 -6.756290523e-01  7.781584386e-03 -8.678907606e-03
6.925000000  7.643037109e-03 -8.676271659e-03 -7.204814953e-01 -6.694225428e-01 -7.204814953e-01 -6.694225428e-01  7.643037109e-03 -8.676271659e-03
6.950000000  7.504376422e-03 -8.671062135e-03 -7.262472735e-01 -6.631658641e-01 -7.262472735e-01 -6.631658641e-01  7.504376422e-03 -8.671062135e-03
6.975000000  7.365685530e-03 -8.663305729e-03 -7.319588405e-01 -6.568593899e-01 -7.319588405e-01 -6.568593899e-01  7.365685530e-03 -8.663305729e-03
7.000000000  7.226979427e-03 -8.653007195e-03 -7.376157124e-01 -6.505036471e-01 -7.376157124e-01 -6.505036471e-01  7.226979427e-03 -8.653007195e-03
