! yapnr Order 0 O0-M: A16 port 1, 6 mm C-pad
! stackup OSHPARK-4L-FR408HR, nominal parameters; geometry of the OSHPARK-4L-FR408HR design
! model: 2D quasi-static RLGC (Djordjevic-Sarkar, Huray roughness, Wheeler loss); generated by python -m yapnr.rf.coupons expected --stackup OSHPARK-4L-FR408HR --upload M
! open-ended wide line + KJK open end; the line-to-pad step not modelled; 50 ohm
# GHz S DB R 50
0.006 -0.0017832 -1.39
0.012 -0.0035651 -2.76
0.018 -0.0053441 -4.13
0.024 -0.0071187 -5.50
0.03 -0.0088874 -6.86
0.036 -0.010649 -8.22
0.042 -0.012402 -9.58
0.048 -0.014144 -10.93
0.054 -0.015875 -12.28
0.06 -0.017594 -13.62
0.066 -0.019298 -14.96
0.072 -0.020987 -16.30
0.078 -0.02266 -17.63
0.084 -0.024315 -18.96
0.09 -0.025951 -20.28
0.096 -0.027567 -21.59
0.102 -0.029162 -22.90
0.108 -0.030736 -24.20
0.114 -0.032286 -25.49
0.12 -0.033813 -26.78
0.126 -0.035316 -28.06
0.132 -0.036793 -29.34
0.138 -0.038244 -30.60
0.144 -0.039669 -31.86
0.15 -0.041066 -33.11
0.156 -0.042436 -34.35
0.162 -0.043778 -35.59
0.168 -0.045091 -36.81
0.174 -0.046375 -38.03
0.18 -0.04763 -39.23
0.186 -0.048855 -40.43
0.192 -0.05005 -41.62
0.198 -0.051216 -42.80
0.204 -0.052351 -43.97
0.21 -0.053457 -45.13
0.216 -0.054532 -46.28
0.222 -0.055577 -47.42
0.228 -0.056592 -48.56
0.234 -0.057577 -49.68
0.24 -0.058532 -50.79
0.246 -0.059458 -51.89
0.252 -0.060354 -52.98
0.258 -0.06122 -54.06
0.264 -0.062058 -55.13
0.27 -0.062867 -56.19
0.276 -0.063648 -57.24
0.282 -0.064401 -58.28
0.288 -0.065126 -59.31
0.294 -0.065823 -60.33
0.3 -0.066494 -61.34
0.306 -0.067138 -62.34
0.312 -0.067757 -63.32
0.318 -0.068349 -64.30
0.324 -0.068917 -65.27
0.33 -0.069459 -66.23
0.336 -0.069978 -67.17
0.342 -0.070473 -68.11
0.348 -0.070944 -69.04
0.354 -0.071393 -69.95
0.36 -0.07182 -70.86
0.366 -0.072225 -71.76
0.372 -0.072608 -72.64
0.378 -0.072971 -73.52
0.384 -0.073314 -74.39
0.39 -0.073637 -75.25
0.396 -0.07394 -76.09
0.402 -0.074225 -76.93
0.408 -0.074491 -77.76
0.414 -0.07474 -78.58
0.42 -0.074972 -79.39
0.426 -0.075186 -80.19
0.432 -0.075385 -80.98
0.438 -0.075567 -81.77
0.444 -0.075734 -82.54
0.45 -0.075886 -83.30
0.456 -0.076024 -84.06
0.462 -0.076148 -84.81
0.468 -0.076257 -85.55
0.474 -0.076354 -86.28
0.48 -0.076438 -87.00
0.486 -0.07651 -87.71
0.492 -0.076569 -88.42
0.498 -0.076617 -89.11
0.504 -0.076654 -89.80
0.51 -0.07668 -90.48
0.516 -0.076695 -91.16
0.522 -0.076701 -91.82
0.528 -0.076696 -92.48
0.534 -0.076683 -93.13
0.54 -0.07666 -93.77
0.546 -0.076628 -94.41
0.552 -0.076588 -95.03
0.558 -0.07654 -95.66
0.564 -0.076484 -96.27
0.57 -0.07642 -96.88
0.576 -0.07635 -97.47
0.582 -0.076272 -98.07
0.588 -0.076187 -98.65
0.594 -0.076097 -99.23
0.6 -0.076 -99.80
0.606 -0.075897 -100.37
0.612 -0.075788 -100.93
0.618 -0.075674 -101.48
0.624 -0.075554 -102.03
0.63 -0.07543 -102.57
0.636 -0.075301 -103.11
0.642 -0.075167 -103.63
0.648 -0.075029 -104.16
0.654 -0.074886 -104.67
0.66 -0.07474 -105.19
0.666 -0.074589 -105.69
0.672 -0.074435 -106.19
0.678 -0.074278 -106.68
0.684 -0.074117 -107.17
0.69 -0.073953 -107.66
0.696 -0.073786 -108.14
0.702 -0.073617 -108.61
0.708 -0.073444 -109.08
0.714 -0.073269 -109.54
0.72 -0.073091 -110.00
0.726 -0.072911 -110.45
0.732 -0.072729 -110.90
0.738 -0.072545 -111.34
0.744 -0.072359 -111.78
0.75 -0.072171 -112.21
0.756 -0.071981 -112.64
0.762 -0.07179 -113.06
0.768 -0.071597 -113.48
0.774 -0.071403 -113.90
0.78 -0.071208 -114.31
0.786 -0.071011 -114.72
0.792 -0.070813 -115.12
0.798 -0.070614 -115.52
0.804 -0.070414 -115.91
0.81 -0.070213 -116.30
0.816 -0.070011 -116.69
0.822 -0.069809 -117.07
0.828 -0.069606 -117.45
0.834 -0.069402 -117.82
0.84 -0.069198 -118.19
0.846 -0.068993 -118.56
0.852 -0.068788 -118.92
0.858 -0.068582 -119.28
0.864 -0.068376 -119.64
0.87 -0.06817 -119.99
0.876 -0.067964 -120.34
0.882 -0.067758 -120.68
0.888 -0.067551 -121.02
0.894 -0.067344 -121.36
0.9 -0.067138 -121.70
0.906 -0.066931 -122.03
0.912 -0.066725 -122.36
0.918 -0.066518 -122.68
0.924 -0.066312 -123.00
0.93 -0.066106 -123.32
0.936 -0.0659 -123.64
0.942 -0.065695 -123.95
0.948 -0.065489 -124.26
0.954 -0.065284 -124.57
0.96 -0.06508 -124.87
0.966 -0.064875 -125.17
0.972 -0.064672 -125.47
0.978 -0.064468 -125.77
0.984 -0.064265 -126.06
0.99 -0.064063 -126.35
0.996 -0.063861 -126.64
1.002 -0.063659 -126.92
1.008 -0.063458 -127.20
1.014 -0.063258 -127.48
1.02 -0.063058 -127.76
1.026 -0.062859 -128.03
1.032 -0.06266 -128.31
1.038 -0.062463 -128.58
1.044 -0.062265 -128.84
1.05 -0.062069 -129.11
1.056 -0.061873 -129.37
1.062 -0.061677 -129.63
1.068 -0.061483 -129.89
1.074 -0.061289 -130.14
1.08 -0.061096 -130.40
1.086 -0.060903 -130.65
1.092 -0.060712 -130.90
1.098 -0.060521 -131.14
1.104 -0.060331 -131.39
1.11 -0.060141 -131.63
1.116 -0.059953 -131.87
1.122 -0.059765 -132.11
1.128 -0.059578 -132.34
1.134 -0.059392 -132.58
1.14 -0.059206 -132.81
1.146 -0.059022 -133.04
1.152 -0.058838 -133.27
1.158 -0.058655 -133.49
1.164 -0.058473 -133.72
1.17 -0.058292 -133.94
1.176 -0.058111 -134.16
1.182 -0.057931 -134.38
1.188 -0.057753 -134.60
1.194 -0.057575 -134.81
1.2 -0.057397 -135.03
1.206 -0.057221 -135.24
1.212 -0.057046 -135.45
1.218 -0.056871 -135.66
1.224 -0.056697 -135.86
1.23 -0.056525 -136.07
1.236 -0.056353 -136.27
1.242 -0.056181 -136.47
1.248 -0.056011 -136.67
1.254 -0.055842 -136.87
1.26 -0.055673 -137.07
1.266 -0.055505 -137.27
1.272 -0.055338 -137.46
1.278 -0.055172 -137.65
1.284 -0.055007 -137.84
1.29 -0.054843 -138.03
1.296 -0.054679 -138.22
1.302 -0.054516 -138.41
1.308 -0.054355 -138.59
1.314 -0.054194 -138.78
1.32 -0.054034 -138.96
1.326 -0.053874 -139.14
1.332 -0.053716 -139.32
1.338 -0.053558 -139.50
1.344 -0.053401 -139.67
1.35 -0.053245 -139.85
1.356 -0.05309 -140.02
1.362 -0.052936 -140.20
1.368 -0.052783 -140.37
1.374 -0.05263 -140.54
1.38 -0.052478 -140.71
1.386 -0.052327 -140.88
1.392 -0.052177 -141.04
1.398 -0.052028 -141.21
1.404 -0.051879 -141.37
1.41 -0.051731 -141.54
1.416 -0.051584 -141.70
1.422 -0.051438 -141.86
1.428 -0.051293 -142.02
1.434 -0.051148 -142.18
1.44 -0.051004 -142.34
1.446 -0.050861 -142.49
1.452 -0.050719 -142.65
1.458 -0.050578 -142.80
1.464 -0.050437 -142.96
1.47 -0.050297 -143.11
1.476 -0.050158 -143.26
1.482 -0.05002 -143.41
1.488 -0.049882 -143.56
1.494 -0.049745 -143.71
1.5 -0.049609 -143.85
1.506 -0.049474 -144.00
1.512 -0.049339 -144.14
1.518 -0.049205 -144.29
1.524 -0.049072 -144.43
1.53 -0.04894 -144.57
1.536 -0.048808 -144.71
1.542 -0.048677 -144.85
1.548 -0.048547 -144.99
1.554 -0.048418 -145.13
1.56 -0.048289 -145.27
1.566 -0.048161 -145.41
1.572 -0.048033 -145.54
1.578 -0.047907 -145.68
1.584 -0.047781 -145.81
1.59 -0.047656 -145.94
1.596 -0.047531 -146.08
1.602 -0.047407 -146.21
1.608 -0.047284 -146.34
1.614 -0.047162 -146.47
1.62 -0.04704 -146.60
1.626 -0.046919 -146.72
1.632 -0.046798 -146.85
1.638 -0.046678 -146.98
1.644 -0.046559 -147.10
1.65 -0.046441 -147.23
1.656 -0.046323 -147.35
1.662 -0.046206 -147.48
1.668 -0.046089 -147.60
1.674 -0.045973 -147.72
1.68 -0.045858 -147.84
1.686 -0.045743 -147.96
1.692 -0.045629 -148.08
1.698 -0.045516 -148.20
1.704 -0.045403 -148.32
1.71 -0.045291 -148.44
1.716 -0.04518 -148.55
1.722 -0.045069 -148.67
1.728 -0.044959 -148.78
1.734 -0.044849 -148.90
1.74 -0.04474 -149.01
1.746 -0.044631 -149.13
1.752 -0.044524 -149.24
1.758 -0.044416 -149.35
1.764 -0.04431 -149.46
1.77 -0.044203 -149.57
1.776 -0.044098 -149.68
1.782 -0.043993 -149.79
1.788 -0.043889 -149.90
1.794 -0.043785 -150.01
1.8 -0.043682 -150.12
1.806 -0.043579 -150.22
1.812 -0.043477 -150.33
1.818 -0.043375 -150.43
1.824 -0.043274 -150.54
1.83 -0.043174 -150.64
1.836 -0.043074 -150.75
1.842 -0.042975 -150.85
1.848 -0.042876 -150.95
1.854 -0.042777 -151.06
1.86 -0.04268 -151.16
1.866 -0.042582 -151.26
1.872 -0.042486 -151.36
1.878 -0.04239 -151.46
1.884 -0.042294 -151.56
1.89 -0.042199 -151.66
1.896 -0.042104 -151.75
1.902 -0.04201 -151.85
1.908 -0.041916 -151.95
1.914 -0.041823 -152.05
1.92 -0.041731 -152.14
1.926 -0.041639 -152.24
1.932 -0.041547 -152.33
1.938 -0.041456 -152.43
1.944 -0.041365 -152.52
1.95 -0.041275 -152.62
1.956 -0.041185 -152.71
1.962 -0.041096 -152.80
1.968 -0.041007 -152.89
1.974 -0.040919 -152.98
1.98 -0.040831 -153.08
1.986 -0.040744 -153.17
1.992 -0.040657 -153.26
1.998 -0.040571 -153.35
2.004 -0.040485 -153.44
2.01 -0.040399 -153.52
2.016 -0.040314 -153.61
2.022 -0.04023 -153.70
2.028 -0.040146 -153.79
2.034 -0.040062 -153.88
2.04 -0.039979 -153.96
2.046 -0.039896 -154.05
2.052 -0.039814 -154.13
2.058 -0.039732 -154.22
2.064 -0.03965 -154.30
2.07 -0.039569 -154.39
2.076 -0.039489 -154.47
2.082 -0.039408 -154.56
2.088 -0.039329 -154.64
2.094 -0.039249 -154.72
2.1 -0.03917 -154.80
2.106 -0.039092 -154.89
2.112 -0.039014 -154.97
2.118 -0.038936 -155.05
2.124 -0.038859 -155.13
2.13 -0.038782 -155.21
2.136 -0.038705 -155.29
2.142 -0.038629 -155.37
2.148 -0.038553 -155.45
2.154 -0.038478 -155.53
2.16 -0.038403 -155.61
2.166 -0.038328 -155.68
2.172 -0.038254 -155.76
2.178 -0.038181 -155.84
2.184 -0.038107 -155.92
2.19 -0.038034 -155.99
2.196 -0.037961 -156.07
2.202 -0.037889 -156.15
2.208 -0.037817 -156.22
2.214 -0.037746 -156.30
2.22 -0.037675 -156.37
2.226 -0.037604 -156.45
2.232 -0.037533 -156.52
2.238 -0.037463 -156.59
2.244 -0.037394 -156.67
2.25 -0.037324 -156.74
2.256 -0.037255 -156.81
2.262 -0.037187 -156.89
2.268 -0.037118 -156.96
2.274 -0.03705 -157.03
2.28 -0.036983 -157.10
2.286 -0.036916 -157.17
2.292 -0.036849 -157.24
2.298 -0.036782 -157.32
2.304 -0.036716 -157.39
2.31 -0.03665 -157.46
2.316 -0.036584 -157.52
2.322 -0.036519 -157.59
2.328 -0.036454 -157.66
2.334 -0.03639 -157.73
2.34 -0.036325 -157.80
2.346 -0.036262 -157.87
2.352 -0.036198 -157.94
2.358 -0.036135 -158.00
2.364 -0.036072 -158.07
2.37 -0.036009 -158.14
2.376 -0.035947 -158.21
2.382 -0.035885 -158.27
2.388 -0.035823 -158.34
2.394 -0.035762 -158.40
2.4 -0.035701 -158.47
2.406 -0.03564 -158.53
2.412 -0.035579 -158.60
2.418 -0.035519 -158.66
2.424 -0.035459 -158.73
2.43 -0.0354 -158.79
2.436 -0.035341 -158.86
2.442 -0.035282 -158.92
2.448 -0.035223 -158.98
2.454 -0.035165 -159.05
2.46 -0.035106 -159.11
2.466 -0.035049 -159.17
2.472 -0.034991 -159.24
2.478 -0.034934 -159.30
2.484 -0.034877 -159.36
2.49 -0.03482 -159.42
2.496 -0.034764 -159.48
2.502 -0.034708 -159.54
2.508 -0.034652 -159.60
2.514 -0.034597 -159.67
2.52 -0.034541 -159.73
2.526 -0.034486 -159.79
2.532 -0.034432 -159.85
2.538 -0.034377 -159.91
2.544 -0.034323 -159.97
2.55 -0.034269 -160.02
2.556 -0.034215 -160.08
2.562 -0.034162 -160.14
2.568 -0.034109 -160.20
2.574 -0.034056 -160.26
2.58 -0.034003 -160.32
2.586 -0.033951 -160.37
2.592 -0.033899 -160.43
2.598 -0.033847 -160.49
2.604 -0.033796 -160.55
2.61 -0.033744 -160.60
2.616 -0.033693 -160.66
2.622 -0.033642 -160.72
2.628 -0.033592 -160.77
2.634 -0.033542 -160.83
2.64 -0.033492 -160.89
2.646 -0.033442 -160.94
2.652 -0.033392 -161.00
2.658 -0.033343 -161.05
2.664 -0.033294 -161.11
2.67 -0.033245 -161.16
2.676 -0.033196 -161.22
2.682 -0.033148 -161.27
2.688 -0.0331 -161.33
2.694 -0.033052 -161.38
2.7 -0.033004 -161.43
2.706 -0.032957 -161.49
2.712 -0.03291 -161.54
2.718 -0.032863 -161.59
2.724 -0.032816 -161.65
2.73 -0.032769 -161.70
2.736 -0.032723 -161.75
2.742 -0.032677 -161.81
2.748 -0.032631 -161.86
2.754 -0.032585 -161.91
2.76 -0.03254 -161.96
2.766 -0.032495 -162.01
2.772 -0.03245 -162.07
2.778 -0.032405 -162.12
2.784 -0.032361 -162.17
2.79 -0.032316 -162.22
2.796 -0.032272 -162.27
2.802 -0.032228 -162.32
2.808 -0.032185 -162.37
2.814 -0.032141 -162.42
2.82 -0.032098 -162.47
2.826 -0.032055 -162.52
2.832 -0.032012 -162.57
2.838 -0.03197 -162.62
2.844 -0.031927 -162.67
2.85 -0.031885 -162.72
2.856 -0.031843 -162.77
2.862 -0.031801 -162.82
2.868 -0.03176 -162.87
2.874 -0.031718 -162.92
2.88 -0.031677 -162.96
2.886 -0.031636 -163.01
2.892 -0.031595 -163.06
2.898 -0.031555 -163.11
2.904 -0.031514 -163.16
2.91 -0.031474 -163.20
2.916 -0.031434 -163.25
2.922 -0.031394 -163.30
2.928 -0.031355 -163.35
2.934 -0.031315 -163.39
2.94 -0.031276 -163.44
2.946 -0.031237 -163.49
2.952 -0.031198 -163.53
2.958 -0.03116 -163.58
2.964 -0.031121 -163.63
2.97 -0.031083 -163.67
2.976 -0.031045 -163.72
2.982 -0.031007 -163.76
2.988 -0.030969 -163.81
2.994 -0.030931 -163.85
3 -0.030894 -163.90
3.006 -0.030857 -163.95
3.012 -0.03082 -163.99
3.018 -0.030783 -164.04
3.024 -0.030746 -164.08
3.03 -0.03071 -164.13
3.036 -0.030674 -164.17
3.042 -0.030638 -164.21
3.048 -0.030602 -164.26
3.054 -0.030566 -164.30
3.06 -0.03053 -164.35
3.066 -0.030495 -164.39
3.072 -0.03046 -164.43
3.078 -0.030425 -164.48
3.084 -0.03039 -164.52
3.09 -0.030355 -164.56
3.096 -0.03032 -164.61
3.102 -0.030286 -164.65
3.108 -0.030252 -164.69
3.114 -0.030218 -164.74
3.12 -0.030184 -164.78
3.126 -0.03015 -164.82
3.132 -0.030116 -164.86
3.138 -0.030083 -164.91
3.144 -0.03005 -164.95
3.15 -0.030017 -164.99
3.156 -0.029984 -165.03
3.162 -0.029951 -165.07
3.168 -0.029918 -165.12
3.174 -0.029886 -165.16
3.18 -0.029854 -165.20
3.186 -0.029822 -165.24
3.192 -0.02979 -165.28
3.198 -0.029758 -165.32
3.204 -0.029726 -165.36
3.21 -0.029695 -165.40
3.216 -0.029663 -165.44
3.222 -0.029632 -165.49
3.228 -0.029601 -165.53
3.234 -0.02957 -165.57
3.24 -0.02954 -165.61
3.246 -0.029509 -165.65
3.252 -0.029479 -165.69
3.258 -0.029448 -165.73
3.264 -0.029418 -165.77
3.27 -0.029388 -165.81
3.276 -0.029358 -165.85
3.282 -0.029329 -165.88
3.288 -0.029299 -165.92
3.294 -0.02927 -165.96
3.3 -0.029241 -166.00
3.306 -0.029211 -166.04
3.312 -0.029183 -166.08
3.318 -0.029154 -166.12
3.324 -0.029125 -166.16
3.33 -0.029097 -166.20
3.336 -0.029068 -166.23
3.342 -0.02904 -166.27
3.348 -0.029012 -166.31
3.354 -0.028984 -166.35
3.36 -0.028956 -166.39
3.366 -0.028928 -166.43
3.372 -0.028901 -166.46
3.378 -0.028873 -166.50
3.384 -0.028846 -166.54
3.39 -0.028819 -166.58
3.396 -0.028792 -166.61
3.402 -0.028765 -166.65
3.408 -0.028739 -166.69
3.414 -0.028712 -166.73
3.42 -0.028686 -166.76
3.426 -0.028659 -166.80
3.432 -0.028633 -166.84
3.438 -0.028607 -166.87
3.444 -0.028581 -166.91
3.45 -0.028555 -166.95
3.456 -0.02853 -166.98
3.462 -0.028504 -167.02
3.468 -0.028479 -167.06
3.474 -0.028454 -167.09
3.48 -0.028428 -167.13
3.486 -0.028403 -167.16
3.492 -0.028379 -167.20
3.498 -0.028354 -167.24
3.504 -0.028329 -167.27
3.51 -0.028305 -167.31
3.516 -0.02828 -167.34
3.522 -0.028256 -167.38
3.528 -0.028232 -167.41
3.534 -0.028208 -167.45
3.54 -0.028184 -167.48
3.546 -0.02816 -167.52
3.552 -0.028137 -167.55
3.558 -0.028113 -167.59
3.564 -0.02809 -167.62
3.57 -0.028067 -167.66
3.576 -0.028044 -167.69
3.582 -0.028021 -167.73
3.588 -0.027998 -167.76
3.594 -0.027975 -167.80
3.6 -0.027952 -167.83
3.606 -0.02793 -167.87
3.612 -0.027907 -167.90
3.618 -0.027885 -167.93
3.624 -0.027863 -167.97
3.63 -0.027841 -168.00
3.636 -0.027819 -168.04
3.642 -0.027797 -168.07
3.648 -0.027776 -168.10
3.654 -0.027754 -168.14
3.66 -0.027733 -168.17
3.666 -0.027711 -168.20
3.672 -0.02769 -168.24
3.678 -0.027669 -168.27
3.684 -0.027648 -168.30
3.69 -0.027627 -168.34
3.696 -0.027606 -168.37
3.702 -0.027586 -168.40
3.708 -0.027565 -168.44
3.714 -0.027545 -168.47
3.72 -0.027524 -168.50
3.726 -0.027504 -168.53
3.732 -0.027484 -168.57
3.738 -0.027464 -168.60
3.744 -0.027444 -168.63
3.75 -0.027424 -168.66
3.756 -0.027405 -168.70
3.762 -0.027385 -168.73
3.768 -0.027366 -168.76
3.774 -0.027346 -168.79
3.78 -0.027327 -168.82
3.786 -0.027308 -168.86
3.792 -0.027289 -168.89
3.798 -0.02727 -168.92
3.804 -0.027251 -168.95
3.81 -0.027233 -168.98
3.816 -0.027214 -169.02
3.822 -0.027196 -169.05
3.828 -0.027177 -169.08
3.834 -0.027159 -169.11
3.84 -0.027141 -169.14
3.846 -0.027123 -169.17
3.852 -0.027105 -169.20
3.858 -0.027087 -169.23
3.864 -0.027069 -169.27
3.87 -0.027052 -169.30
3.876 -0.027034 -169.33
3.882 -0.027017 -169.36
3.888 -0.026999 -169.39
3.894 -0.026982 -169.42
3.9 -0.026965 -169.45
3.906 -0.026948 -169.48
3.912 -0.026931 -169.51
3.918 -0.026914 -169.54
3.924 -0.026898 -169.57
3.93 -0.026881 -169.60
3.936 -0.026865 -169.63
3.942 -0.026848 -169.66
3.948 -0.026832 -169.69
3.954 -0.026816 -169.72
3.96 -0.0268 -169.75
3.966 -0.026783 -169.78
3.972 -0.026768 -169.81
3.978 -0.026752 -169.84
3.984 -0.026736 -169.87
3.99 -0.02672 -169.90
3.996 -0.026705 -169.93
4.002 -0.026689 -169.96
4.008 -0.026674 -169.99
4.014 -0.026659 -170.02
4.02 -0.026644 -170.05
4.026 -0.026629 -170.08
4.032 -0.026614 -170.11
4.038 -0.026599 -170.14
4.044 -0.026584 -170.17
4.05 -0.02657 -170.20
4.056 -0.026555 -170.23
4.062 -0.02654 -170.26
4.068 -0.026526 -170.29
4.074 -0.026512 -170.31
4.08 -0.026498 -170.34
4.086 -0.026484 -170.37
4.092 -0.02647 -170.40
4.098 -0.026456 -170.43
4.104 -0.026442 -170.46
4.11 -0.026428 -170.49
4.116 -0.026414 -170.51
4.122 -0.026401 -170.54
4.128 -0.026387 -170.57
4.134 -0.026374 -170.60
4.14 -0.026361 -170.63
4.146 -0.026348 -170.66
4.152 -0.026335 -170.69
4.158 -0.026322 -170.71
4.164 -0.026309 -170.74
4.17 -0.026296 -170.77
4.176 -0.026283 -170.80
4.182 -0.026271 -170.83
4.188 -0.026258 -170.85
4.194 -0.026246 -170.88
4.2 -0.026233 -170.91
4.206 -0.026221 -170.94
4.212 -0.026209 -170.96
4.218 -0.026197 -170.99
4.224 -0.026185 -171.02
4.23 -0.026173 -171.05
4.236 -0.026161 -171.08
4.242 -0.026149 -171.10
4.248 -0.026138 -171.13
4.254 -0.026126 -171.16
4.26 -0.026115 -171.18
4.266 -0.026103 -171.21
4.272 -0.026092 -171.24
4.278 -0.026081 -171.27
4.284 -0.026069 -171.29
4.29 -0.026058 -171.32
4.296 -0.026047 -171.35
4.302 -0.026037 -171.37
4.308 -0.026026 -171.40
4.314 -0.026015 -171.43
4.32 -0.026005 -171.46
4.326 -0.025994 -171.48
4.332 -0.025984 -171.51
4.338 -0.025973 -171.54
4.344 -0.025963 -171.56
4.35 -0.025953 -171.59
4.356 -0.025943 -171.62
4.362 -0.025933 -171.64
4.368 -0.025923 -171.67
4.374 -0.025913 -171.70
4.38 -0.025903 -171.72
4.386 -0.025893 -171.75
4.392 -0.025884 -171.77
4.398 -0.025874 -171.80
4.404 -0.025865 -171.83
4.41 -0.025855 -171.85
4.416 -0.025846 -171.88
4.422 -0.025837 -171.91
4.428 -0.025828 -171.93
4.434 -0.025819 -171.96
4.44 -0.02581 -171.98
4.446 -0.025801 -172.01
4.452 -0.025792 -172.04
4.458 -0.025784 -172.06
4.464 -0.025775 -172.09
4.47 -0.025766 -172.11
4.476 -0.025758 -172.14
4.482 -0.02575 -172.16
4.488 -0.025741 -172.19
4.494 -0.025733 -172.22
4.5 -0.025725 -172.24
4.506 -0.025717 -172.27
4.512 -0.025709 -172.29
4.518 -0.025701 -172.32
4.524 -0.025693 -172.34
4.53 -0.025686 -172.37
4.536 -0.025678 -172.39
4.542 -0.02567 -172.42
4.548 -0.025663 -172.44
4.554 -0.025655 -172.47
4.56 -0.025648 -172.49
4.566 -0.025641 -172.52
4.572 -0.025634 -172.54
4.578 -0.025627 -172.57
4.584 -0.02562 -172.59
4.59 -0.025613 -172.62
4.596 -0.025606 -172.64
4.602 -0.025599 -172.67
4.608 -0.025592 -172.69
4.614 -0.025586 -172.72
4.62 -0.025579 -172.74
4.626 -0.025573 -172.77
4.632 -0.025566 -172.79
4.638 -0.02556 -172.82
4.644 -0.025554 -172.84
4.65 -0.025548 -172.87
4.656 -0.025542 -172.89
4.662 -0.025536 -172.92
4.668 -0.02553 -172.94
4.674 -0.025524 -172.97
4.68 -0.025518 -172.99
4.686 -0.025512 -173.02
4.692 -0.025507 -173.04
4.698 -0.025501 -173.06
4.704 -0.025496 -173.09
4.71 -0.02549 -173.11
4.716 -0.025485 -173.14
4.722 -0.02548 -173.16
4.728 -0.025475 -173.19
4.734 -0.02547 -173.21
4.74 -0.025465 -173.23
4.746 -0.02546 -173.26
4.752 -0.025455 -173.28
4.758 -0.02545 -173.31
4.764 -0.025446 -173.33
4.77 -0.025441 -173.35
4.776 -0.025436 -173.38
4.782 -0.025432 -173.40
4.788 -0.025428 -173.43
4.794 -0.025423 -173.45
4.8 -0.025419 -173.47
4.806 -0.025415 -173.50
4.812 -0.025411 -173.52
4.818 -0.025407 -173.54
4.824 -0.025403 -173.57
4.83 -0.025399 -173.59
4.836 -0.025395 -173.62
4.842 -0.025391 -173.64
4.848 -0.025388 -173.66
4.854 -0.025384 -173.69
4.86 -0.025381 -173.71
4.866 -0.025377 -173.73
4.872 -0.025374 -173.76
4.878 -0.025371 -173.78
4.884 -0.025368 -173.80
4.89 -0.025364 -173.83
4.896 -0.025361 -173.85
4.902 -0.025359 -173.87
4.908 -0.025356 -173.90
4.914 -0.025353 -173.92
4.92 -0.02535 -173.94
4.926 -0.025347 -173.97
4.932 -0.025345 -173.99
4.938 -0.025342 -174.01
4.944 -0.02534 -174.04
4.95 -0.025337 -174.06
4.956 -0.025335 -174.08
4.962 -0.025333 -174.11
4.968 -0.025331 -174.13
4.974 -0.025329 -174.15
4.98 -0.025327 -174.17
4.986 -0.025325 -174.20
4.992 -0.025323 -174.22
4.998 -0.025321 -174.24
5.004 -0.025319 -174.27
5.01 -0.025318 -174.29
5.016 -0.025316 -174.31
5.022 -0.025315 -174.33
5.028 -0.025313 -174.36
5.034 -0.025312 -174.38
5.04 -0.025311 -174.40
5.046 -0.02531 -174.42
5.052 -0.025309 -174.45
5.058 -0.025307 -174.47
5.064 -0.025306 -174.49
5.07 -0.025306 -174.52
5.076 -0.025305 -174.54
5.082 -0.025304 -174.56
5.088 -0.025303 -174.58
5.094 -0.025303 -174.61
5.1 -0.025302 -174.63
5.106 -0.025302 -174.65
5.112 -0.025301 -174.67
5.118 -0.025301 -174.70
5.124 -0.025301 -174.72
5.13 -0.025301 -174.74
5.136 -0.025301 -174.76
5.142 -0.025301 -174.78
5.148 -0.025301 -174.81
5.154 -0.025301 -174.83
5.16 -0.025301 -174.85
5.166 -0.025301 -174.87
5.172 -0.025302 -174.90
5.178 -0.025302 -174.92
5.184 -0.025302 -174.94
5.19 -0.025303 -174.96
5.196 -0.025304 -174.98
5.202 -0.025304 -175.01
5.208 -0.025305 -175.03
5.214 -0.025306 -175.05
5.22 -0.025307 -175.07
5.226 -0.025308 -175.09
5.232 -0.025309 -175.12
5.238 -0.02531 -175.14
5.244 -0.025311 -175.16
5.25 -0.025313 -175.18
5.256 -0.025314 -175.20
5.262 -0.025315 -175.23
5.268 -0.025317 -175.25
5.274 -0.025318 -175.27
5.28 -0.02532 -175.29
5.286 -0.025322 -175.31
5.292 -0.025324 -175.33
5.298 -0.025326 -175.36
5.304 -0.025327 -175.38
5.31 -0.025329 -175.40
5.316 -0.025332 -175.42
5.322 -0.025334 -175.44
5.328 -0.025336 -175.46
5.334 -0.025338 -175.49
5.34 -0.025341 -175.51
5.346 -0.025343 -175.53
5.352 -0.025346 -175.55
5.358 -0.025348 -175.57
5.364 -0.025351 -175.59
5.37 -0.025354 -175.62
5.376 -0.025356 -175.64
5.382 -0.025359 -175.66
5.388 -0.025362 -175.68
5.394 -0.025365 -175.70
5.4 -0.025368 -175.72
5.406 -0.025372 -175.74
5.412 -0.025375 -175.76
5.418 -0.025378 -175.79
5.424 -0.025382 -175.81
5.43 -0.025385 -175.83
5.436 -0.025389 -175.85
5.442 -0.025392 -175.87
5.448 -0.025396 -175.89
5.454 -0.0254 -175.91
5.46 -0.025404 -175.94
5.466 -0.025407 -175.96
5.472 -0.025411 -175.98
5.478 -0.025416 -176.00
5.484 -0.02542 -176.02
5.49 -0.025424 -176.04
5.496 -0.025428 -176.06
5.502 -0.025433 -176.08
5.508 -0.025437 -176.10
5.514 -0.025441 -176.13
5.52 -0.025446 -176.15
5.526 -0.025451 -176.17
5.532 -0.025455 -176.19
5.538 -0.02546 -176.21
5.544 -0.025465 -176.23
5.55 -0.02547 -176.25
5.556 -0.025475 -176.27
5.562 -0.02548 -176.29
5.568 -0.025485 -176.31
5.574 -0.025491 -176.34
5.58 -0.025496 -176.36
5.586 -0.025501 -176.38
5.592 -0.025507 -176.40
5.598 -0.025512 -176.42
5.604 -0.025518 -176.44
5.61 -0.025524 -176.46
5.616 -0.025529 -176.48
5.622 -0.025535 -176.50
5.628 -0.025541 -176.52
5.634 -0.025547 -176.54
5.64 -0.025553 -176.56
5.646 -0.025559 -176.59
5.652 -0.025565 -176.61
5.658 -0.025572 -176.63
5.664 -0.025578 -176.65
5.67 -0.025584 -176.67
5.676 -0.025591 -176.69
5.682 -0.025598 -176.71
5.688 -0.025604 -176.73
5.694 -0.025611 -176.75
5.7 -0.025618 -176.77
5.706 -0.025625 -176.79
5.712 -0.025632 -176.81
5.718 -0.025639 -176.83
5.724 -0.025646 -176.85
5.73 -0.025653 -176.87
5.736 -0.02566 -176.89
5.742 -0.025668 -176.91
5.748 -0.025675 -176.94
5.754 -0.025682 -176.96
5.76 -0.02569 -176.98
5.766 -0.025698 -177.00
5.772 -0.025705 -177.02
5.778 -0.025713 -177.04
5.784 -0.025721 -177.06
5.79 -0.025729 -177.08
5.796 -0.025737 -177.10
5.802 -0.025745 -177.12
5.808 -0.025753 -177.14
5.814 -0.025762 -177.16
5.82 -0.02577 -177.18
5.826 -0.025778 -177.20
5.832 -0.025787 -177.22
5.838 -0.025795 -177.24
5.844 -0.025804 -177.26
5.85 -0.025813 -177.28
5.856 -0.025822 -177.30
5.862 -0.02583 -177.32
5.868 -0.025839 -177.34
5.874 -0.025848 -177.36
5.88 -0.025858 -177.38
5.886 -0.025867 -177.40
5.892 -0.025876 -177.42
5.898 -0.025885 -177.44
5.904 -0.025895 -177.46
5.91 -0.025904 -177.48
5.916 -0.025914 -177.50
5.922 -0.025923 -177.53
5.928 -0.025933 -177.55
5.934 -0.025943 -177.57
5.94 -0.025953 -177.59
5.946 -0.025963 -177.61
5.952 -0.025973 -177.63
5.958 -0.025983 -177.65
5.964 -0.025993 -177.67
5.97 -0.026004 -177.69
5.976 -0.026014 -177.71
5.982 -0.026024 -177.73
5.988 -0.026035 -177.75
5.994 -0.026046 -177.77
6 -0.026056 -177.79
