! yapnr rf: line-osh-m-w0p70-l10-m-nom, footprint re-simulated (optimization grid)
! spec sha256 b103fcb1d22877655adf9d290e14b2feb167215447c657b3ee50591ba7c9c9d1
! 2 ports renormalized to 50 ohm, e^(+jwt) convention
# GHz S RI R 50
3.000000000 -2.268706652e-01 -1.164146217e-01  4.388954251e-01 -8.430748483e-01  4.388954251e-01 -8.430748483e-01 -2.268706652e-01 -1.164146217e-01
3.025000000 -2.288690799e-01 -1.149831645e-01  4.313919998e-01 -8.466049940e-01  4.313919998e-01 -8.466049940e-01 -2.288690799e-01 -1.149831645e-01
3.050000000 -2.308408869e-01 -1.135179025e-01  4.238667702e-01 -8.500697281e-01  4.238667702e-01 -8.500697281e-01 -2.308408869e-01 -1.135179025e-01
3.075000000 -2.327857821e-01 -1.120190518e-01  4.163201208e-01 -8.534690918e-01  4.163201208e-01 -8.534690918e-01 -2.327857821e-01 -1.120190518e-01
3.100000000 -2.347027166e-01 -1.104880669e-01  4.087525834e-01 -8.568032974e-01  4.087525834e-01 -8.568032974e-01 -2.347027166e-01 -1.104880669e-01
3.125000000 -2.365916769e-01 -1.089245507e-01  4.011646413e-01 -8.600722318e-01  4.011646413e-01 -8.600722318e-01 -2.365916769e-01 -1.089245507e-01
3.150000000 -2.384517486e-01 -1.073299770e-01  3.935566185e-01 -8.632761667e-01  3.935566185e-01 -8.632761667e-01 -2.384517486e-01 -1.073299770e-01
3.175000000 -2.402827997e-01 -1.057040075e-01  3.859291612e-01 -8.664149478e-01  3.859291612e-01 -8.664149478e-01 -2.402827997e-01 -1.057040075e-01
3.200000000 -2.420842405e-01 -1.040474921e-01  3.782826280e-01 -8.694887206e-01  3.782826280e-01 -8.694887206e-01 -2.420842405e-01 -1.040474921e-01
3.225000000 -2.438556919e-01 -1.023606193e-01  3.706176279e-01 -8.724974415e-01  3.706176279e-01 -8.724974415e-01 -2.438556919e-01 -1.023606193e-01
3.250000000 -2.455966994e-01 -1.006438305e-01  3.629346947e-01 -8.754411351e-01  3.629346947e-01 -8.754411351e-01 -2.455966994e-01 -1.006438305e-01
3.275000000 -2.473067887e-01 -9.889766335e-02  3.552343071e-01 -8.783198626e-01  3.552343071e-01 -8.783198626e-01 -2.473067887e-01 -9.889766335e-02
3.300000000 -2.489854232e-01 -9.712274462e-02  3.475170418e-01 -8.811336671e-01  3.475170418e-01 -8.811336671e-01 -2.489854232e-01 -9.712274462e-02
3.325000000 -2.506321796e-01 -9.531960699e-02  3.397833248e-01 -8.838826257e-01  3.397833248e-01 -8.838826257e-01 -2.506321796e-01 -9.531960699e-02
3.350000000 -2.522464781e-01 -9.348916204e-02  3.320336034e-01 -8.865668589e-01  3.320336034e-01 -8.865668589e-01 -2.522464781e-01 -9.348916204e-02
3.375000000 -2.538279306e-01 -9.163191153e-02  3.242683234e-01 -8.891864276e-01  3.242683234e-01 -8.891864276e-01 -2.538279306e-01 -9.163191153e-02
3.400000000 -2.553760856e-01 -8.974861581e-02  3.164878399e-01 -8.917414505e-01  3.164878399e-01 -8.917414505e-01 -2.553760856e-01 -8.974861581e-02
3.425000000 -2.568905284e-01 -8.783990968e-02  3.086925871e-01 -8.942320028e-01  3.086925871e-01 -8.942320028e-01 -2.568905284e-01 -8.783990968e-02
3.450000000 -2.583709640e-01 -8.590614836e-02  3.008829909e-01 -8.966581252e-01  3.008829909e-01 -8.966581252e-01 -2.583709640e-01 -8.590614836e-02
3.475000000 -2.598169709e-01 -8.394807016e-02  2.930594398e-01 -8.990199136e-01  2.930594398e-01 -8.990199136e-01 -2.598169709e-01 -8.394807016e-02
3.500000000 -2.612282740e-01 -8.196592229e-02  2.852224543e-01 -9.013173701e-01  2.852224543e-01 -9.013173701e-01 -2.612282740e-01 -8.196592229e-02
3.525000000 -2.626044920e-01 -7.996037563e-02  2.773724457e-01 -9.035505721e-01  2.773724457e-01 -9.035505721e-01 -2.626044920e-01 -7.996037563e-02
3.550000000 -2.639452826e-01 -7.793194314e-02  2.695098810e-01 -9.057195663e-01  2.695098810e-01 -9.057195663e-01 -2.639452826e-01 -7.793194314e-02
3.575000000 -2.652502797e-01 -7.588126832e-02  2.616352288e-01 -9.078244086e-01  2.616352288e-01 -9.078244086e-01 -2.652502797e-01 -7.588126832e-02
3.600000000 -2.665191528e-01 -7.380900122e-02  2.537488186e-01 -9.098651882e-01  2.537488186e-01 -9.098651882e-01 -2.665191528e-01 -7.380900122e-02
3.625000000 -2.677514770e-01 -7.171606436e-02  2.458511219e-01 -9.118419795e-01  2.458511219e-01 -9.118419795e-01 -2.677514770e-01 -7.171606436e-02
3.650000000 -2.689470507e-01 -6.960277922e-02  2.379424347e-01 -9.137548390e-01  2.379424347e-01 -9.137548390e-01 -2.689470507e-01 -6.960277922e-02
3.675000000 -2.701053940e-01 -6.747045428e-02  2.300230982e-01 -9.156038951e-01  2.300230982e-01 -9.156038951e-01 -2.701053940e-01 -6.747045428e-02
3.700000000 -2.712264114e-01 -6.531897820e-02  2.220935499e-01 -9.173891282e-01  2.220935499e-01 -9.173891282e-01 -2.712264114e-01 -6.531897820e-02
3.725000000 -2.723096655e-01 -6.314969402e-02  2.141540062e-01 -9.191106856e-01  2.141540062e-01 -9.191106856e-01 -2.723096655e-01 -6.314969402e-02
3.750000000 -2.733550334e-01 -6.096253265e-02  2.062050131e-01 -9.207685296e-01  2.062050131e-01 -9.207685296e-01 -2.733550334e-01 -6.096253265e-02
3.775000000 -2.743621988e-01 -5.875839449e-02  1.982468676e-01 -9.223627493e-01  1.982468676e-01 -9.223627493e-01 -2.743621988e-01 -5.875839449e-02
3.800000000 -2.753309440e-01 -5.653769030e-02  1.902800171e-01 -9.238933679e-01  1.902800171e-01 -9.238933679e-01 -2.753309440e-01 -5.653769030e-02
3.825000000 -2.762610090e-01 -5.430108868e-02  1.823049052e-01 -9.253604268e-01  1.823049052e-01 -9.253604268e-01 -2.762610090e-01 -5.430108868e-02
3.850000000 -2.771521641e-01 -5.204921162e-02  1.743218463e-01 -9.267639889e-01  1.743218463e-01 -9.267639889e-01 -2.771521641e-01 -5.204921162e-02
3.875000000 -2.780041386e-01 -4.978290874e-02  1.663312895e-01 -9.281041030e-01  1.663312895e-01 -9.281041030e-01 -2.780041386e-01 -4.978290874e-02
3.900000000 -2.788167489e-01 -4.750270573e-02  1.583335271e-01 -9.293808243e-01  1.583335271e-01 -9.293808243e-01 -2.788167489e-01 -4.750270573e-02
3.925000000 -2.795897321e-01 -4.520962732e-02  1.503288930e-01 -9.305942243e-01  1.503288930e-01 -9.305942243e-01 -2.795897321e-01 -4.520962732e-02
3.950000000 -2.803229379e-01 -4.290411582e-02  1.423177339e-01 -9.317443371e-01  1.423177339e-01 -9.317443371e-01 -2.803229379e-01 -4.290411582e-02
3.975000000 -2.810161637e-01 -4.058700994e-02  1.343003325e-01 -9.328312235e-01  1.343003325e-01 -9.328312235e-01 -2.810161637e-01 -4.058700994e-02
4.000000000 -2.816692589e-01 -3.825885606e-02  1.262770538e-01 -9.338549140e-01  1.262770538e-01 -9.338549140e-01 -2.816692589e-01 -3.825885606e-02
4.025000000 -2.822820507e-01 -3.592043128e-02  1.182481830e-01 -9.348154579e-01  1.182481830e-01 -9.348154579e-01 -2.822820507e-01 -3.592043128e-02
4.050000000 -2.828544237e-01 -3.357213540e-02  1.102141330e-01 -9.357128677e-01  1.102141330e-01 -9.357128677e-01 -2.828544237e-01 -3.357213540e-02
4.075000000 -2.833862401e-01 -3.121459902e-02  1.021752792e-01 -9.365471703e-01  1.021752792e-01 -9.365471703e-01 -2.833862401e-01 -3.121459902e-02
4.100000000 -2.838773664e-01 -2.884850694e-02  9.413196023e-02 -9.373183959e-01  9.413196023e-02 -9.373183959e-01 -2.838773664e-01 -2.884850694e-02
4.125000000 -2.843276836e-01 -2.647454134e-02  8.608453625e-02 -9.380265683e-01  8.608453625e-02 -9.380265683e-01 -2.843276836e-01 -2.647454134e-02
4.150000000 -2.847370797e-01 -2.409341909e-02  7.803337461e-02 -9.386717085e-01  7.803337461e-02 -9.386717085e-01 -2.847370797e-01 -2.409341909e-02
4.175000000 -2.851054529e-01 -2.170585077e-02  6.997874295e-02 -9.392538439e-01  6.997874295e-02 -9.392538439e-01 -2.851054529e-01 -2.170585077e-02
4.200000000 -2.854327063e-01 -1.931271031e-02  6.192100217e-02 -9.397729908e-01  6.192100217e-02 -9.397729908e-01 -2.854327063e-01 -1.931271031e-02
4.225000000 -2.857187725e-01 -1.691444986e-02  5.386042249e-02 -9.402291631e-01  5.386042249e-02 -9.402291631e-01 -2.857187725e-01 -1.691444986e-02
4.250000000 -2.859635680e-01 -1.451203764e-02  4.579731074e-02 -9.406223759e-01  4.579731074e-02 -9.406223759e-01 -2.859635680e-01 -1.451203764e-02
4.275000000 -2.861670342e-01 -1.210607815e-02  3.773196055e-02 -9.409526363e-01  3.773196055e-02 -9.409526363e-01 -2.861670342e-01 -1.210607815e-02
4.300000000 -2.863291214e-01 -9.697167551e-03  2.966470240e-02 -9.412199466e-01  2.966470240e-02 -9.412199466e-01 -2.863291214e-01 -9.697167551e-03
4.325000000 -2.864498034e-01 -7.285763222e-03  2.159592551e-02 -9.414243010e-01  2.159592551e-02 -9.414243010e-01 -2.864498034e-01 -7.285763222e-03
4.350000000 -2.865290315e-01 -4.872670919e-03  1.352595217e-02 -9.415657048e-01  1.352595217e-02 -9.415657048e-01 -2.865290315e-01 -4.872670919e-03
4.375000000 -2.865667965e-01 -2.458446711e-03  5.455114903e-03 -9.416441517e-01  5.455114903e-03 -9.416441517e-01 -2.865667965e-01 -2.458446711e-03
4.400000000 -2.865630905e-01 -4.384966228e-05 -2.616152375e-03 -9.416596362e-01 -2.616152375e-03 -9.416596362e-01 -2.865630905e-01 -4.384966228e-05
4.425000000 -2.865179069e-01  2.370505746e-03 -1.068762574e-02 -9.416121545e-01 -1.068762574e-02 -9.416121545e-01 -2.865179069e-01  2.370505746e-03
4.450000000 -2.864312764e-01  4.783676335e-03 -1.875888441e-02 -9.415016928e-01 -1.875888441e-02 -9.415016928e-01 -2.864312764e-01  4.783676335e-03
4.475000000 -2.863032039e-01  7.195203553e-03 -2.682968690e-02 -9.413282430e-01 -2.682968690e-02 -9.413282430e-01 -2.863032039e-01  7.195203553e-03
4.500000000 -2.861337334e-01  9.604167735e-03 -3.489970431e-02 -9.410917864e-01 -3.489970431e-02 -9.410917864e-01 -2.861337334e-01  9.604167735e-03
4.525000000 -2.859229066e-01  1.200982480e-02 -4.296864790e-02 -9.407923028e-01 -4.296864790e-02 -9.407923028e-01 -2.859229066e-01  1.200982480e-02
4.550000000 -2.856707639e-01  1.441158345e-02 -5.103621665e-02 -9.404297715e-01 -5.103621665e-02 -9.404297715e-01 -2.856707639e-01  1.441158345e-02
4.575000000 -2.853773698e-01  1.680891168e-02 -5.910205181e-02 -9.400041676e-01 -5.910205181e-02 -9.400041676e-01 -2.853773698e-01  1.680891168e-02
4.600000000 -2.850427861e-01  1.920110228e-02 -6.716582754e-02 -9.395154649e-01 -6.716582754e-02 -9.395154649e-01 -2.850427861e-01  1.920110228e-02
4.625000000 -2.846670993e-01  2.158752887e-02 -7.522720384e-02 -9.389636310e-01 -7.522720384e-02 -9.389636310e-01 -2.846670993e-01  2.158752887e-02
4.650000000 -2.842504071e-01  2.396755198e-02 -8.328579077e-02 -9.383486344e-01 -8.328579077e-02 -9.383486344e-01 -2.842504071e-01  2.396755198e-02
4.675000000 -2.837928115e-01  2.634050067e-02 -9.134126467e-02 -9.376704374e-01 -9.134126467e-02 -9.376704374e-01 -2.837928115e-01  2.634050067e-02
4.700000000 -2.832944451e-01  2.870563800e-02 -9.939326207e-02 -9.369289967e-01 -9.939326207e-02 -9.369289967e-01 -2.832944451e-01  2.870563800e-02
4.725000000 -2.827554346e-01  3.106228471e-02 -1.074414388e-01 -9.361242693e-01 -1.074414388e-01 -9.361242693e-01 -2.827554346e-01  3.106228471e-02
4.750000000 -2.821759058e-01  3.340977762e-02 -1.154855003e-01 -9.352562055e-01 -1.154855003e-01 -9.352562055e-01 -2.821759058e-01  3.340977762e-02
4.775000000 -2.815560439e-01  3.574718379e-02 -1.235250826e-01 -9.343247466e-01 -1.235250826e-01 -9.343247466e-01 -2.815560439e-01  3.574718379e-02
4.800000000 -2.808959562e-01  3.807406335e-02 -1.315598925e-01 -9.333298465e-01 -1.315598925e-01 -9.333298465e-01 -2.808959562e-01  3.807406335e-02
4.825000000 -2.801958172e-01  4.038961612e-02 -1.395895940e-01 -9.322714447e-01 -1.395895940e-01 -9.322714447e-01 -2.801958172e-01  4.038961612e-02
4.850000000 -2.794557742e-01  4.269337732e-02 -1.476138171e-01 -9.311494945e-01 -1.476138171e-01 -9.311494945e-01 -2.794557742e-01  4.269337732e-02
4.875000000 -2.786760030e-01  4.498456154e-02 -1.556322308e-01 -9.299639349e-01 -1.556322308e-01 -9.299639349e-01 -2.786760030e-01  4.498456154e-02
4.900000000 -2.778566986e-01  4.726267623e-02 -1.636444310e-01 -9.287147129e-01 -1.636444310e-01 -9.287147129e-01 -2.778566986e-01  4.726267623e-02
4.925000000 -2.769980521e-01  4.952702206e-02 -1.716500248e-01 -9.274017769e-01 -1.716500248e-01 -9.274017769e-01 -2.769980521e-01  4.952702206e-02
4.950000000 -2.761002891e-01  5.177697982e-02 -1.796486744e-01 -9.260250554e-01 -1.796486744e-01 -9.260250554e-01 -2.761002891e-01  5.177697982e-02
4.975000000 -2.751636662e-01  5.401182065e-02 -1.876399001e-01 -9.245844986e-01 -1.876399001e-01 -9.245844986e-01 -2.751636662e-01  5.401182065e-02
5.000000000 -2.741883804e-01  5.623097046e-02 -1.956234519e-01 -9.230800269e-01 -1.956234519e-01 -9.230800269e-01 -2.741883804e-01  5.623097046e-02
5.025000000 -2.731747688e-01  5.843351008e-02 -2.035988429e-01 -9.215115708e-01 -2.035988429e-01 -9.215115708e-01 -2.731747688e-01  5.843351008e-02
5.050000000 -2.721229967e-01  6.061906411e-02 -2.115658042e-01 -9.198790638e-01 -2.115658042e-01 -9.198790638e-01 -2.721229967e-01  6.061906411e-02
5.075000000 -2.710333994e-01  6.278664857e-02 -2.195239431e-01 -9.181824157e-01 -2.195239431e-01 -9.181824157e-01 -2.710333994e-01  6.278664857e-02
5.100000000 -2.699061909e-01  6.493593785e-02 -2.274728798e-01 -9.164215705e-01 -2.274728798e-01 -9.164215705e-01 -2.699061909e-01  6.493593785e-02
5.125000000 -2.687416556e-01  6.706610184e-02 -2.354122637e-01 -9.145964430e-01 -2.354122637e-01 -9.145964430e-01 -2.687416556e-01  6.706610184e-02
5.150000000 -2.675400847e-01  6.917668981e-02 -2.433416667e-01 -9.127069664e-01 -2.433416667e-01 -9.127069664e-01 -2.675400847e-01  6.917668981e-02
5.175000000 -2.663017590e-01  7.126705221e-02 -2.512606746e-01 -9.107530749e-01 -2.512606746e-01 -9.107530749e-01 -2.663017590e-01  7.126705221e-02
5.200000000 -2.650270084e-01  7.333660582e-02 -2.591688877e-01 -9.087346838e-01 -2.591688877e-01 -9.087346838e-01 -2.650270084e-01  7.333660582e-02
5.225000000 -2.637161725e-01  7.538473195e-02 -2.670658314e-01 -9.066517292e-01 -2.670658314e-01 -9.066517292e-01 -2.637161725e-01  7.538473195e-02
5.250000000 -2.623695826e-01  7.741082222e-02 -2.749511261e-01 -9.045041217e-01 -2.749511261e-01 -9.045041217e-01 -2.623695826e-01  7.741082222e-02
5.275000000 -2.609876569e-01  7.941415171e-02 -2.828242570e-01 -9.022917896e-01 -2.828242570e-01 -9.022917896e-01 -2.609876569e-01  7.941415171e-02
5.300000000 -2.595707031e-01  8.139418557e-02 -2.906848893e-01 -9.000146372e-01 -2.906848893e-01 -9.000146372e-01 -2.595707031e-01  8.139418557e-02
5.325000000 -2.581191144e-01  8.335021548e-02 -2.985325889e-01 -8.976725751e-01 -2.985325889e-01 -8.976725751e-01 -2.581191144e-01  8.335021548e-02
5.350000000 -2.566332628e-01  8.528165910e-02 -3.063669181e-01 -8.952655229e-01 -3.063669181e-01 -8.952655229e-01 -2.566332628e-01  8.528165910e-02
5.375000000 -2.551134939e-01  8.718794488e-02 -3.141874752e-01 -8.927933963e-01 -3.141874752e-01 -8.927933963e-01 -2.551134939e-01  8.718794488e-02
5.400000000 -2.535602047e-01  8.906845260e-02 -3.219938123e-01 -8.902561125e-01 -3.219938123e-01 -8.902561125e-01 -2.535602047e-01  8.906845260e-02
5.425000000 -2.519737665e-01  9.092270728e-02 -3.297854659e-01 -8.876536051e-01 -3.297854659e-01 -8.876536051e-01 -2.519737665e-01  9.092270728e-02
5.450000000 -2.503545792e-01  9.275009405e-02 -3.375619809e-01 -8.849857974e-01 -3.375619809e-01 -8.849857974e-01 -2.503545792e-01  9.275009405e-02
5.475000000 -2.487030870e-01  9.455010884e-02 -3.453228625e-01 -8.822526169e-01 -3.453228625e-01 -8.822526169e-01 -2.487030870e-01  9.455010884e-02
5.500000000 -2.470197134e-01  9.632217429e-02 -3.530676164e-01 -8.794540013e-01 -3.530676164e-01 -8.794540013e-01 -2.470197134e-01  9.632217429e-02
5.525000000 -2.453049505e-01  9.806571047e-02 -3.607957116e-01 -8.765898852e-01 -3.607957116e-01 -8.765898852e-01 -2.453049505e-01  9.806571047e-02
5.550000000 -2.435592803e-01  9.978012649e-02 -3.685066651e-01 -8.736601888e-01 -3.685066651e-01 -8.736601888e-01 -2.435592803e-01  9.978012649e-02
5.575000000 -2.417831275e-01  1.014648996e-01 -3.762000618e-01 -8.706648207e-01 -3.762000618e-01 -8.706648207e-01 -2.417831275e-01  1.014648996e-01
5.600000000 -2.399770668e-01  1.031193262e-01 -3.838753178e-01 -8.676037210e-01 -3.838753178e-01 -8.676037210e-01 -2.399770668e-01  1.031193262e-01
5.625000000 -2.381414741e-01  1.047430451e-01 -3.915320308e-01 -8.644768101e-01 -3.915320308e-01 -8.644768101e-01 -2.381414741e-01  1.047430451e-01
5.650000000 -2.362768991e-01  1.063352901e-01 -3.991696846e-01 -8.612840070e-01 -3.991696846e-01 -8.612840070e-01 -2.362768991e-01  1.063352901e-01
5.675000000 -2.343837902e-01  1.078957848e-01 -4.067877713e-01 -8.580252611e-01 -4.067877713e-01 -8.580252611e-01 -2.343837902e-01  1.078957848e-01
5.700000000 -2.324626159e-01  1.094238609e-01 -4.143858081e-01 -8.547005041e-01 -4.143858081e-01 -8.547005041e-01 -2.324626159e-01  1.094238609e-01
5.725000000 -2.305139421e-01  1.109191513e-01 -4.219632301e-01 -8.513096791e-01 -4.219632301e-01 -8.513096791e-01 -2.305139421e-01  1.109191513e-01
5.750000000 -2.285382589e-01  1.123811312e-01 -4.295194966e-01 -8.478527448e-01 -4.295194966e-01 -8.478527448e-01 -2.285382589e-01  1.123811312e-01
5.775000000 -2.265361360e-01  1.138093300e-01 -4.370540260e-01 -8.443296584e-01 -4.370540260e-01 -8.443296584e-01 -2.265361360e-01  1.138093300e-01
5.800000000 -2.245081827e-01  1.152032461e-01 -4.445662181e-01 -8.407403782e-01 -4.445662181e-01 -8.407403782e-01 -2.245081827e-01  1.152032461e-01
5.825000000 -2.224549291e-01  1.165624101e-01 -4.520555892e-01 -8.370848258e-01 -4.520555892e-01 -8.370848258e-01 -2.224549291e-01  1.165624101e-01
5.850000000 -2.203770323e-01  1.178862678e-01 -4.595214882e-01 -8.333629785e-01 -4.595214882e-01 -8.333629785e-01 -2.203770323e-01  1.178862678e-01
5.875000000 -2.182750118e-01  1.191744128e-01 -4.669634113e-01 -8.295747779e-01 -4.669634113e-01 -8.295747779e-01 -2.182750118e-01  1.191744128e-01
5.900000000 -2.161494745e-01  1.204262878e-01 -4.743807882e-01 -8.257201769e-01 -4.743807882e-01 -8.257201769e-01 -2.161494745e-01  1.204262878e-01
5.925000000 -2.140009904e-01  1.216415099e-01 -4.817730481e-01 -8.217991447e-01 -4.817730481e-01 -8.217991447e-01 -2.140009904e-01  1.216415099e-01
5.950000000 -2.118301086e-01  1.228196137e-01 -4.891396424e-01 -8.178116465e-01 -4.891396424e-01 -8.178116465e-01 -2.118301086e-01  1.228196137e-01
5.975000000 -2.096374458e-01  1.239601911e-01 -4.964799676e-01 -8.137576629e-01 -4.964799676e-01 -8.137576629e-01 -2.096374458e-01  1.239601911e-01
6.000000000 -2.074236110e-01  1.250628706e-01 -5.037934138e-01 -8.096371856e-01 -5.037934138e-01 -8.096371856e-01 -2.074236110e-01  1.250628706e-01
6.025000000 -2.051891925e-01  1.261272254e-01 -5.110793599e-01 -8.054502265e-01 -5.110793599e-01 -8.054502265e-01 -2.051891925e-01  1.261272254e-01
6.050000000 -2.029349083e-01  1.271528932e-01 -5.183371474e-01 -8.011967830e-01 -5.183371474e-01 -8.011967830e-01 -2.029349083e-01  1.271528932e-01
6.075000000 -2.006614112e-01  1.281394807e-01 -5.255661337e-01 -7.968768704e-01 -5.255661337e-01 -7.968768704e-01 -2.006614112e-01  1.281394807e-01
6.100000000 -1.983693963e-01  1.290865855e-01 -5.327656938e-01 -7.924904821e-01 -5.327656938e-01 -7.924904821e-01 -1.983693963e-01  1.290865855e-01
6.125000000 -1.960595787e-01  1.299938242e-01 -5.399351289e-01 -7.880376625e-01 -5.399351289e-01 -7.880376625e-01 -1.960595787e-01  1.299938242e-01
6.150000000 -1.937325780e-01  1.308608263e-01 -5.470738906e-01 -7.835183849e-01 -5.470738906e-01 -7.835183849e-01 -1.937325780e-01  1.308608263e-01
6.175000000 -1.913891421e-01  1.316871713e-01 -5.541812740e-01 -7.789326956e-01 -5.541812740e-01 -7.789326956e-01 -1.913891421e-01  1.316871713e-01
6.200000000 -1.890298670e-01  1.324725998e-01 -5.612567104e-01 -7.742805970e-01 -5.612567104e-01 -7.742805970e-01 -1.890298670e-01  1.324725998e-01
6.225000000 -1.866554371e-01  1.332166575e-01 -5.682995548e-01 -7.695621198e-01 -5.682995548e-01 -7.695621198e-01 -1.866554371e-01  1.332166575e-01
6.250000000 -1.842665662e-01  1.339191763e-01 -5.753091245e-01 -7.647773179e-01 -5.753091245e-01 -7.647773179e-01 -1.842665662e-01  1.339191763e-01
6.275000000 -1.818638617e-01  1.345797479e-01 -5.822847970e-01 -7.599262403e-01 -5.822847970e-01 -7.599262403e-01 -1.818638617e-01  1.345797479e-01
6.300000000 -1.794481605e-01  1.351981870e-01 -5.892258362e-01 -7.550089474e-01 -5.892258362e-01 -7.550089474e-01 -1.794481605e-01  1.351981870e-01
6.325000000 -1.770201336e-01  1.357741988e-01 -5.961315078e-01 -7.500255684e-01 -5.961315078e-01 -7.500255684e-01 -1.770201336e-01  1.357741988e-01
6.350000000 -1.745805736e-01  1.363075219e-01 -6.030011665e-01 -7.449761159e-01 -6.030011665e-01 -7.449761159e-01 -1.745805736e-01  1.363075219e-01
6.375000000 -1.721303173e-01  1.367979212e-01 -6.098339528e-01 -7.398607790e-01 -6.098339528e-01 -7.398607790e-01 -1.721303173e-01  1.367979212e-01
6.400000000 -1.696700255e-01  1.372451323e-01 -6.166293061e-01 -7.346795582e-01 -6.166293061e-01 -7.346795582e-01 -1.696700255e-01  1.372451323e-01
6.425000000 -1.672005681e-01  1.376488776e-01 -6.233863938e-01 -7.294326222e-01 -6.233863938e-01 -7.294326222e-01 -1.672005681e-01  1.376488776e-01
6.450000000 -1.647226013e-01  1.380089770e-01 -6.301046059e-01 -7.241200276e-01 -6.301046059e-01 -7.241200276e-01 -1.647226013e-01  1.380089770e-01
6.475000000 -1.622368793e-01  1.383251216e-01 -6.367832292e-01 -7.187418932e-01 -6.367832292e-01 -7.187418932e-01 -1.622368793e-01  1.383251216e-01
6.500000000 -1.597441610e-01  1.385971925e-01 -6.434215455e-01 -7.132983475e-01 -6.434215455e-01 -7.132983475e-01 -1.597441610e-01  1.385971925e-01
6.525000000 -1.572450955e-01  1.388248800e-01 -6.500189039e-01 -7.077895054e-01 -6.500189039e-01 -7.077895054e-01 -1.572450955e-01  1.388248800e-01
6.550000000 -1.547405556e-01  1.390081391e-01 -6.565745088e-01 -7.022155407e-01 -6.565745088e-01 -7.022155407e-01 -1.547405556e-01  1.390081391e-01
6.575000000 -1.522312917e-01  1.391467966e-01 -6.630876132e-01 -6.965766399e-01 -6.630876132e-01 -6.965766399e-01 -1.522312917e-01  1.391467966e-01
6.600000000 -1.497181242e-01  1.392407168e-01 -6.695574694e-01 -6.908729711e-01 -6.695574694e-01 -6.908729711e-01 -1.497181242e-01  1.392407168e-01
6.625000000 -1.472019362e-01  1.392898205e-01 -6.759832465e-01 -6.851047740e-01 -6.759832465e-01 -6.851047740e-01 -1.472019362e-01  1.392898205e-01
6.650000000 -1.446835333e-01  1.392939899e-01 -6.823641997e-01 -6.792722415e-01 -6.823641997e-01 -6.792722415e-01 -1.446835333e-01  1.392939899e-01
6.675000000 -1.421637706e-01  1.392531226e-01 -6.886995553e-01 -6.733755861e-01 -6.886995553e-01 -6.733755861e-01 -1.421637706e-01  1.392531226e-01
6.700000000 -1.396434826e-01  1.391671448e-01 -6.949885319e-01 -6.674150472e-01 -6.949885319e-01 -6.674150472e-01 -1.396434826e-01  1.391671448e-01
6.725000000 -1.371234111e-01  1.390359325e-01 -7.012304549e-01 -6.613907923e-01 -7.012304549e-01 -6.613907923e-01 -1.371234111e-01  1.390359325e-01
6.750000000 -1.346043883e-01  1.388594133e-01 -7.074245402e-01 -6.553030795e-01 -7.074245402e-01 -6.553030795e-01 -1.346043883e-01  1.388594133e-01
6.775000000 -1.320871643e-01  1.386375475e-01 -7.135700904e-01 -6.491521099e-01 -7.135700904e-01 -6.491521099e-01 -1.320871643e-01  1.386375475e-01
6.800000000 -1.295724961e-01  1.383702206e-01 -7.196663759e-01 -6.429381243e-01 -7.196663759e-01 -6.429381243e-01 -1.295724961e-01  1.383702206e-01
6.825000000 -1.270612886e-01  1.380575398e-01 -7.257125695e-01 -6.366614218e-01 -7.257125695e-01 -6.366614218e-01 -1.270612886e-01  1.380575398e-01
6.850000000 -1.245542669e-01  1.376994081e-01 -7.317079467e-01 -6.303222678e-01 -7.317079467e-01 -6.303222678e-01 -1.245542669e-01  1.376994081e-01
6.875000000 -1.220524102e-01  1.372959810e-01 -7.376516419e-01 -6.239209952e-01 -7.376516419e-01 -6.239209952e-01 -1.220524102e-01  1.372959810e-01
6.900000000 -1.195565667e-01  1.368473042e-01 -7.435428036e-01 -6.174579960e-01 -7.435428036e-01 -6.174579960e-01 -1.195565667e-01  1.368473042e-01
6.925000000 -1.170675663e-01  1.363534256e-01 -7.493807130e-01 -6.109335106e-01 -7.493807130e-01 -6.109335106e-01 -1.170675663e-01  1.363534256e-01
6.950000000 -1.145864110e-01  1.358145390e-01 -7.551643781e-01 -6.043480725e-01 -7.551643781e-01 -6.043480725e-01 -1.145864110e-01  1.358145390e-01
6.975000000 -1.121137611e-01  1.352306057e-01 -7.608932212e-01 -5.977018388e-01 -7.608932212e-01 -5.977018388e-01 -1.121137611e-01  1.352306057e-01
7.000000000 -1.096505447e-01  1.346017817e-01 -7.665663306e-01 -5.909953014e-01 -7.665663306e-01 -5.909953014e-01 -1.096505447e-01  1.346017817e-01
