! yapnr Order 0 O0-M: O0-M A02 M dL4.5 (line, family M)
! stackup OSHPARK-4L-FR408HR, nominal parameters; geometry of the OSHPARK-4L-FR408HR design
! model: 2D quasi-static RLGC (Djordjevic-Sarkar, Huray roughness, Wheeler loss); generated by python -m yapnr.rf.coupons expected --stackup OSHPARK-4L-FR408HR --upload M
! reference planes 10 mm from each end; 50 ohm (from the M line's Zc)
# GHz S DB R 50
0.03 -72.701 43.38 -0.0017661 -0.28 -0.0017661 -0.28 -72.701 43.38
0.06 -69.729 45.38 -0.0025909 -0.55 -0.0025909 -0.55 -69.729 45.38
0.09 -67.92 46.97 -0.0032746 -0.82 -0.0032746 -0.82 -67.92 46.97
0.12 -66.585 48.36 -0.0038859 -1.09 -0.0038859 -1.09 -66.585 48.36
0.15 -65.509 49.60 -0.0044515 -1.36 -0.0044515 -1.36 -65.509 49.60
0.18 -64.598 50.72 -0.004985 -1.63 -0.004985 -1.63 -64.598 50.72
0.21 -63.802 51.74 -0.0054946 -1.90 -0.0054946 -1.90 -63.802 51.74
0.24 -63.091 52.67 -0.0059855 -2.17 -0.0059855 -2.17 -63.091 52.67
0.27 -62.446 53.51 -0.0064612 -2.44 -0.0064612 -2.44 -62.446 53.51
0.3 -61.853 54.29 -0.0069243 -2.71 -0.0069243 -2.71 -61.853 54.29
0.33 -61.303 55.00 -0.0073769 -2.97 -0.0073769 -2.97 -61.303 55.00
0.36 -60.789 55.65 -0.0078203 -3.24 -0.0078203 -3.24 -60.789 55.65
0.39 -60.306 56.25 -0.0082558 -3.51 -0.0082558 -3.51 -60.306 56.25
0.42 -59.85 56.81 -0.0086844 -3.78 -0.0086844 -3.78 -59.85 56.81
0.45 -59.418 57.31 -0.0091067 -4.05 -0.0091067 -4.05 -59.418 57.31
0.48 -59.006 57.78 -0.0095236 -4.31 -0.0095236 -4.31 -59.006 57.78
0.51 -58.614 58.21 -0.0099354 -4.58 -0.0099354 -4.58 -58.614 58.21
0.54 -58.237 58.61 -0.010343 -4.85 -0.010343 -4.85 -58.237 58.61
0.57 -57.877 58.97 -0.010746 -5.12 -0.010746 -5.12 -57.877 58.97
0.6 -57.53 59.30 -0.011145 -5.38 -0.011145 -5.38 -57.53 59.30
0.63 -57.196 59.61 -0.011541 -5.65 -0.011541 -5.65 -57.196 59.61
0.66 -56.873 59.89 -0.011934 -5.92 -0.011934 -5.92 -56.873 59.89
0.69 -56.562 60.15 -0.012323 -6.19 -0.012323 -6.19 -56.562 60.15
0.72 -56.261 60.38 -0.01271 -6.45 -0.01271 -6.45 -56.261 60.38
0.75 -55.969 60.60 -0.013095 -6.72 -0.013095 -6.72 -55.969 60.60
0.78 -55.686 60.79 -0.013476 -6.99 -0.013476 -6.99 -55.686 60.79
0.81 -55.412 60.96 -0.013856 -7.26 -0.013856 -7.26 -55.412 60.96
0.84 -55.145 61.12 -0.014233 -7.52 -0.014233 -7.52 -55.145 61.12
0.87 -54.886 61.27 -0.014608 -7.79 -0.014608 -7.79 -54.886 61.27
0.9 -54.633 61.39 -0.014982 -8.06 -0.014982 -8.06 -54.633 61.39
0.93 -54.387 61.50 -0.015353 -8.32 -0.015353 -8.32 -54.387 61.50
0.96 -54.148 61.60 -0.015723 -8.59 -0.015723 -8.59 -54.148 61.60
0.99 -53.914 61.69 -0.016091 -8.86 -0.016091 -8.86 -53.914 61.69
1.02 -53.686 61.76 -0.016458 -9.12 -0.016458 -9.12 -53.686 61.76
1.05 -53.463 61.83 -0.016822 -9.39 -0.016822 -9.39 -53.463 61.83
1.08 -53.246 61.88 -0.017186 -9.66 -0.017186 -9.66 -53.246 61.88
1.11 -53.033 61.92 -0.017548 -9.93 -0.017548 -9.93 -53.033 61.92
1.14 -52.825 61.95 -0.017909 -10.19 -0.017909 -10.19 -52.825 61.95
1.17 -52.622 61.97 -0.018268 -10.46 -0.018268 -10.46 -52.622 61.97
1.2 -52.422 61.98 -0.018627 -10.73 -0.018627 -10.73 -52.422 61.98
1.23 -52.227 61.99 -0.018984 -10.99 -0.018984 -10.99 -52.227 61.99
1.26 -52.036 61.98 -0.01934 -11.26 -0.01934 -11.26 -52.036 61.98
1.29 -51.849 61.97 -0.019694 -11.53 -0.019694 -11.53 -51.849 61.97
1.32 -51.665 61.95 -0.020048 -11.79 -0.020048 -11.79 -51.665 61.95
1.35 -51.485 61.93 -0.020401 -12.06 -0.020401 -12.06 -51.485 61.93
1.38 -51.308 61.90 -0.020753 -12.33 -0.020753 -12.33 -51.308 61.90
1.41 -51.135 61.86 -0.021103 -12.59 -0.021103 -12.59 -51.135 61.86
1.44 -50.964 61.81 -0.021453 -12.86 -0.021453 -12.86 -50.964 61.81
1.47 -50.797 61.76 -0.021802 -13.13 -0.021802 -13.13 -50.797 61.76
1.5 -50.633 61.70 -0.02215 -13.39 -0.02215 -13.39 -50.633 61.70
1.53 -50.471 61.64 -0.022498 -13.66 -0.022498 -13.66 -50.471 61.64
1.56 -50.313 61.58 -0.022844 -13.93 -0.022844 -13.93 -50.313 61.58
1.59 -50.157 61.50 -0.023189 -14.19 -0.023189 -14.19 -50.157 61.50
1.62 -50.003 61.43 -0.023534 -14.46 -0.023534 -14.46 -50.003 61.43
1.65 -49.852 61.35 -0.023878 -14.73 -0.023878 -14.73 -49.852 61.35
1.68 -49.704 61.26 -0.024222 -14.99 -0.024222 -14.99 -49.704 61.26
1.71 -49.558 61.17 -0.024564 -15.26 -0.024564 -15.26 -49.558 61.17
1.74 -49.414 61.07 -0.024906 -15.53 -0.024906 -15.53 -49.414 61.07
1.77 -49.272 60.98 -0.025247 -15.79 -0.025247 -15.79 -49.272 60.98
1.8 -49.133 60.87 -0.025588 -16.06 -0.025588 -16.06 -49.133 60.87
1.83 -48.996 60.77 -0.025927 -16.33 -0.025927 -16.33 -48.996 60.77
1.86 -48.86 60.66 -0.026266 -16.59 -0.026266 -16.59 -48.86 60.66
1.89 -48.727 60.55 -0.026605 -16.86 -0.026605 -16.86 -48.727 60.55
1.92 -48.596 60.43 -0.026943 -17.12 -0.026943 -17.12 -48.596 60.43
1.95 -48.466 60.31 -0.02728 -17.39 -0.02728 -17.39 -48.466 60.31
1.98 -48.339 60.19 -0.027617 -17.66 -0.027617 -17.66 -48.339 60.19
2.01 -48.213 60.06 -0.027953 -17.92 -0.027953 -17.92 -48.213 60.06
2.04 -48.089 59.94 -0.028289 -18.19 -0.028289 -18.19 -48.089 59.94
2.07 -47.967 59.80 -0.028624 -18.46 -0.028624 -18.46 -47.967 59.80
2.1 -47.846 59.67 -0.028958 -18.72 -0.028958 -18.72 -47.846 59.67
2.13 -47.727 59.54 -0.029292 -18.99 -0.029292 -18.99 -47.727 59.54
2.16 -47.61 59.40 -0.029625 -19.26 -0.029625 -19.26 -47.61 59.40
2.19 -47.494 59.26 -0.029958 -19.52 -0.029958 -19.52 -47.494 59.26
2.22 -47.38 59.11 -0.030291 -19.79 -0.030291 -19.79 -47.38 59.11
2.25 -47.267 58.97 -0.030623 -20.06 -0.030623 -20.06 -47.267 58.97
2.28 -47.155 58.82 -0.030954 -20.32 -0.030954 -20.32 -47.155 58.82
2.31 -47.045 58.67 -0.031285 -20.59 -0.031285 -20.59 -47.045 58.67
2.34 -46.937 58.52 -0.031615 -20.85 -0.031615 -20.85 -46.937 58.52
2.37 -46.83 58.36 -0.031945 -21.12 -0.031945 -21.12 -46.83 58.36
2.4 -46.724 58.21 -0.032275 -21.39 -0.032275 -21.39 -46.724 58.21
2.43 -46.619 58.05 -0.032604 -21.65 -0.032604 -21.65 -46.619 58.05
2.46 -46.516 57.89 -0.032932 -21.92 -0.032932 -21.92 -46.516 57.89
2.49 -46.414 57.73 -0.033261 -22.19 -0.033261 -22.19 -46.414 57.73
2.52 -46.313 57.56 -0.033588 -22.45 -0.033588 -22.45 -46.313 57.56
2.55 -46.213 57.40 -0.033916 -22.72 -0.033916 -22.72 -46.213 57.40
2.58 -46.115 57.23 -0.034243 -22.98 -0.034243 -22.98 -46.115 57.23
2.61 -46.017 57.06 -0.034569 -23.25 -0.034569 -23.25 -46.017 57.06
2.64 -45.921 56.89 -0.034895 -23.52 -0.034895 -23.52 -45.921 56.89
2.67 -45.826 56.72 -0.035221 -23.78 -0.035221 -23.78 -45.826 56.72
2.7 -45.732 56.55 -0.035546 -24.05 -0.035546 -24.05 -45.732 56.55
2.73 -45.639 56.37 -0.035871 -24.32 -0.035871 -24.32 -45.639 56.37
2.76 -45.547 56.20 -0.036196 -24.58 -0.036196 -24.58 -45.547 56.20
2.79 -45.456 56.02 -0.03652 -24.85 -0.03652 -24.85 -45.456 56.02
2.82 -45.366 55.84 -0.036843 -25.11 -0.036843 -25.11 -45.366 55.84
2.85 -45.278 55.66 -0.037167 -25.38 -0.037167 -25.38 -45.278 55.66
2.88 -45.19 55.48 -0.03749 -25.65 -0.03749 -25.65 -45.19 55.48
2.91 -45.103 55.29 -0.037813 -25.91 -0.037813 -25.91 -45.103 55.29
2.94 -45.017 55.11 -0.038135 -26.18 -0.038135 -26.18 -45.017 55.11
2.97 -44.932 54.93 -0.038457 -26.45 -0.038457 -26.45 -44.932 54.93
3 -44.847 54.74 -0.038779 -26.71 -0.038779 -26.71 -44.847 54.74
3.03 -44.764 54.55 -0.0391 -26.98 -0.0391 -26.98 -44.764 54.55
3.06 -44.682 54.36 -0.039421 -27.24 -0.039421 -27.24 -44.682 54.36
3.09 -44.6 54.17 -0.039741 -27.51 -0.039741 -27.51 -44.6 54.17
3.12 -44.52 53.98 -0.040062 -27.78 -0.040062 -27.78 -44.52 53.98
3.15 -44.44 53.79 -0.040382 -28.04 -0.040382 -28.04 -44.44 53.79
3.18 -44.361 53.60 -0.040701 -28.31 -0.040701 -28.31 -44.361 53.60
3.21 -44.283 53.41 -0.04102 -28.58 -0.04102 -28.58 -44.283 53.41
3.24 -44.205 53.21 -0.041339 -28.84 -0.041339 -28.84 -44.205 53.21
3.27 -44.129 53.02 -0.041658 -29.11 -0.041658 -29.11 -44.129 53.02
3.3 -44.053 52.82 -0.041977 -29.37 -0.041977 -29.37 -44.053 52.82
3.33 -43.978 52.62 -0.042295 -29.64 -0.042295 -29.64 -43.978 52.62
3.36 -43.903 52.42 -0.042612 -29.91 -0.042612 -29.91 -43.903 52.42
3.39 -43.83 52.23 -0.04293 -30.17 -0.04293 -30.17 -43.83 52.23
3.42 -43.757 52.03 -0.043247 -30.44 -0.043247 -30.44 -43.757 52.03
3.45 -43.685 51.82 -0.043564 -30.70 -0.043564 -30.70 -43.685 51.82
3.48 -43.613 51.62 -0.04388 -30.97 -0.04388 -30.97 -43.613 51.62
3.51 -43.543 51.42 -0.044197 -31.24 -0.044197 -31.24 -43.543 51.42
3.54 -43.472 51.22 -0.044513 -31.50 -0.044513 -31.50 -43.472 51.22
3.57 -43.403 51.01 -0.044828 -31.77 -0.044828 -31.77 -43.403 51.01
3.6 -43.334 50.81 -0.045144 -32.03 -0.045144 -32.03 -43.334 50.81
3.63 -43.266 50.60 -0.045459 -32.30 -0.045459 -32.30 -43.266 50.60
3.66 -43.199 50.40 -0.045774 -32.57 -0.045774 -32.57 -43.199 50.40
3.69 -43.132 50.19 -0.046088 -32.83 -0.046088 -32.83 -43.132 50.19
3.72 -43.066 49.98 -0.046403 -33.10 -0.046403 -33.10 -43.066 49.98
3.75 -43.001 49.78 -0.046717 -33.37 -0.046717 -33.37 -43.001 49.78
3.78 -42.936 49.57 -0.04703 -33.63 -0.04703 -33.63 -42.936 49.57
3.81 -42.871 49.36 -0.047344 -33.90 -0.047344 -33.90 -42.871 49.36
3.84 -42.808 49.15 -0.047657 -34.16 -0.047657 -34.16 -42.808 49.15
3.87 -42.745 48.94 -0.04797 -34.43 -0.04797 -34.43 -42.745 48.94
3.9 -42.682 48.73 -0.048283 -34.70 -0.048283 -34.70 -42.682 48.73
3.93 -42.62 48.52 -0.048595 -34.96 -0.048595 -34.96 -42.62 48.52
3.96 -42.559 48.30 -0.048908 -35.23 -0.048908 -35.23 -42.559 48.30
3.99 -42.498 48.09 -0.049219 -35.49 -0.049219 -35.49 -42.498 48.09
4.02 -42.438 47.88 -0.049531 -35.76 -0.049531 -35.76 -42.438 47.88
4.05 -42.378 47.66 -0.049843 -36.03 -0.049843 -36.03 -42.378 47.66
4.08 -42.319 47.45 -0.050154 -36.29 -0.050154 -36.29 -42.319 47.45
4.11 -42.261 47.23 -0.050465 -36.56 -0.050465 -36.56 -42.261 47.23
4.14 -42.203 47.02 -0.050776 -36.82 -0.050776 -36.82 -42.203 47.02
4.17 -42.145 46.80 -0.051086 -37.09 -0.051086 -37.09 -42.145 46.80
4.2 -42.088 46.58 -0.051396 -37.36 -0.051396 -37.36 -42.088 46.58
4.23 -42.032 46.37 -0.051706 -37.62 -0.051706 -37.62 -42.032 46.37
4.26 -41.976 46.15 -0.052016 -37.89 -0.052016 -37.89 -41.976 46.15
4.29 -41.92 45.93 -0.052326 -38.15 -0.052326 -38.15 -41.92 45.93
4.32 -41.865 45.71 -0.052635 -38.42 -0.052635 -38.42 -41.865 45.71
4.35 -41.811 45.49 -0.052944 -38.69 -0.052944 -38.69 -41.811 45.49
4.38 -41.757 45.27 -0.053253 -38.95 -0.053253 -38.95 -41.757 45.27
4.41 -41.703 45.05 -0.053561 -39.22 -0.053561 -39.22 -41.703 45.05
4.44 -41.65 44.83 -0.05387 -39.48 -0.05387 -39.48 -41.65 44.83
4.47 -41.598 44.61 -0.054178 -39.75 -0.054178 -39.75 -41.598 44.61
4.5 -41.545 44.39 -0.054486 -40.02 -0.054486 -40.02 -41.545 44.39
4.53 -41.494 44.17 -0.054793 -40.28 -0.054793 -40.28 -41.494 44.17
4.56 -41.443 43.95 -0.055101 -40.55 -0.055101 -40.55 -41.443 43.95
4.59 -41.392 43.73 -0.055408 -40.81 -0.055408 -40.81 -41.392 43.73
4.62 -41.341 43.50 -0.055715 -41.08 -0.055715 -41.08 -41.341 43.50
4.65 -41.292 43.28 -0.056022 -41.35 -0.056022 -41.35 -41.292 43.28
4.68 -41.242 43.06 -0.056329 -41.61 -0.056329 -41.61 -41.242 43.06
4.71 -41.193 42.83 -0.056635 -41.88 -0.056635 -41.88 -41.193 42.83
4.74 -41.145 42.61 -0.056941 -42.15 -0.056941 -42.15 -41.145 42.61
4.77 -41.097 42.38 -0.057247 -42.41 -0.057247 -42.41 -41.097 42.38
4.8 -41.049 42.16 -0.057553 -42.68 -0.057553 -42.68 -41.049 42.16
4.83 -41.002 41.93 -0.057858 -42.94 -0.057858 -42.94 -41.002 41.93
4.86 -40.955 41.71 -0.058164 -43.21 -0.058164 -43.21 -40.955 41.71
4.89 -40.908 41.48 -0.058469 -43.48 -0.058469 -43.48 -40.908 41.48
4.92 -40.862 41.25 -0.058774 -43.74 -0.058774 -43.74 -40.862 41.25
4.95 -40.816 41.03 -0.059078 -44.01 -0.059078 -44.01 -40.816 41.03
4.98 -40.771 40.80 -0.059383 -44.27 -0.059383 -44.27 -40.771 40.80
5.01 -40.726 40.57 -0.059687 -44.54 -0.059687 -44.54 -40.726 40.57
5.04 -40.682 40.34 -0.059991 -44.81 -0.059991 -44.81 -40.682 40.34
5.07 -40.638 40.12 -0.060295 -45.07 -0.060295 -45.07 -40.638 40.12
5.1 -40.594 39.89 -0.060599 -45.34 -0.060599 -45.34 -40.594 39.89
5.13 -40.551 39.66 -0.060902 -45.60 -0.060902 -45.60 -40.551 39.66
5.16 -40.508 39.43 -0.061205 -45.87 -0.061205 -45.87 -40.508 39.43
5.19 -40.465 39.20 -0.061508 -46.14 -0.061508 -46.14 -40.465 39.20
5.22 -40.423 38.97 -0.061811 -46.40 -0.061811 -46.40 -40.423 38.97
5.25 -40.381 38.74 -0.062114 -46.67 -0.062114 -46.67 -40.381 38.74
5.28 -40.339 38.51 -0.062416 -46.93 -0.062416 -46.93 -40.339 38.51
5.31 -40.298 38.28 -0.062719 -47.20 -0.062719 -47.20 -40.298 38.28
5.34 -40.258 38.05 -0.063021 -47.47 -0.063021 -47.47 -40.258 38.05
5.37 -40.217 37.82 -0.063323 -47.73 -0.063323 -47.73 -40.217 37.82
5.4 -40.177 37.59 -0.063624 -48.00 -0.063624 -48.00 -40.177 37.59
5.43 -40.137 37.36 -0.063926 -48.26 -0.063926 -48.26 -40.137 37.36
5.46 -40.098 37.13 -0.064227 -48.53 -0.064227 -48.53 -40.098 37.13
5.49 -40.059 36.89 -0.064528 -48.80 -0.064528 -48.80 -40.059 36.89
5.52 -40.02 36.66 -0.064829 -49.06 -0.064829 -49.06 -40.02 36.66
5.55 -39.982 36.43 -0.06513 -49.33 -0.06513 -49.33 -39.982 36.43
5.58 -39.944 36.20 -0.06543 -49.59 -0.06543 -49.59 -39.944 36.20
5.61 -39.906 35.96 -0.065731 -49.86 -0.065731 -49.86 -39.906 35.96
5.64 -39.869 35.73 -0.066031 -50.13 -0.066031 -50.13 -39.869 35.73
5.67 -39.832 35.50 -0.066331 -50.39 -0.066331 -50.39 -39.832 35.50
5.7 -39.795 35.26 -0.066631 -50.66 -0.066631 -50.66 -39.795 35.26
5.73 -39.759 35.03 -0.06693 -50.92 -0.06693 -50.92 -39.759 35.03
5.76 -39.723 34.79 -0.06723 -51.19 -0.06723 -51.19 -39.723 34.79
5.79 -39.687 34.56 -0.067529 -51.46 -0.067529 -51.46 -39.687 34.56
5.82 -39.652 34.33 -0.067828 -51.72 -0.067828 -51.72 -39.652 34.33
5.85 -39.617 34.09 -0.068127 -51.99 -0.068127 -51.99 -39.617 34.09
5.88 -39.582 33.86 -0.068425 -52.25 -0.068425 -52.25 -39.582 33.86
5.91 -39.547 33.62 -0.068724 -52.52 -0.068724 -52.52 -39.547 33.62
5.94 -39.513 33.38 -0.069022 -52.79 -0.069022 -52.79 -39.513 33.38
5.97 -39.479 33.15 -0.06932 -53.05 -0.06932 -53.05 -39.479 33.15
6 -39.446 32.91 -0.069618 -53.32 -0.069618 -53.32 -39.446 32.91
