! yapnr Order 0 O0-M: O0-M A03 M dL13 (line, family M)
! stackup OSHPARK-4L-FR408HR, nominal parameters; geometry of the OSHPARK-4L-FR408HR design
! model: 2D quasi-static RLGC (Djordjevic-Sarkar, Huray roughness, Wheeler loss); generated by python -m yapnr.rf.coupons expected --stackup OSHPARK-4L-FR408HR --upload M
! reference planes 10 mm from each end; 50 ohm (from the M line's Zc)
# GHz S DB R 50
0.03 -63.52 42.84 -0.0050879 -0.81 -0.0050879 -0.81 -63.52 42.84
0.06 -60.58 44.34 -0.0074458 -1.59 -0.0074458 -1.59 -60.58 44.34
0.09 -58.8 45.45 -0.0093901 -2.37 -0.0093901 -2.37 -58.8 45.45
0.12 -57.492 46.35 -0.011121 -3.15 -0.011121 -3.15 -57.492 46.35
0.15 -56.443 47.12 -0.012716 -3.93 -0.012716 -3.93 -56.443 47.12
0.18 -55.558 47.78 -0.014215 -4.71 -0.014215 -4.71 -55.558 47.78
0.21 -54.786 48.33 -0.015643 -5.49 -0.015643 -5.49 -54.786 48.33
0.24 -54.098 48.80 -0.017014 -6.26 -0.017014 -6.26 -54.098 48.80
0.27 -53.475 49.19 -0.01834 -7.04 -0.01834 -7.04 -53.475 49.19
0.3 -52.903 49.51 -0.019627 -7.81 -0.019627 -7.81 -52.903 49.51
0.33 -52.374 49.77 -0.020882 -8.59 -0.020882 -8.59 -52.374 49.77
0.36 -51.881 49.97 -0.02211 -9.36 -0.02211 -9.36 -51.881 49.97
0.39 -51.418 50.11 -0.023313 -10.14 -0.023313 -10.14 -51.418 50.11
0.42 -50.981 50.21 -0.024494 -10.91 -0.024494 -10.91 -50.981 50.21
0.45 -50.568 50.27 -0.025657 -11.68 -0.025657 -11.68 -50.568 50.27
0.48 -50.175 50.28 -0.026803 -12.46 -0.026803 -12.46 -50.175 50.28
0.51 -49.8 50.26 -0.027933 -13.23 -0.027933 -13.23 -49.8 50.26
0.54 -49.443 50.20 -0.029049 -14.00 -0.029049 -14.00 -49.443 50.20
0.57 -49.1 50.10 -0.030152 -14.77 -0.030152 -14.77 -49.1 50.10
0.6 -48.771 49.98 -0.031244 -15.55 -0.031244 -15.55 -48.771 49.98
0.63 -48.455 49.83 -0.032324 -16.32 -0.032324 -16.32 -48.455 49.83
0.66 -48.151 49.65 -0.033395 -17.09 -0.033395 -17.09 -48.151 49.65
0.69 -47.857 49.45 -0.034456 -17.86 -0.034456 -17.86 -47.857 49.45
0.72 -47.574 49.22 -0.035509 -18.63 -0.035509 -18.63 -47.574 49.22
0.75 -47.301 48.98 -0.036553 -19.41 -0.036553 -19.41 -47.301 48.98
0.78 -47.036 48.71 -0.037589 -20.18 -0.037589 -20.18 -47.036 48.71
0.81 -46.78 48.42 -0.038619 -20.95 -0.038619 -20.95 -46.78 48.42
0.84 -46.532 48.12 -0.039641 -21.72 -0.039641 -21.72 -46.532 48.12
0.87 -46.292 47.79 -0.040658 -22.49 -0.040658 -22.49 -46.292 47.79
0.9 -46.058 47.46 -0.041668 -23.26 -0.041668 -23.26 -46.058 47.46
0.93 -45.831 47.10 -0.042672 -24.03 -0.042672 -24.03 -45.831 47.10
0.96 -45.611 46.73 -0.043671 -24.81 -0.043671 -24.81 -45.611 46.73
0.99 -45.397 46.35 -0.044664 -25.58 -0.044664 -25.58 -45.397 46.35
1.02 -45.189 45.96 -0.045653 -26.35 -0.045653 -26.35 -45.189 45.96
1.05 -44.987 45.55 -0.046637 -27.12 -0.046637 -27.12 -44.987 45.55
1.08 -44.79 45.13 -0.047616 -27.89 -0.047616 -27.89 -44.79 45.13
1.11 -44.598 44.70 -0.048591 -28.66 -0.048591 -28.66 -44.598 44.70
1.14 -44.411 44.26 -0.049561 -29.43 -0.049561 -29.43 -44.411 44.26
1.17 -44.23 43.81 -0.050528 -30.20 -0.050528 -30.20 -44.23 43.81
1.2 -44.052 43.35 -0.05149 -30.97 -0.05149 -30.97 -44.052 43.35
1.23 -43.879 42.88 -0.052449 -31.74 -0.052449 -31.74 -43.879 42.88
1.26 -43.711 42.40 -0.053404 -32.51 -0.053404 -32.51 -43.711 42.40
1.29 -43.547 41.92 -0.054356 -33.28 -0.054356 -33.28 -43.547 41.92
1.32 -43.386 41.42 -0.055305 -34.05 -0.055305 -34.05 -43.386 41.42
1.35 -43.23 40.92 -0.05625 -34.82 -0.05625 -34.82 -43.23 40.92
1.38 -43.077 40.41 -0.057192 -35.59 -0.057192 -35.59 -43.077 40.41
1.41 -42.928 39.90 -0.058131 -36.36 -0.058131 -36.36 -42.928 39.90
1.44 -42.783 39.38 -0.059067 -37.13 -0.059067 -37.13 -42.783 39.38
1.47 -42.641 38.85 -0.06 -37.90 -0.06 -37.90 -42.641 38.85
1.5 -42.503 38.31 -0.06093 -38.67 -0.06093 -38.67 -42.503 38.31
1.53 -42.367 37.77 -0.061858 -39.44 -0.061858 -39.44 -42.367 37.77
1.56 -42.235 37.22 -0.062783 -40.21 -0.062783 -40.21 -42.235 37.22
1.59 -42.107 36.67 -0.063705 -40.98 -0.063705 -40.98 -42.107 36.67
1.62 -41.981 36.12 -0.064625 -41.75 -0.064625 -41.75 -41.981 36.12
1.65 -41.858 35.55 -0.065542 -42.52 -0.065542 -42.52 -41.858 35.55
1.68 -41.738 34.99 -0.066457 -43.29 -0.066457 -43.29 -41.738 34.99
1.71 -41.621 34.42 -0.06737 -44.06 -0.06737 -44.06 -41.621 34.42
1.74 -41.506 33.84 -0.06828 -44.83 -0.06828 -44.83 -41.506 33.84
1.77 -41.395 33.26 -0.069189 -45.60 -0.069189 -45.60 -41.395 33.26
1.8 -41.286 32.68 -0.070095 -46.37 -0.070095 -46.37 -41.286 32.68
1.83 -41.179 32.09 -0.070999 -47.13 -0.070999 -47.13 -41.179 32.09
1.86 -41.075 31.50 -0.0719 -47.90 -0.0719 -47.90 -41.075 31.50
1.89 -40.974 30.90 -0.0728 -48.67 -0.0728 -48.67 -40.974 30.90
1.92 -40.875 30.30 -0.073698 -49.44 -0.073698 -49.44 -40.875 30.30
1.95 -40.778 29.70 -0.074594 -50.21 -0.074594 -50.21 -40.778 29.70
1.98 -40.684 29.09 -0.075487 -50.98 -0.075487 -50.98 -40.684 29.09
2.01 -40.592 28.48 -0.076379 -51.75 -0.076379 -51.75 -40.592 28.48
2.04 -40.503 27.87 -0.077269 -52.52 -0.077269 -52.52 -40.503 27.87
2.07 -40.415 27.25 -0.078158 -53.29 -0.078158 -53.29 -40.415 27.25
2.1 -40.33 26.64 -0.079044 -54.06 -0.079044 -54.06 -40.33 26.64
2.13 -40.247 26.01 -0.079929 -54.83 -0.079929 -54.83 -40.247 26.01
2.16 -40.166 25.39 -0.080812 -55.59 -0.080812 -55.59 -40.166 25.39
2.19 -40.087 24.76 -0.081693 -56.36 -0.081693 -56.36 -40.087 24.76
2.22 -40.01 24.14 -0.082573 -57.13 -0.082573 -57.13 -40.01 24.14
2.25 -39.936 23.50 -0.083451 -57.90 -0.083451 -57.90 -39.936 23.50
2.28 -39.863 22.87 -0.084327 -58.67 -0.084327 -58.67 -39.863 22.87
2.31 -39.792 22.23 -0.085201 -59.44 -0.085201 -59.44 -39.792 22.23
2.34 -39.724 21.59 -0.086074 -60.21 -0.086074 -60.21 -39.724 21.59
2.37 -39.657 20.95 -0.086946 -60.98 -0.086946 -60.98 -39.657 20.95
2.4 -39.592 20.31 -0.087816 -61.75 -0.087816 -61.75 -39.592 20.31
2.43 -39.529 19.67 -0.088684 -62.51 -0.088684 -62.51 -39.529 19.67
2.46 -39.467 19.02 -0.089551 -63.28 -0.089551 -63.28 -39.467 19.02
2.49 -39.408 18.37 -0.090417 -64.05 -0.090417 -64.05 -39.408 18.37
2.52 -39.351 17.72 -0.091281 -64.82 -0.091281 -64.82 -39.351 17.72
2.55 -39.295 17.07 -0.092143 -65.59 -0.092143 -65.59 -39.295 17.07
2.58 -39.241 16.41 -0.093004 -66.36 -0.093004 -66.36 -39.241 16.41
2.61 -39.189 15.76 -0.093864 -67.13 -0.093864 -67.13 -39.189 15.76
2.64 -39.138 15.10 -0.094722 -67.89 -0.094722 -67.89 -39.138 15.10
2.67 -39.09 14.44 -0.095579 -68.66 -0.095579 -68.66 -39.09 14.44
2.7 -39.043 13.78 -0.096434 -69.43 -0.096434 -69.43 -39.043 13.78
2.73 -38.997 13.12 -0.097288 -70.20 -0.097288 -70.20 -38.997 13.12
2.76 -38.954 12.45 -0.098141 -70.97 -0.098141 -70.97 -38.954 12.45
2.79 -38.912 11.79 -0.098993 -71.74 -0.098993 -71.74 -38.912 11.79
2.82 -38.872 11.12 -0.099843 -72.51 -0.099843 -72.51 -38.872 11.12
2.85 -38.833 10.45 -0.10069 -73.27 -0.10069 -73.27 -38.833 10.45
2.88 -38.796 9.78 -0.10154 -74.04 -0.10154 -74.04 -38.796 9.78
2.91 -38.761 9.11 -0.10239 -74.81 -0.10239 -74.81 -38.761 9.11
2.94 -38.727 8.44 -0.10323 -75.58 -0.10323 -75.58 -38.727 8.44
2.97 -38.695 7.77 -0.10407 -76.35 -0.10407 -76.35 -38.695 7.77
3 -38.665 7.09 -0.10492 -77.12 -0.10492 -77.12 -38.665 7.09
3.03 -38.636 6.42 -0.10576 -77.88 -0.10576 -77.88 -38.636 6.42
3.06 -38.608 5.74 -0.1066 -78.65 -0.1066 -78.65 -38.608 5.74
3.09 -38.583 5.06 -0.10744 -79.42 -0.10744 -79.42 -38.583 5.06
3.12 -38.559 4.38 -0.10827 -80.19 -0.10827 -80.19 -38.559 4.38
3.15 -38.536 3.70 -0.10911 -80.96 -0.10911 -80.96 -38.536 3.70
3.18 -38.515 3.02 -0.10995 -81.73 -0.10995 -81.73 -38.515 3.02
3.21 -38.496 2.34 -0.11078 -82.49 -0.11078 -82.49 -38.496 2.34
3.24 -38.478 1.66 -0.11161 -83.26 -0.11161 -83.26 -38.478 1.66
3.27 -38.462 0.98 -0.11244 -84.03 -0.11244 -84.03 -38.462 0.98
3.3 -38.447 0.29 -0.11327 -84.80 -0.11327 -84.80 -38.447 0.29
3.33 -38.434 -0.39 -0.1141 -85.57 -0.1141 -85.57 -38.434 -0.39
3.36 -38.422 -1.08 -0.11493 -86.34 -0.11493 -86.34 -38.422 -1.08
3.39 -38.412 -1.77 -0.11576 -87.10 -0.11576 -87.10 -38.412 -1.77
3.42 -38.403 -2.46 -0.11659 -87.87 -0.11659 -87.87 -38.403 -2.46
3.45 -38.396 -3.14 -0.11741 -88.64 -0.11741 -88.64 -38.396 -3.14
3.48 -38.391 -3.83 -0.11823 -89.41 -0.11823 -89.41 -38.391 -3.83
3.51 -38.387 -4.52 -0.11906 -90.18 -0.11906 -90.18 -38.387 -4.52
3.54 -38.385 -5.22 -0.11988 -90.94 -0.11988 -90.94 -38.385 -5.22
3.57 -38.384 -5.91 -0.1207 -91.71 -0.1207 -91.71 -38.384 -5.91
3.6 -38.384 -6.60 -0.12152 -92.48 -0.12152 -92.48 -38.384 -6.60
3.63 -38.387 -7.29 -0.12234 -93.25 -0.12234 -93.25 -38.387 -7.29
3.66 -38.391 -7.99 -0.12316 -94.02 -0.12316 -94.02 -38.391 -7.99
3.69 -38.396 -8.68 -0.12397 -94.79 -0.12397 -94.79 -38.396 -8.68
3.72 -38.403 -9.37 -0.12479 -95.55 -0.12479 -95.55 -38.403 -9.37
3.75 -38.411 -10.07 -0.1256 -96.32 -0.1256 -96.32 -38.411 -10.07
3.78 -38.421 -10.77 -0.12642 -97.09 -0.12642 -97.09 -38.421 -10.77
3.81 -38.433 -11.46 -0.12723 -97.86 -0.12723 -97.86 -38.433 -11.46
3.84 -38.446 -12.16 -0.12804 -98.63 -0.12804 -98.63 -38.446 -12.16
3.87 -38.461 -12.86 -0.12885 -99.39 -0.12885 -99.39 -38.461 -12.86
3.9 -38.478 -13.55 -0.12966 -100.16 -0.12966 -100.16 -38.478 -13.55
3.93 -38.496 -14.25 -0.13047 -100.93 -0.13047 -100.93 -38.496 -14.25
3.96 -38.515 -14.95 -0.13128 -101.70 -0.13128 -101.70 -38.515 -14.95
3.99 -38.537 -15.65 -0.13208 -102.47 -0.13208 -102.47 -38.537 -15.65
4.02 -38.56 -16.35 -0.13289 -103.23 -0.13289 -103.23 -38.56 -16.35
4.05 -38.584 -17.05 -0.13369 -104.00 -0.13369 -104.00 -38.584 -17.05
4.08 -38.61 -17.75 -0.1345 -104.77 -0.1345 -104.77 -38.61 -17.75
4.11 -38.638 -18.45 -0.1353 -105.54 -0.1353 -105.54 -38.638 -18.45
4.14 -38.668 -19.15 -0.1361 -106.31 -0.1361 -106.31 -38.668 -19.15
4.17 -38.699 -19.86 -0.1369 -107.07 -0.1369 -107.07 -38.699 -19.86
4.2 -38.732 -20.56 -0.1377 -107.84 -0.1377 -107.84 -38.732 -20.56
4.23 -38.767 -21.26 -0.1385 -108.61 -0.1385 -108.61 -38.767 -21.26
4.26 -38.803 -21.96 -0.1393 -109.38 -0.1393 -109.38 -38.803 -21.96
4.29 -38.841 -22.66 -0.1401 -110.15 -0.1401 -110.15 -38.841 -22.66
4.32 -38.881 -23.37 -0.1409 -110.91 -0.1409 -110.91 -38.881 -23.37
4.35 -38.923 -24.07 -0.14169 -111.68 -0.14169 -111.68 -38.923 -24.07
4.38 -38.966 -24.77 -0.14249 -112.45 -0.14249 -112.45 -38.966 -24.77
4.41 -39.012 -25.48 -0.14328 -113.22 -0.14328 -113.22 -39.012 -25.48
4.44 -39.059 -26.18 -0.14408 -113.99 -0.14408 -113.99 -39.059 -26.18
4.47 -39.108 -26.88 -0.14487 -114.75 -0.14487 -114.75 -39.108 -26.88
4.5 -39.159 -27.59 -0.14566 -115.52 -0.14566 -115.52 -39.159 -27.59
4.53 -39.212 -28.29 -0.14645 -116.29 -0.14645 -116.29 -39.212 -28.29
4.56 -39.267 -29.00 -0.14724 -117.06 -0.14724 -117.06 -39.267 -29.00
4.59 -39.324 -29.70 -0.14803 -117.83 -0.14803 -117.83 -39.324 -29.70
4.62 -39.383 -30.40 -0.14882 -118.59 -0.14882 -118.59 -39.383 -30.40
4.65 -39.443 -31.11 -0.14961 -119.36 -0.14961 -119.36 -39.443 -31.11
4.68 -39.506 -31.81 -0.1504 -120.13 -0.1504 -120.13 -39.506 -31.81
4.71 -39.571 -32.52 -0.15118 -120.90 -0.15118 -120.90 -39.571 -32.52
4.74 -39.639 -33.22 -0.15197 -121.67 -0.15197 -121.67 -39.639 -33.22
4.77 -39.708 -33.92 -0.15276 -122.43 -0.15276 -122.43 -39.708 -33.92
4.8 -39.779 -34.63 -0.15354 -123.20 -0.15354 -123.20 -39.779 -34.63
4.83 -39.853 -35.33 -0.15432 -123.97 -0.15432 -123.97 -39.853 -35.33
4.86 -39.929 -36.03 -0.15511 -124.74 -0.15511 -124.74 -39.929 -36.03
4.89 -40.007 -36.74 -0.15589 -125.51 -0.15589 -125.51 -40.007 -36.74
4.92 -40.088 -37.44 -0.15667 -126.27 -0.15667 -126.27 -40.088 -37.44
4.95 -40.171 -38.14 -0.15745 -127.04 -0.15745 -127.04 -40.171 -38.14
4.98 -40.257 -38.85 -0.15823 -127.81 -0.15823 -127.81 -40.257 -38.85
5.01 -40.345 -39.55 -0.15901 -128.58 -0.15901 -128.58 -40.345 -39.55
5.04 -40.435 -40.25 -0.15979 -129.35 -0.15979 -129.35 -40.435 -40.25
5.07 -40.528 -40.95 -0.16057 -130.11 -0.16057 -130.11 -40.528 -40.95
5.1 -40.624 -41.65 -0.16135 -130.88 -0.16135 -130.88 -40.624 -41.65
5.13 -40.723 -42.35 -0.16213 -131.65 -0.16213 -131.65 -40.723 -42.35
5.16 -40.824 -43.05 -0.1629 -132.42 -0.1629 -132.42 -40.824 -43.05
5.19 -40.929 -43.75 -0.16368 -133.19 -0.16368 -133.19 -40.929 -43.75
5.22 -41.036 -44.45 -0.16446 -133.95 -0.16446 -133.95 -41.036 -44.45
5.25 -41.146 -45.15 -0.16523 -134.72 -0.16523 -134.72 -41.146 -45.15
5.28 -41.26 -45.85 -0.16601 -135.49 -0.16601 -135.49 -41.26 -45.85
5.31 -41.376 -46.54 -0.16678 -136.26 -0.16678 -136.26 -41.376 -46.54
5.34 -41.496 -47.24 -0.16755 -137.03 -0.16755 -137.03 -41.496 -47.24
5.37 -41.619 -47.94 -0.16833 -137.79 -0.16833 -137.79 -41.619 -47.94
5.4 -41.746 -48.63 -0.1691 -138.56 -0.1691 -138.56 -41.746 -48.63
5.43 -41.876 -49.32 -0.16987 -139.33 -0.16987 -139.33 -41.876 -49.32
5.46 -42.01 -50.01 -0.17064 -140.10 -0.17064 -140.10 -42.01 -50.01
5.49 -42.147 -50.71 -0.17141 -140.87 -0.17141 -140.87 -42.147 -50.71
5.52 -42.289 -51.39 -0.17218 -141.63 -0.17218 -141.63 -42.289 -51.39
5.55 -42.434 -52.08 -0.17295 -142.40 -0.17295 -142.40 -42.434 -52.08
5.58 -42.584 -52.77 -0.17372 -143.17 -0.17372 -143.17 -42.584 -52.77
5.61 -42.738 -53.45 -0.17449 -143.94 -0.17449 -143.94 -42.738 -53.45
5.64 -42.897 -54.14 -0.17526 -144.71 -0.17526 -144.71 -42.897 -54.14
5.67 -43.06 -54.82 -0.17603 -145.47 -0.17603 -145.47 -43.06 -54.82
5.7 -43.228 -55.50 -0.1768 -146.24 -0.1768 -146.24 -43.228 -55.50
5.73 -43.402 -56.17 -0.17756 -147.01 -0.17756 -147.01 -43.402 -56.17
5.76 -43.58 -56.85 -0.17833 -147.78 -0.17833 -147.78 -43.58 -56.85
5.79 -43.764 -57.52 -0.1791 -148.55 -0.1791 -148.55 -43.764 -57.52
5.82 -43.954 -58.19 -0.17986 -149.31 -0.17986 -149.31 -43.954 -58.19
5.85 -44.149 -58.86 -0.18063 -150.08 -0.18063 -150.08 -44.149 -58.86
5.88 -44.351 -59.52 -0.18139 -150.85 -0.18139 -150.85 -44.351 -59.52
5.91 -44.56 -60.18 -0.18216 -151.62 -0.18216 -151.62 -44.56 -60.18
5.94 -44.775 -60.83 -0.18292 -152.39 -0.18292 -152.39 -44.775 -60.83
5.97 -44.997 -61.49 -0.18369 -153.15 -0.18369 -153.15 -44.997 -61.49
6 -45.228 -62.13 -0.18445 -153.92 -0.18445 -153.92 -45.228 -62.13
