! yapnr Order 0 O0-M: O0-M A04R M dL30 ROT (line, family M)
! stackup OSHPARK-4L-FR408HR, nominal parameters; geometry of the OSHPARK-4L-FR408HR design
! model: 2D quasi-static RLGC (Djordjevic-Sarkar, Huray roughness, Wheeler loss); generated by python -m yapnr.rf.coupons expected --stackup OSHPARK-4L-FR408HR --upload M
! reference planes 10 mm from each end; 50 ohm (from the M line's Zc)
# GHz S DB R 50
0.03 -56.265 41.79 -0.011741 -1.86 -0.011741 -1.86 -56.265 41.79
0.06 -53.331 42.26 -0.017182 -3.67 -0.017182 -3.67 -53.331 42.26
0.09 -51.559 42.35 -0.021669 -5.48 -0.021669 -5.48 -51.559 42.35
0.12 -50.262 42.24 -0.025664 -7.28 -0.025664 -7.28 -50.262 42.24
0.15 -49.226 41.99 -0.029346 -9.07 -0.029346 -9.07 -49.226 41.99
0.18 -48.355 41.63 -0.032808 -10.87 -0.032808 -10.87 -48.355 41.63
0.21 -47.6 41.17 -0.036104 -12.66 -0.036104 -12.66 -47.6 41.17
0.24 -46.932 40.63 -0.039269 -14.45 -0.039269 -14.45 -46.932 40.63
0.27 -46.33 40.01 -0.04233 -16.24 -0.04233 -16.24 -46.33 40.01
0.3 -45.782 39.32 -0.045302 -18.03 -0.045302 -18.03 -45.782 39.32
0.33 -45.279 38.57 -0.0482 -19.82 -0.0482 -19.82 -45.279 38.57
0.36 -44.814 37.76 -0.051034 -21.60 -0.051034 -21.60 -44.814 37.76
0.39 -44.382 36.90 -0.053812 -23.39 -0.053812 -23.39 -44.382 36.90
0.42 -43.978 35.99 -0.05654 -25.17 -0.05654 -25.17 -43.978 35.99
0.45 -43.6 35.04 -0.059225 -26.96 -0.059225 -26.96 -43.6 35.04
0.48 -43.245 34.05 -0.06187 -28.74 -0.06187 -28.74 -43.245 34.05
0.51 -42.911 33.02 -0.064479 -30.53 -0.064479 -30.53 -42.911 33.02
0.54 -42.596 31.96 -0.067055 -32.31 -0.067055 -32.31 -42.596 31.96
0.57 -42.298 30.86 -0.069602 -34.09 -0.069602 -34.09 -42.298 30.86
0.6 -42.017 29.73 -0.072121 -35.88 -0.072121 -35.88 -42.017 29.73
0.63 -41.751 28.58 -0.074615 -37.66 -0.074615 -37.66 -41.751 28.58
0.66 -41.499 27.40 -0.077085 -39.44 -0.077085 -39.44 -41.499 27.40
0.69 -41.26 26.20 -0.079534 -41.22 -0.079534 -41.22 -41.26 26.20
0.72 -41.035 24.97 -0.081961 -43.00 -0.081961 -43.00 -41.035 24.97
0.75 -40.821 23.72 -0.08437 -44.78 -0.08437 -44.78 -40.821 23.72
0.78 -40.62 22.46 -0.08676 -46.56 -0.08676 -46.56 -40.62 22.46
0.81 -40.429 21.17 -0.089133 -48.34 -0.089133 -48.34 -40.429 21.17
0.84 -40.249 19.87 -0.09149 -50.12 -0.09149 -50.12 -40.249 19.87
0.87 -40.079 18.55 -0.093831 -51.90 -0.093831 -51.90 -40.079 18.55
0.9 -39.919 17.21 -0.096158 -53.68 -0.096158 -53.68 -39.919 17.21
0.93 -39.769 15.86 -0.09847 -55.46 -0.09847 -55.46 -39.769 15.86
0.96 -39.628 14.49 -0.10077 -57.24 -0.10077 -57.24 -39.628 14.49
0.99 -39.496 13.12 -0.10306 -59.02 -0.10306 -59.02 -39.496 13.12
1.02 -39.373 11.72 -0.10533 -60.80 -0.10533 -60.80 -39.373 11.72
1.05 -39.259 10.32 -0.10759 -62.58 -0.10759 -62.58 -39.259 10.32
1.08 -39.153 8.91 -0.10984 -64.35 -0.10984 -64.35 -39.153 8.91
1.11 -39.055 7.49 -0.11208 -66.13 -0.11208 -66.13 -39.055 7.49
1.14 -38.966 6.05 -0.11431 -67.91 -0.11431 -67.91 -38.966 6.05
1.17 -38.884 4.61 -0.11653 -69.69 -0.11653 -69.69 -38.884 4.61
1.2 -38.811 3.16 -0.11874 -71.47 -0.11874 -71.47 -38.811 3.16
1.23 -38.745 1.70 -0.12094 -73.24 -0.12094 -73.24 -38.745 1.70
1.26 -38.687 0.23 -0.12313 -75.02 -0.12313 -75.02 -38.687 0.23
1.29 -38.637 -1.25 -0.12531 -76.80 -0.12531 -76.80 -38.637 -1.25
1.32 -38.594 -2.73 -0.12749 -78.57 -0.12749 -78.57 -38.594 -2.73
1.35 -38.559 -4.22 -0.12965 -80.35 -0.12965 -80.35 -38.559 -4.22
1.38 -38.532 -5.72 -0.13181 -82.13 -0.13181 -82.13 -38.532 -5.72
1.41 -38.512 -7.22 -0.13396 -83.90 -0.13396 -83.90 -38.512 -7.22
1.44 -38.499 -8.73 -0.1361 -85.68 -0.1361 -85.68 -38.499 -8.73
1.47 -38.495 -10.25 -0.13823 -87.46 -0.13823 -87.46 -38.495 -10.25
1.5 -38.497 -11.77 -0.14036 -89.23 -0.14036 -89.23 -38.497 -11.77
1.53 -38.508 -13.29 -0.14248 -91.01 -0.14248 -91.01 -38.508 -13.29
1.56 -38.526 -14.82 -0.14459 -92.79 -0.14459 -92.79 -38.526 -14.82
1.59 -38.551 -16.35 -0.1467 -94.56 -0.1467 -94.56 -38.551 -16.35
1.62 -38.585 -17.89 -0.1488 -96.34 -0.1488 -96.34 -38.585 -17.89
1.65 -38.626 -19.43 -0.15089 -98.11 -0.15089 -98.11 -38.626 -19.43
1.68 -38.676 -20.98 -0.15297 -99.89 -0.15297 -99.89 -38.676 -20.98
1.71 -38.733 -22.53 -0.15505 -101.67 -0.15505 -101.67 -38.733 -22.53
1.74 -38.799 -24.08 -0.15713 -103.44 -0.15713 -103.44 -38.799 -24.08
1.77 -38.873 -25.63 -0.1592 -105.22 -0.1592 -105.22 -38.873 -25.63
1.8 -38.955 -27.19 -0.16126 -106.99 -0.16126 -106.99 -38.955 -27.19
1.83 -39.046 -28.75 -0.16332 -108.77 -0.16332 -108.77 -39.046 -28.75
1.86 -39.146 -30.31 -0.16537 -110.54 -0.16537 -110.54 -39.146 -30.31
1.89 -39.256 -31.87 -0.16742 -112.32 -0.16742 -112.32 -39.256 -31.87
1.92 -39.374 -33.44 -0.16946 -114.09 -0.16946 -114.09 -39.374 -33.44
1.95 -39.503 -35.00 -0.1715 -115.87 -0.1715 -115.87 -39.503 -35.00
1.98 -39.641 -36.57 -0.17353 -117.64 -0.17353 -117.64 -39.641 -36.57
2.01 -39.79 -38.14 -0.17556 -119.42 -0.17556 -119.42 -39.79 -38.14
2.04 -39.949 -39.71 -0.17758 -121.19 -0.17758 -121.19 -39.949 -39.71
2.07 -40.119 -41.28 -0.1796 -122.97 -0.1796 -122.97 -40.119 -41.28
2.1 -40.301 -42.84 -0.18162 -124.74 -0.18162 -124.74 -40.301 -42.84
2.13 -40.495 -44.41 -0.18363 -126.52 -0.18363 -126.52 -40.495 -44.41
2.16 -40.702 -45.98 -0.18564 -128.29 -0.18564 -128.29 -40.702 -45.98
2.19 -40.922 -47.54 -0.18764 -130.07 -0.18764 -130.07 -40.922 -47.54
2.22 -41.156 -49.10 -0.18964 -131.84 -0.18964 -131.84 -41.156 -49.10
2.25 -41.405 -50.66 -0.19164 -133.61 -0.19164 -133.61 -41.405 -50.66
2.28 -41.67 -52.22 -0.19363 -135.39 -0.19363 -135.39 -41.67 -52.22
2.31 -41.951 -53.77 -0.19562 -137.16 -0.19562 -137.16 -41.951 -53.77
2.34 -42.25 -55.32 -0.19761 -138.94 -0.19761 -138.94 -42.25 -55.32
2.37 -42.568 -56.86 -0.19959 -140.71 -0.19959 -140.71 -42.568 -56.86
2.4 -42.906 -58.39 -0.20157 -142.49 -0.20157 -142.49 -42.906 -58.39
2.43 -43.267 -59.91 -0.20355 -144.26 -0.20355 -144.26 -43.267 -59.91
2.46 -43.652 -61.43 -0.20553 -146.03 -0.20553 -146.03 -43.652 -61.43
2.49 -44.064 -62.93 -0.2075 -147.81 -0.2075 -147.81 -44.064 -62.93
2.52 -44.504 -64.41 -0.20947 -149.58 -0.20947 -149.58 -44.504 -64.41
2.55 -44.977 -65.87 -0.21144 -151.36 -0.21144 -151.36 -44.977 -65.87
2.58 -45.486 -67.32 -0.2134 -153.13 -0.2134 -153.13 -45.486 -67.32
2.61 -46.035 -68.73 -0.21536 -154.90 -0.21536 -154.90 -46.035 -68.73
2.64 -46.63 -70.11 -0.21733 -156.68 -0.21733 -156.68 -46.63 -70.11
2.67 -47.277 -71.45 -0.21928 -158.45 -0.21928 -158.45 -47.277 -71.45
2.7 -47.985 -72.73 -0.22124 -160.22 -0.22124 -160.22 -47.985 -72.73
2.73 -48.765 -73.93 -0.2232 -162.00 -0.2232 -162.00 -48.765 -73.93
2.76 -49.63 -75.04 -0.22515 -163.77 -0.22515 -163.77 -49.63 -75.04
2.79 -50.6 -76.02 -0.2271 -165.55 -0.2271 -165.55 -50.6 -76.02
2.82 -51.699 -76.80 -0.22905 -167.32 -0.22905 -167.32 -51.699 -76.80
2.85 -52.965 -77.31 -0.231 -169.09 -0.231 -169.09 -52.965 -77.31
2.88 -54.452 -77.38 -0.23294 -170.87 -0.23294 -170.87 -54.452 -77.38
2.91 -56.245 -76.71 -0.23489 -172.64 -0.23489 -172.64 -56.245 -76.71
2.94 -58.489 -74.65 -0.23683 -174.41 -0.23683 -174.41 -58.489 -74.65
2.97 -61.44 -69.50 -0.23877 -176.19 -0.23877 -176.19 -61.44 -69.50
3 -65.494 -55.71 -0.24071 -177.96 -0.24071 -177.96 -65.494 -55.71
3.03 -69.535 -14.73 -0.24265 -179.73 -0.24265 -179.73 -69.535 -14.73
3.06 -66.86 36.09 -0.24459 178.49 -0.24459 178.49 -66.86 36.09
3.09 -62.468 55.00 -0.24653 176.72 -0.24653 176.72 -62.468 55.00
3.12 -59.239 61.72 -0.24846 174.95 -0.24846 174.95 -59.239 61.72
3.15 -56.821 64.42 -0.25039 173.17 -0.25039 173.17 -56.821 64.42
3.18 -54.912 65.39 -0.25233 171.40 -0.25233 171.40 -54.912 65.39
3.21 -53.344 65.48 -0.25426 169.63 -0.25426 169.63 -53.344 65.48
3.24 -52.018 65.06 -0.25618 167.85 -0.25618 167.85 -52.018 65.06
3.27 -50.871 64.33 -0.25811 166.08 -0.25811 166.08 -50.871 64.33
3.3 -49.864 63.39 -0.26004 164.31 -0.26004 164.31 -49.864 63.39
3.33 -48.967 62.29 -0.26196 162.53 -0.26196 162.53 -48.967 62.29
3.36 -48.161 61.09 -0.26389 160.76 -0.26389 160.76 -48.161 61.09
3.39 -47.43 59.81 -0.26581 158.99 -0.26581 158.99 -47.43 59.81
3.42 -46.762 58.47 -0.26773 157.22 -0.26773 157.22 -46.762 58.47
3.45 -46.15 57.07 -0.26965 155.44 -0.26965 155.44 -46.15 57.07
3.48 -45.585 55.64 -0.27157 153.67 -0.27157 153.67 -45.585 55.64
3.51 -45.062 54.18 -0.27348 151.90 -0.27348 151.90 -45.062 54.18
3.54 -44.576 52.68 -0.2754 150.12 -0.2754 150.12 -44.576 52.68
3.57 -44.123 51.17 -0.27731 148.35 -0.27731 148.35 -44.123 51.17
3.6 -43.701 49.64 -0.27922 146.58 -0.27922 146.58 -43.701 49.64
3.63 -43.305 48.09 -0.28113 144.81 -0.28113 144.81 -43.305 48.09
3.66 -42.935 46.53 -0.28304 143.03 -0.28304 143.03 -42.935 46.53
3.69 -42.587 44.96 -0.28495 141.26 -0.28495 141.26 -42.587 44.96
3.72 -42.261 43.38 -0.28685 139.49 -0.28685 139.49 -42.261 43.38
3.75 -41.954 41.78 -0.28876 137.72 -0.28876 137.72 -41.954 41.78
3.78 -41.666 40.19 -0.29066 135.94 -0.29066 135.94 -41.666 40.19
3.81 -41.394 38.58 -0.29256 134.17 -0.29256 134.17 -41.394 38.58
3.84 -41.139 36.97 -0.29445 132.40 -0.29445 132.40 -41.139 36.97
3.87 -40.899 35.35 -0.29635 130.62 -0.29635 130.62 -40.899 35.35
3.9 -40.673 33.73 -0.29824 128.85 -0.29824 128.85 -40.673 33.73
3.93 -40.461 32.10 -0.30013 127.08 -0.30013 127.08 -40.461 32.10
3.96 -40.263 30.47 -0.30202 125.31 -0.30202 125.31 -40.263 30.47
3.99 -40.076 28.83 -0.30391 123.53 -0.30391 123.53 -40.076 28.83
4.02 -39.902 27.19 -0.30579 121.76 -0.30579 121.76 -39.902 27.19
4.05 -39.738 25.55 -0.30767 119.99 -0.30767 119.99 -39.738 25.55
4.08 -39.586 23.91 -0.30955 118.22 -0.30955 118.22 -39.586 23.91
4.11 -39.445 22.26 -0.31143 116.44 -0.31143 116.44 -39.445 22.26
4.14 -39.314 20.62 -0.3133 114.67 -0.3133 114.67 -39.314 20.62
4.17 -39.193 18.97 -0.31517 112.90 -0.31517 112.90 -39.193 18.97
4.2 -39.082 17.32 -0.31704 111.13 -0.31704 111.13 -39.082 17.32
4.23 -38.981 15.66 -0.31891 109.36 -0.31891 109.36 -38.981 15.66
4.26 -38.888 14.01 -0.32078 107.58 -0.32078 107.58 -38.888 14.01
4.29 -38.805 12.35 -0.32264 105.81 -0.32264 105.81 -38.805 12.35
4.32 -38.731 10.70 -0.3245 104.04 -0.3245 104.04 -38.731 10.70
4.35 -38.666 9.04 -0.32635 102.27 -0.32635 102.27 -38.666 9.04
4.38 -38.609 7.38 -0.32821 100.49 -0.32821 100.49 -38.609 7.38
4.41 -38.561 5.73 -0.33006 98.72 -0.33006 98.72 -38.561 5.73
4.44 -38.521 4.07 -0.33191 96.95 -0.33191 96.95 -38.521 4.07
4.47 -38.49 2.41 -0.33376 95.18 -0.33376 95.18 -38.49 2.41
4.5 -38.467 0.75 -0.3356 93.41 -0.3356 93.41 -38.467 0.75
4.53 -38.453 -0.91 -0.33744 91.63 -0.33744 91.63 -38.453 -0.91
4.56 -38.447 -2.57 -0.33928 89.86 -0.33928 89.86 -38.447 -2.57
4.59 -38.449 -4.22 -0.34111 88.09 -0.34111 88.09 -38.449 -4.22
4.62 -38.46 -5.88 -0.34295 86.32 -0.34295 86.32 -38.46 -5.88
4.65 -38.478 -7.54 -0.34478 84.54 -0.34478 84.54 -38.478 -7.54
4.68 -38.506 -9.19 -0.34661 82.77 -0.34661 82.77 -38.506 -9.19
4.71 -38.541 -10.85 -0.34843 81.00 -0.34843 81.00 -38.541 -10.85
4.74 -38.585 -12.50 -0.35026 79.23 -0.35026 79.23 -38.585 -12.50
4.77 -38.638 -14.16 -0.35208 77.46 -0.35208 77.46 -38.638 -14.16
4.8 -38.7 -15.81 -0.35389 75.68 -0.35389 75.68 -38.7 -15.81
4.83 -38.77 -17.46 -0.35571 73.91 -0.35571 73.91 -38.77 -17.46
4.86 -38.849 -19.11 -0.35752 72.14 -0.35752 72.14 -38.849 -19.11
4.89 -38.938 -20.75 -0.35933 70.37 -0.35933 70.37 -38.938 -20.75
4.92 -39.035 -22.40 -0.36114 68.59 -0.36114 68.59 -39.035 -22.40
4.95 -39.143 -24.04 -0.36295 66.82 -0.36295 66.82 -39.143 -24.04
4.98 -39.26 -25.68 -0.36476 65.05 -0.36476 65.05 -39.26 -25.68
5.01 -39.387 -27.31 -0.36656 63.28 -0.36656 63.28 -39.387 -27.31
5.04 -39.525 -28.94 -0.36836 61.51 -0.36836 61.51 -39.525 -28.94
5.07 -39.673 -30.57 -0.37016 59.73 -0.37016 59.73 -39.673 -30.57
5.1 -39.833 -32.20 -0.37195 57.96 -0.37195 57.96 -39.833 -32.20
5.13 -40.004 -33.82 -0.37375 56.19 -0.37375 56.19 -40.004 -33.82
5.16 -40.187 -35.43 -0.37554 54.42 -0.37554 54.42 -40.187 -35.43
5.19 -40.382 -37.04 -0.37734 52.64 -0.37734 52.64 -40.382 -37.04
5.22 -40.591 -38.64 -0.37913 50.87 -0.37913 50.87 -40.591 -38.64
5.25 -40.813 -40.23 -0.38091 49.10 -0.38091 49.10 -40.813 -40.23
5.28 -41.05 -41.82 -0.3827 47.33 -0.3827 47.33 -41.05 -41.82
5.31 -41.302 -43.40 -0.38449 45.56 -0.38449 45.56 -41.302 -43.40
5.34 -41.57 -44.96 -0.38627 43.78 -0.38627 43.78 -41.57 -44.96
5.37 -41.856 -46.52 -0.38806 42.01 -0.38806 42.01 -41.856 -46.52
5.4 -42.16 -48.06 -0.38984 40.24 -0.38984 40.24 -42.16 -48.06
5.43 -42.483 -49.58 -0.39162 38.47 -0.39162 38.47 -42.483 -49.58
5.46 -42.828 -51.09 -0.3934 36.69 -0.3934 36.69 -42.828 -51.09
5.49 -43.196 -52.58 -0.39518 34.92 -0.39518 34.92 -43.196 -52.58
5.52 -43.588 -54.05 -0.39696 33.15 -0.39696 33.15 -43.588 -54.05
5.55 -44.008 -55.48 -0.39874 31.38 -0.39874 31.38 -44.008 -55.48
5.58 -44.458 -56.89 -0.40052 29.60 -0.40052 29.60 -44.458 -56.89
5.61 -44.942 -58.25 -0.4023 27.83 -0.4023 27.83 -44.942 -58.25
5.64 -45.462 -59.57 -0.40407 26.06 -0.40407 26.06 -45.462 -59.57
5.67 -46.025 -60.84 -0.40585 24.29 -0.40585 24.29 -46.025 -60.84
5.7 -46.635 -62.03 -0.40762 22.51 -0.40762 22.51 -46.635 -62.03
5.73 -47.299 -63.14 -0.4094 20.74 -0.4094 20.74 -47.299 -63.14
5.76 -48.026 -64.13 -0.41118 18.97 -0.41118 18.97 -48.026 -64.13
5.79 -48.828 -64.98 -0.41295 17.20 -0.41295 17.20 -48.828 -64.98
5.82 -49.718 -65.64 -0.41473 15.43 -0.41473 15.43 -49.718 -65.64
5.85 -50.715 -66.03 -0.4165 13.65 -0.4165 13.65 -50.715 -66.03
5.88 -51.845 -66.05 -0.41828 11.88 -0.41828 11.88 -51.845 -66.05
5.91 -53.143 -65.51 -0.42005 10.11 -0.42005 10.11 -53.143 -65.51
5.94 -54.656 -64.09 -0.42183 8.34 -0.42183 8.34 -54.656 -64.09
5.97 -56.455 -61.20 -0.4236 6.56 -0.4236 6.56 -56.455 -61.20
6 -58.62 -55.62 -0.42538 4.79 -0.42538 4.79 -58.62 -55.62
