! yapnr Order 0 O0-M: O0-M A05 M dL70 (line, family M)
! stackup OSHPARK-4L-FR408HR, nominal parameters; geometry of the OSHPARK-4L-FR408HR design
! model: 2D quasi-static RLGC (Djordjevic-Sarkar, Huray roughness, Wheeler loss); generated by python -m yapnr.rf.coupons expected --stackup OSHPARK-4L-FR408HR --upload M
! reference planes 10 mm from each end; 50 ohm (from the M line's Zc)
# GHz S DB R 50
0.03 -48.927 39.32 -0.027392 -4.34 -0.027392 -4.34 -48.927 39.32
0.06 -46.02 37.38 -0.040085 -8.57 -0.040085 -8.57 -46.02 37.38
0.09 -44.287 35.06 -0.050551 -12.78 -0.050551 -12.78 -44.287 35.06
0.12 -43.041 32.57 -0.059867 -16.98 -0.059867 -16.98 -43.041 32.57
0.15 -42.067 29.94 -0.068451 -21.17 -0.068451 -21.17 -42.067 29.94
0.18 -41.272 27.20 -0.07652 -25.35 -0.07652 -25.35 -41.272 27.20
0.21 -40.606 24.37 -0.084199 -29.54 -0.084199 -29.54 -40.606 24.37
0.24 -40.039 21.46 -0.091573 -33.71 -0.091573 -33.71 -40.039 21.46
0.27 -39.553 18.48 -0.098697 -37.89 -0.098697 -37.89 -39.553 18.48
0.3 -39.134 15.43 -0.10561 -42.06 -0.10561 -42.06 -39.134 15.43
0.33 -38.774 12.32 -0.11235 -46.23 -0.11235 -46.23 -38.774 12.32
0.36 -38.466 9.16 -0.11894 -50.40 -0.11894 -50.40 -38.466 9.16
0.39 -38.206 5.95 -0.12539 -54.57 -0.12539 -54.57 -38.206 5.95
0.42 -37.991 2.69 -0.13172 -58.74 -0.13172 -58.74 -37.991 2.69
0.45 -37.817 -0.60 -0.13794 -62.90 -0.13794 -62.90 -37.817 -0.60
0.48 -37.683 -3.93 -0.14407 -67.06 -0.14407 -67.06 -37.683 -3.93
0.51 -37.587 -7.30 -0.15011 -71.22 -0.15011 -71.22 -37.587 -7.30
0.54 -37.528 -10.69 -0.15607 -75.39 -0.15607 -75.39 -37.528 -10.69
0.57 -37.507 -14.11 -0.16196 -79.55 -0.16196 -79.55 -37.507 -14.11
0.6 -37.522 -17.56 -0.16778 -83.70 -0.16778 -83.70 -37.522 -17.56
0.63 -37.574 -21.03 -0.17354 -87.86 -0.17354 -87.86 -37.574 -21.03
0.66 -37.664 -24.52 -0.17925 -92.02 -0.17925 -92.02 -37.664 -24.52
0.69 -37.792 -28.03 -0.1849 -96.18 -0.1849 -96.18 -37.792 -28.03
0.72 -37.96 -31.55 -0.1905 -100.33 -0.1905 -100.33 -37.96 -31.55
0.75 -38.169 -35.09 -0.19605 -104.49 -0.19605 -104.49 -38.169 -35.09
0.78 -38.421 -38.64 -0.20156 -108.64 -0.20156 -108.64 -38.421 -38.64
0.81 -38.719 -42.19 -0.20704 -112.80 -0.20704 -112.80 -38.719 -42.19
0.84 -39.067 -45.75 -0.21247 -116.95 -0.21247 -116.95 -39.067 -45.75
0.87 -39.468 -49.31 -0.21788 -121.10 -0.21788 -121.10 -39.468 -49.31
0.9 -39.927 -52.86 -0.22325 -125.25 -0.22325 -125.25 -39.927 -52.86
0.93 -40.451 -56.40 -0.22859 -129.41 -0.22859 -129.41 -40.451 -56.40
0.96 -41.049 -59.93 -0.23391 -133.56 -0.23391 -133.56 -41.049 -59.93
0.99 -41.73 -63.44 -0.23919 -137.71 -0.23919 -137.71 -41.73 -63.44
1.02 -42.51 -66.90 -0.24446 -141.86 -0.24446 -141.86 -42.51 -66.90
1.05 -43.406 -70.30 -0.24971 -146.01 -0.24971 -146.01 -43.406 -70.30
1.08 -44.446 -73.62 -0.25493 -150.16 -0.25493 -150.16 -44.446 -73.62
1.11 -45.667 -76.80 -0.26013 -154.31 -0.26013 -154.31 -45.667 -76.80
1.14 -47.128 -79.77 -0.26532 -158.46 -0.26532 -158.46 -47.128 -79.77
1.17 -48.923 -82.35 -0.27049 -162.61 -0.27049 -162.61 -48.923 -82.35
1.2 -51.222 -84.19 -0.27565 -166.75 -0.27565 -166.75 -51.222 -84.19
1.23 -54.372 -84.31 -0.28079 -170.90 -0.28079 -170.90 -54.372 -84.31
1.26 -59.241 -78.78 -0.28591 -175.05 -0.28591 -175.05 -59.241 -78.78
1.29 -67.367 -36.17 -0.29102 -179.20 -0.29102 -179.20 -67.367 -36.17
1.32 -61.996 42.42 -0.29612 176.66 -0.29612 176.66 -61.996 42.42
1.35 -56.009 54.02 -0.3012 172.51 -0.3012 172.51 -56.009 54.02
1.38 -52.401 55.18 -0.30628 168.36 -0.30628 168.36 -52.401 55.18
1.41 -49.876 53.77 -0.31133 164.22 -0.31133 164.22 -49.876 53.77
1.44 -47.956 51.36 -0.31638 160.07 -0.31638 160.07 -47.956 51.36
1.47 -46.424 48.45 -0.32141 155.93 -0.32141 155.93 -46.424 48.45
1.5 -45.163 45.26 -0.32642 151.78 -0.32642 151.78 -45.163 45.26
1.53 -44.103 41.90 -0.33142 147.64 -0.33142 147.64 -44.103 41.90
1.56 -43.201 38.42 -0.33641 143.49 -0.33641 143.49 -43.201 38.42
1.59 -42.427 34.86 -0.34138 139.35 -0.34138 139.35 -42.427 34.86
1.62 -41.758 31.25 -0.34634 135.20 -0.34634 135.20 -41.758 31.25
1.65 -41.181 27.59 -0.35128 131.06 -0.35128 131.06 -41.181 27.59
1.68 -40.683 23.89 -0.35621 126.92 -0.35621 126.92 -40.683 23.89
1.71 -40.255 20.17 -0.36112 122.77 -0.36112 122.77 -40.255 20.17
1.74 -39.891 16.43 -0.36601 118.63 -0.36601 118.63 -39.891 16.43
1.77 -39.585 12.68 -0.37089 114.49 -0.37089 114.49 -39.585 12.68
1.8 -39.334 8.91 -0.37575 110.35 -0.37575 110.35 -39.334 8.91
1.83 -39.134 5.13 -0.3806 106.20 -0.3806 106.20 -39.134 5.13
1.86 -38.982 1.35 -0.38542 102.06 -0.38542 102.06 -38.982 1.35
1.89 -38.878 -2.44 -0.39024 97.92 -0.39024 97.92 -38.878 -2.44
1.92 -38.82 -6.24 -0.39503 93.78 -0.39503 93.78 -38.82 -6.24
1.95 -38.807 -10.03 -0.39981 89.64 -0.39981 89.64 -38.807 -10.03
1.98 -38.839 -13.82 -0.40457 85.50 -0.40457 85.50 -38.839 -13.82
2.01 -38.916 -17.61 -0.40932 81.35 -0.40932 81.35 -38.916 -17.61
2.04 -39.039 -21.39 -0.41406 77.21 -0.41406 77.21 -39.039 -21.39
2.07 -39.21 -25.16 -0.41878 73.07 -0.41878 73.07 -39.21 -25.16
2.1 -39.429 -28.93 -0.42349 68.93 -0.42349 68.93 -39.429 -28.93
2.13 -39.701 -32.67 -0.42819 64.79 -0.42819 64.79 -39.701 -32.67
2.16 -40.027 -36.40 -0.43287 60.65 -0.43287 60.65 -40.027 -36.40
2.19 -40.413 -40.10 -0.43755 56.51 -0.43755 56.51 -40.413 -40.10
2.22 -40.864 -43.77 -0.44221 52.37 -0.44221 52.37 -40.864 -43.77
2.25 -41.386 -47.39 -0.44687 48.23 -0.44687 48.23 -41.386 -47.39
2.28 -41.988 -50.97 -0.45152 44.09 -0.45152 44.09 -41.988 -50.97
2.31 -42.684 -54.46 -0.45617 39.95 -0.45617 39.95 -42.684 -54.46
2.34 -43.488 -57.86 -0.4608 35.81 -0.4608 35.81 -43.488 -57.86
2.37 -44.422 -61.12 -0.46544 31.67 -0.46544 31.67 -44.422 -61.12
2.4 -45.517 -64.18 -0.47007 27.53 -0.47007 27.53 -45.517 -64.18
2.43 -46.818 -66.93 -0.47469 23.39 -0.47469 23.39 -46.818 -66.93
2.46 -48.395 -69.18 -0.47932 19.25 -0.47932 19.25 -48.395 -69.18
2.49 -50.363 -70.53 -0.48394 15.11 -0.48394 15.11 -50.363 -70.53
2.52 -52.928 -70.04 -0.48856 10.97 -0.48856 10.97 -52.928 -70.04
2.55 -56.483 -64.91 -0.49317 6.83 -0.49317 6.83 -56.483 -64.91
2.58 -61.484 -43.68 -0.49779 2.69 -0.49779 2.69 -61.484 -43.68
2.61 -62.882 15.29 -0.5024 -1.45 -0.5024 -1.45 -62.882 15.29
2.64 -57.789 46.85 -0.50701 -5.58 -0.50701 -5.58 -57.789 46.85
2.67 -53.839 54.68 -0.51163 -9.72 -0.51163 -9.72 -53.839 54.68
2.7 -51.043 56.06 -0.51623 -13.86 -0.51623 -13.86 -51.043 56.06
2.73 -48.932 55.10 -0.52084 -18.00 -0.52084 -18.00 -48.932 55.10
2.76 -47.26 53.06 -0.52544 -22.14 -0.52544 -22.14 -47.26 53.06
2.79 -45.891 50.43 -0.53004 -26.28 -0.53004 -26.28 -45.891 50.43
2.82 -44.745 47.44 -0.53464 -30.42 -0.53464 -30.42 -44.745 47.44
2.85 -43.771 44.23 -0.53923 -34.55 -0.53923 -34.55 -43.771 44.23
2.88 -42.935 40.86 -0.54382 -38.69 -0.54382 -38.69 -42.935 40.86
2.91 -42.214 37.39 -0.5484 -42.83 -0.5484 -42.83 -42.214 37.39
2.94 -41.589 33.83 -0.55297 -46.97 -0.55297 -46.97 -41.589 33.83
2.97 -41.048 30.22 -0.55754 -51.10 -0.55754 -51.10 -41.048 30.22
3 -40.581 26.56 -0.56209 -55.24 -0.56209 -55.24 -40.581 26.56
3.03 -40.181 22.87 -0.56664 -59.38 -0.56664 -59.38 -40.181 22.87
3.06 -39.842 19.15 -0.57118 -63.52 -0.57118 -63.52 -39.842 19.15
3.09 -39.559 15.41 -0.57571 -67.65 -0.57571 -67.65 -39.559 15.41
3.12 -39.328 11.65 -0.58023 -71.79 -0.58023 -71.79 -39.328 11.65
3.15 -39.148 7.88 -0.58474 -75.93 -0.58474 -75.93 -39.148 7.88
3.18 -39.015 4.11 -0.58924 -80.07 -0.58924 -80.07 -39.015 4.11
3.21 -38.929 0.33 -0.59373 -84.20 -0.59373 -84.20 -38.929 0.33
3.24 -38.888 -3.44 -0.5982 -88.34 -0.5982 -88.34 -38.888 -3.44
3.27 -38.893 -7.22 -0.60267 -92.48 -0.60267 -92.48 -38.893 -7.22
3.3 -38.942 -10.99 -0.60712 -96.61 -0.60712 -96.61 -38.942 -10.99
3.33 -39.037 -14.75 -0.61157 -100.75 -0.61157 -100.75 -39.037 -14.75
3.36 -39.179 -18.50 -0.616 -104.89 -0.616 -104.89 -39.179 -18.50
3.39 -39.369 -22.24 -0.62043 -109.02 -0.62043 -109.02 -39.369 -22.24
3.42 -39.61 -25.96 -0.62485 -113.16 -0.62485 -113.16 -39.61 -25.96
3.45 -39.903 -29.65 -0.62926 -117.30 -0.62926 -117.30 -39.903 -29.65
3.48 -40.254 -33.30 -0.63366 -121.43 -0.63366 -121.43 -40.254 -33.30
3.51 -40.665 -36.92 -0.63805 -125.57 -0.63805 -125.57 -40.665 -36.92
3.54 -41.145 -40.48 -0.64244 -129.70 -0.64244 -129.70 -41.145 -40.48
3.57 -41.699 -43.98 -0.64683 -133.84 -0.64683 -133.84 -41.699 -43.98
3.6 -42.339 -47.38 -0.65121 -137.98 -0.65121 -137.98 -42.339 -47.38
3.63 -43.077 -50.67 -0.65558 -142.11 -0.65558 -142.11 -43.077 -50.67
3.66 -43.932 -53.80 -0.65996 -146.25 -0.65996 -146.25 -43.932 -53.80
3.69 -44.927 -56.70 -0.66433 -150.39 -0.66433 -150.39 -44.927 -56.70
3.72 -46.098 -59.26 -0.6687 -154.52 -0.6687 -154.52 -46.098 -59.26
3.75 -47.494 -61.30 -0.67307 -158.66 -0.67307 -158.66 -47.494 -61.30
3.78 -49.196 -62.47 -0.67745 -162.80 -0.67745 -162.80 -49.196 -62.47
3.81 -51.326 -62.00 -0.68182 -166.93 -0.68182 -166.93 -51.326 -62.00
3.84 -54.085 -58.09 -0.68619 -171.07 -0.68619 -171.07 -54.085 -58.09
3.87 -57.661 -45.40 -0.69057 -175.20 -0.69057 -175.20 -57.661 -45.40
3.9 -60.747 -11.08 -0.69494 -179.34 -0.69494 -179.34 -60.747 -11.08
3.93 -58.832 30.14 -0.69932 176.52 -0.69932 176.52 -58.832 30.14
3.96 -55.081 47.79 -0.7037 172.39 -0.7037 172.39 -55.081 47.79
3.99 -52.083 53.52 -0.70808 168.25 -0.70808 168.25 -52.083 53.52
4.02 -49.786 54.75 -0.71246 164.11 -0.71246 164.11 -49.786 54.75
4.05 -47.971 53.98 -0.71684 159.98 -0.71684 159.98 -47.971 53.98
4.08 -46.491 52.17 -0.72123 155.84 -0.72123 155.84 -46.491 52.17
4.11 -45.258 49.75 -0.72561 151.71 -0.72561 151.71 -45.258 49.75
4.14 -44.213 46.95 -0.72999 147.57 -0.72999 147.57 -44.213 46.95
4.17 -43.318 43.89 -0.73436 143.43 -0.73436 143.43 -43.318 43.89
4.2 -42.546 40.66 -0.73874 139.30 -0.73874 139.30 -42.546 40.66
4.23 -41.878 37.30 -0.74311 135.16 -0.74311 135.16 -41.878 37.30
4.26 -41.298 33.85 -0.74748 131.03 -0.74748 131.03 -41.298 33.85
4.29 -40.796 30.33 -0.75184 126.89 -0.75184 126.89 -40.796 30.33
4.32 -40.364 26.75 -0.75619 122.76 -0.75619 122.76 -40.364 26.75
4.35 -39.995 23.14 -0.76054 118.62 -0.76054 118.62 -39.995 23.14
4.38 -39.684 19.49 -0.76489 114.49 -0.76489 114.49 -39.684 19.49
4.41 -39.427 15.81 -0.76922 110.35 -0.76922 110.35 -39.427 15.81
4.44 -39.221 12.12 -0.77355 106.22 -0.77355 106.22 -39.221 12.12
4.47 -39.063 8.42 -0.77786 102.08 -0.77786 102.08 -39.063 8.42
4.5 -38.953 4.71 -0.78217 97.94 -0.78217 97.94 -38.953 4.71
4.53 -38.889 0.99 -0.78647 93.81 -0.78647 93.81 -38.889 0.99
4.56 -38.869 -2.73 -0.79076 89.67 -0.79076 89.67 -38.869 -2.73
4.59 -38.895 -6.44 -0.79504 85.54 -0.79504 85.54 -38.895 -6.44
4.62 -38.965 -10.14 -0.79932 81.40 -0.79932 81.40 -38.965 -10.14
4.65 -39.082 -13.84 -0.80358 77.27 -0.80358 77.27 -39.082 -13.84
4.68 -39.246 -17.51 -0.80783 73.13 -0.80783 73.13 -39.246 -17.51
4.71 -39.458 -21.17 -0.81208 69.00 -0.81208 69.00 -39.458 -21.17
4.74 -39.722 -24.79 -0.81632 64.86 -0.81632 64.86 -39.722 -24.79
4.77 -40.04 -28.38 -0.82056 60.73 -0.82056 60.73 -40.04 -28.38
4.8 -40.417 -31.92 -0.82478 56.59 -0.82478 56.59 -40.417 -31.92
4.83 -40.857 -35.41 -0.82901 52.46 -0.82901 52.46 -40.857 -35.41
4.86 -41.368 -38.82 -0.83322 48.32 -0.83322 48.32 -41.368 -38.82
4.89 -41.957 -42.13 -0.83744 44.19 -0.83744 44.19 -41.957 -42.13
4.92 -42.636 -45.32 -0.84165 40.05 -0.84165 40.05 -42.636 -45.32
4.95 -43.419 -48.34 -0.84586 35.92 -0.84586 35.92 -43.419 -48.34
4.98 -44.325 -51.12 -0.85007 31.78 -0.85007 31.78 -44.325 -51.12
5.01 -45.382 -53.56 -0.85428 27.65 -0.85428 27.65 -45.382 -53.56
5.04 -46.627 -55.50 -0.85849 23.51 -0.85849 23.51 -46.627 -55.50
5.07 -48.114 -56.63 -0.8627 19.37 -0.8627 19.37 -48.114 -56.63
5.1 -49.923 -56.39 -0.86691 15.24 -0.86691 15.24 -49.923 -56.39
5.13 -52.167 -53.56 -0.87113 11.10 -0.87113 11.10 -52.167 -53.56
5.16 -54.941 -45.23 -0.87534 6.97 -0.87534 6.97 -54.941 -45.23
5.19 -57.856 -24.86 -0.87956 2.83 -0.87956 2.83 -57.856 -24.86
5.22 -58.527 9.80 -0.88378 -1.30 -0.88378 -1.30 -58.527 9.80
5.25 -56.009 36.12 -0.88801 -5.44 -0.88801 -5.44 -56.009 36.12
5.28 -53.077 47.71 -0.89223 -9.57 -0.89223 -9.57 -53.077 47.71
5.31 -50.652 52.00 -0.89646 -13.71 -0.89646 -13.71 -50.652 52.00
5.34 -48.704 52.96 -0.9007 -17.85 -0.9007 -17.85 -48.704 52.96
5.37 -47.114 52.23 -0.90493 -21.98 -0.90493 -21.98 -47.114 52.23
5.4 -45.791 50.55 -0.90916 -26.12 -0.90916 -26.12 -45.791 50.55
5.43 -44.673 48.27 -0.9134 -30.25 -0.9134 -30.25 -44.673 48.27
5.46 -43.717 45.61 -0.91763 -34.39 -0.91763 -34.39 -43.717 45.61
5.49 -42.892 42.69 -0.92186 -38.52 -0.92186 -38.52 -42.892 42.69
5.52 -42.178 39.57 -0.9261 -42.66 -0.9261 -42.66 -42.178 39.57
5.55 -41.558 36.33 -0.93033 -46.79 -0.93033 -46.79 -41.558 36.33
5.58 -41.02 32.97 -0.93455 -50.93 -0.93455 -50.93 -41.02 32.97
5.61 -40.555 29.54 -0.93877 -55.06 -0.93877 -55.06 -40.555 29.54
5.64 -40.156 26.05 -0.94299 -59.20 -0.94299 -59.20 -40.156 26.05
5.67 -39.817 22.52 -0.9472 -63.34 -0.9472 -63.34 -39.817 22.52
5.7 -39.534 18.94 -0.9514 -67.47 -0.9514 -67.47 -39.534 18.94
5.73 -39.302 15.34 -0.9556 -71.61 -0.9556 -71.61 -39.302 15.34
5.76 -39.121 11.72 -0.95979 -75.74 -0.95979 -75.74 -39.121 11.72
5.79 -38.987 8.09 -0.96398 -79.88 -0.96398 -79.88 -38.987 8.09
5.82 -38.899 4.45 -0.96815 -84.01 -0.96815 -84.01 -38.899 4.45
5.85 -38.856 0.81 -0.97232 -88.15 -0.97232 -88.15 -38.856 0.81
5.88 -38.858 -2.84 -0.97648 -92.28 -0.97648 -92.28 -38.858 -2.84
5.91 -38.905 -6.47 -0.98062 -96.42 -0.98062 -96.42 -38.905 -6.47
5.94 -38.997 -10.10 -0.98477 -100.55 -0.98477 -100.55 -38.997 -10.10
5.97 -39.135 -13.71 -0.9889 -104.69 -0.9889 -104.69 -39.135 -13.71
6 -39.321 -17.29 -0.99303 -108.82 -0.99303 -108.82 -39.321 -17.29
