! yapnr Order 0 O0-M: O0-M A07 M VER21 (verify, family M)
! stackup OSHPARK-4L-FR408HR, nominal parameters; geometry of the OSHPARK-4L-FR408HR design
! model: 2D quasi-static RLGC (Djordjevic-Sarkar, Huray roughness, Wheeler loss); generated by python -m yapnr.rf.coupons expected --stackup OSHPARK-4L-FR408HR --upload M
! reference planes 10 mm from each end; 50 ohm (from the M line's Zc)
# GHz S DB R 50
0.03 -59.328 42.35 -0.0082417 -1.30 -0.0082417 -1.30 -59.328 42.35
0.06 -56.361 43.36 -0.012091 -2.57 -0.012091 -2.57 -56.361 43.36
0.09 -54.558 43.96 -0.015282 -3.83 -0.015282 -3.83 -54.558 43.96
0.12 -53.23 44.36 -0.018135 -5.09 -0.018135 -5.09 -53.23 44.36
0.15 -52.162 44.62 -0.020776 -6.35 -0.020776 -6.35 -52.162 44.62
0.18 -51.261 44.75 -0.023267 -7.61 -0.023267 -7.61 -51.261 44.75
0.21 -50.476 44.78 -0.025647 -8.86 -0.025647 -8.86 -50.476 44.78
0.24 -49.776 44.73 -0.02794 -10.12 -0.02794 -10.12 -49.776 44.73
0.27 -49.144 44.59 -0.030162 -11.37 -0.030162 -11.37 -49.144 44.59
0.3 -48.565 44.39 -0.032325 -12.62 -0.032325 -12.62 -48.565 44.39
0.33 -48.031 44.12 -0.034439 -13.88 -0.034439 -13.88 -48.031 44.12
0.36 -47.534 43.79 -0.036511 -15.13 -0.036511 -15.13 -47.534 43.79
0.39 -47.07 43.41 -0.038546 -16.38 -0.038546 -16.38 -47.07 43.41
0.42 -46.633 42.98 -0.040549 -17.63 -0.040549 -17.63 -46.633 42.98
0.45 -46.222 42.51 -0.042523 -18.88 -0.042523 -18.88 -46.222 42.51
0.48 -45.832 42.00 -0.044472 -20.13 -0.044472 -20.13 -45.832 42.00
0.51 -45.463 41.45 -0.046397 -21.38 -0.046397 -21.38 -45.463 41.45
0.54 -45.112 40.87 -0.048301 -22.63 -0.048301 -22.63 -45.112 40.87
0.57 -44.777 40.26 -0.050186 -23.87 -0.050186 -23.87 -44.777 40.26
0.6 -44.458 39.61 -0.052053 -25.12 -0.052053 -25.12 -44.458 39.61
0.63 -44.153 38.94 -0.053905 -26.37 -0.053905 -26.37 -44.153 38.94
0.66 -43.861 38.25 -0.055741 -27.62 -0.055741 -27.62 -43.861 38.25
0.69 -43.581 37.53 -0.057563 -28.87 -0.057563 -28.87 -43.581 37.53
0.72 -43.313 36.79 -0.059372 -30.11 -0.059372 -30.11 -43.313 36.79
0.75 -43.055 36.03 -0.061169 -31.36 -0.061169 -31.36 -43.055 36.03
0.78 -42.808 35.24 -0.062954 -32.61 -0.062954 -32.61 -42.808 35.24
0.81 -42.571 34.45 -0.064729 -33.86 -0.064729 -33.86 -42.571 34.45
0.84 -42.342 33.63 -0.066493 -35.10 -0.066493 -35.10 -42.342 33.63
0.87 -42.123 32.80 -0.068248 -36.35 -0.068248 -36.35 -42.123 32.80
0.9 -41.912 31.95 -0.069994 -37.60 -0.069994 -37.60 -41.912 31.95
0.93 -41.709 31.09 -0.07173 -38.84 -0.07173 -38.84 -41.709 31.09
0.96 -41.513 30.22 -0.073459 -40.09 -0.073459 -40.09 -41.513 30.22
0.99 -41.325 29.33 -0.07518 -41.33 -0.07518 -41.33 -41.325 29.33
1.02 -41.144 28.43 -0.076893 -42.58 -0.076893 -42.58 -41.144 28.43
1.05 -40.97 27.52 -0.078599 -43.83 -0.078599 -43.83 -40.97 27.52
1.08 -40.802 26.60 -0.080298 -45.07 -0.080298 -45.07 -40.802 26.60
1.11 -40.641 25.67 -0.08199 -46.32 -0.08199 -46.32 -40.641 25.67
1.14 -40.486 24.73 -0.083676 -47.56 -0.083676 -47.56 -40.486 24.73
1.17 -40.337 23.78 -0.085356 -48.81 -0.085356 -48.81 -40.337 23.78
1.2 -40.194 22.83 -0.087029 -50.05 -0.087029 -50.05 -40.194 22.83
1.23 -40.056 21.86 -0.088697 -51.30 -0.088697 -51.30 -40.056 21.86
1.26 -39.924 20.89 -0.090359 -52.54 -0.090359 -52.54 -39.924 20.89
1.29 -39.798 19.90 -0.092016 -53.79 -0.092016 -53.79 -39.798 19.90
1.32 -39.676 18.92 -0.093667 -55.03 -0.093667 -55.03 -39.676 18.92
1.35 -39.56 17.92 -0.095313 -56.28 -0.095313 -56.28 -39.56 17.92
1.38 -39.448 16.92 -0.096954 -57.52 -0.096954 -57.52 -39.448 16.92
1.41 -39.342 15.91 -0.098591 -58.77 -0.098591 -58.77 -39.342 15.91
1.44 -39.24 14.90 -0.10022 -60.01 -0.10022 -60.01 -39.24 14.90
1.47 -39.143 13.88 -0.10185 -61.25 -0.10185 -61.25 -39.143 13.88
1.5 -39.051 12.86 -0.10347 -62.50 -0.10347 -62.50 -39.051 12.86
1.53 -38.963 11.83 -0.10509 -63.74 -0.10509 -63.74 -38.963 11.83
1.56 -38.88 10.79 -0.1067 -64.99 -0.1067 -64.99 -38.88 10.79
1.59 -38.801 9.76 -0.10831 -66.23 -0.10831 -66.23 -38.801 9.76
1.62 -38.726 8.71 -0.10992 -67.47 -0.10992 -67.47 -38.726 8.71
1.65 -38.656 7.66 -0.11152 -68.72 -0.11152 -68.72 -38.656 7.66
1.68 -38.59 6.61 -0.11312 -69.96 -0.11312 -69.96 -38.59 6.61
1.71 -38.528 5.56 -0.11471 -71.21 -0.11471 -71.21 -38.528 5.56
1.74 -38.471 4.50 -0.1163 -72.45 -0.1163 -72.45 -38.471 4.50
1.77 -38.417 3.44 -0.11788 -73.69 -0.11788 -73.69 -38.417 3.44
1.8 -38.368 2.37 -0.11947 -74.94 -0.11947 -74.94 -38.368 2.37
1.83 -38.322 1.30 -0.12104 -76.18 -0.12104 -76.18 -38.322 1.30
1.86 -38.281 0.23 -0.12262 -77.42 -0.12262 -77.42 -38.281 0.23
1.89 -38.243 -0.85 -0.12419 -78.67 -0.12419 -78.67 -38.243 -0.85
1.92 -38.209 -1.93 -0.12576 -79.91 -0.12576 -79.91 -38.209 -1.93
1.95 -38.18 -3.01 -0.12732 -81.15 -0.12732 -81.15 -38.18 -3.01
1.98 -38.154 -4.09 -0.12888 -82.40 -0.12888 -82.40 -38.154 -4.09
2.01 -38.132 -5.18 -0.13044 -83.64 -0.13044 -83.64 -38.132 -5.18
2.04 -38.115 -6.27 -0.132 -84.88 -0.132 -84.88 -38.115 -6.27
2.07 -38.101 -7.36 -0.13355 -86.13 -0.13355 -86.13 -38.101 -7.36
2.1 -38.091 -8.45 -0.1351 -87.37 -0.1351 -87.37 -38.091 -8.45
2.13 -38.084 -9.55 -0.13664 -88.61 -0.13664 -88.61 -38.084 -9.55
2.16 -38.082 -10.65 -0.13818 -89.86 -0.13818 -89.86 -38.082 -10.65
2.19 -38.084 -11.75 -0.13972 -91.10 -0.13972 -91.10 -38.084 -11.75
2.22 -38.089 -12.85 -0.14126 -92.34 -0.14126 -92.34 -38.089 -12.85
2.25 -38.099 -13.95 -0.14279 -93.58 -0.14279 -93.58 -38.099 -13.95
2.28 -38.112 -15.06 -0.14432 -94.83 -0.14432 -94.83 -38.112 -15.06
2.31 -38.13 -16.17 -0.14585 -96.07 -0.14585 -96.07 -38.13 -16.17
2.34 -38.151 -17.27 -0.14738 -97.31 -0.14738 -97.31 -38.151 -17.27
2.37 -38.176 -18.38 -0.1489 -98.56 -0.1489 -98.56 -38.176 -18.38
2.4 -38.206 -19.49 -0.15042 -99.80 -0.15042 -99.80 -38.206 -19.49
2.43 -38.24 -20.61 -0.15193 -101.04 -0.15193 -101.04 -38.24 -20.61
2.46 -38.277 -21.72 -0.15345 -102.28 -0.15345 -102.28 -38.277 -21.72
2.49 -38.319 -22.83 -0.15496 -103.53 -0.15496 -103.53 -38.319 -22.83
2.52 -38.365 -23.95 -0.15647 -104.77 -0.15647 -104.77 -38.365 -23.95
2.55 -38.416 -25.07 -0.15798 -106.01 -0.15798 -106.01 -38.416 -25.07
2.58 -38.47 -26.18 -0.15948 -107.25 -0.15948 -107.25 -38.47 -26.18
2.61 -38.529 -27.30 -0.16098 -108.50 -0.16098 -108.50 -38.529 -27.30
2.64 -38.593 -28.42 -0.16248 -109.74 -0.16248 -109.74 -38.593 -28.42
2.67 -38.661 -29.54 -0.16398 -110.98 -0.16398 -110.98 -38.661 -29.54
2.7 -38.734 -30.66 -0.16548 -112.22 -0.16548 -112.22 -38.734 -30.66
2.73 -38.811 -31.78 -0.16697 -113.47 -0.16697 -113.47 -38.811 -31.78
2.76 -38.893 -32.90 -0.16846 -114.71 -0.16846 -114.71 -38.893 -32.90
2.79 -38.98 -34.02 -0.16995 -115.95 -0.16995 -115.95 -38.98 -34.02
2.82 -39.072 -35.14 -0.17144 -117.19 -0.17144 -117.19 -39.072 -35.14
2.85 -39.17 -36.26 -0.17292 -118.43 -0.17292 -118.43 -39.17 -36.26
2.88 -39.272 -37.39 -0.1744 -119.68 -0.1744 -119.68 -39.272 -37.39
2.91 -39.38 -38.51 -0.17589 -120.92 -0.17589 -120.92 -39.38 -38.51
2.94 -39.493 -39.63 -0.17737 -122.16 -0.17737 -122.16 -39.493 -39.63
2.97 -39.612 -40.75 -0.17884 -123.40 -0.17884 -123.40 -39.612 -40.75
3 -39.736 -41.87 -0.18032 -124.65 -0.18032 -124.65 -39.736 -41.87
3.03 -39.867 -42.99 -0.18179 -125.89 -0.18179 -125.89 -39.867 -42.99
3.06 -40.004 -44.11 -0.18326 -127.13 -0.18326 -127.13 -40.004 -44.11
3.09 -40.147 -45.22 -0.18473 -128.37 -0.18473 -128.37 -40.147 -45.22
3.12 -40.297 -46.34 -0.1862 -129.61 -0.1862 -129.61 -40.297 -46.34
3.15 -40.454 -47.45 -0.18767 -130.86 -0.18767 -130.86 -40.454 -47.45
3.18 -40.617 -48.57 -0.18914 -132.10 -0.18914 -132.10 -40.617 -48.57
3.21 -40.789 -49.68 -0.1906 -133.34 -0.1906 -133.34 -40.789 -49.68
3.24 -40.967 -50.79 -0.19206 -134.58 -0.19206 -134.58 -40.967 -50.79
3.27 -41.154 -51.90 -0.19352 -135.82 -0.19352 -135.82 -41.154 -51.90
3.3 -41.349 -53.00 -0.19498 -137.07 -0.19498 -137.07 -41.349 -53.00
3.33 -41.553 -54.11 -0.19644 -138.31 -0.19644 -138.31 -41.553 -54.11
3.36 -41.766 -55.20 -0.1979 -139.55 -0.1979 -139.55 -41.766 -55.20
3.39 -41.989 -56.30 -0.19935 -140.79 -0.19935 -140.79 -41.989 -56.30
3.42 -42.222 -57.39 -0.20081 -142.03 -0.20081 -142.03 -42.222 -57.39
3.45 -42.465 -58.48 -0.20226 -143.28 -0.20226 -143.28 -42.465 -58.48
3.48 -42.72 -59.56 -0.20371 -144.52 -0.20371 -144.52 -42.72 -59.56
3.51 -42.987 -60.64 -0.20516 -145.76 -0.20516 -145.76 -42.987 -60.64
3.54 -43.267 -61.71 -0.20661 -147.00 -0.20661 -147.00 -43.267 -61.71
3.57 -43.561 -62.77 -0.20806 -148.24 -0.20806 -148.24 -43.561 -62.77
3.6 -43.869 -63.83 -0.20951 -149.48 -0.20951 -149.48 -43.869 -63.83
3.63 -44.193 -64.87 -0.21096 -150.73 -0.21096 -150.73 -44.193 -64.87
3.66 -44.534 -65.91 -0.2124 -151.97 -0.2124 -151.97 -44.534 -65.91
3.69 -44.893 -66.93 -0.21385 -153.21 -0.21385 -153.21 -44.893 -66.93
3.72 -45.272 -67.93 -0.21529 -154.45 -0.21529 -154.45 -45.272 -67.93
3.75 -45.672 -68.93 -0.21674 -155.69 -0.21674 -155.69 -45.672 -68.93
3.78 -46.097 -69.90 -0.21818 -156.94 -0.21818 -156.94 -46.097 -69.90
3.81 -46.548 -70.85 -0.21962 -158.18 -0.21962 -158.18 -46.548 -70.85
3.84 -47.028 -71.77 -0.22106 -159.42 -0.22106 -159.42 -47.028 -71.77
3.87 -47.54 -72.66 -0.2225 -160.66 -0.2225 -160.66 -47.54 -72.66
3.9 -48.089 -73.51 -0.22394 -161.90 -0.22394 -161.90 -48.089 -73.51
3.93 -48.68 -74.32 -0.22538 -163.14 -0.22538 -163.14 -48.68 -74.32
3.96 -49.318 -75.07 -0.22682 -164.39 -0.22682 -164.39 -49.318 -75.07
3.99 -50.011 -75.74 -0.22825 -165.63 -0.22825 -165.63 -50.011 -75.74
4.02 -50.768 -76.32 -0.22969 -166.87 -0.22969 -166.87 -50.768 -76.32
4.05 -51.601 -76.77 -0.23112 -168.11 -0.23112 -168.11 -51.601 -76.77
4.08 -52.525 -77.06 -0.23256 -169.35 -0.23256 -169.35 -52.525 -77.06
4.11 -53.562 -77.12 -0.23399 -170.59 -0.23399 -170.59 -53.562 -77.12
4.14 -54.741 -76.85 -0.23543 -171.84 -0.23543 -171.84 -54.741 -76.85
4.17 -56.102 -76.09 -0.23686 -173.08 -0.23686 -173.08 -56.102 -76.09
4.2 -57.704 -74.52 -0.23829 -174.32 -0.23829 -174.32 -57.704 -74.52
4.23 -59.64 -71.56 -0.23973 -175.56 -0.23973 -175.56 -59.64 -71.56
4.26 -62.042 -65.90 -0.24116 -176.80 -0.24116 -176.80 -62.042 -65.90
4.29 -65.041 -54.24 -0.24259 -178.05 -0.24259 -178.05 -65.041 -54.24
4.32 -68.173 -28.62 -0.24402 -179.29 -0.24402 -179.29 -68.173 -28.62
4.35 -68.459 12.16 -0.24545 179.47 -0.24545 179.47 -68.459 12.16
4.38 -65.459 40.29 -0.24688 178.23 -0.24688 178.23 -65.459 40.29
4.41 -62.381 53.18 -0.24831 176.99 -0.24831 176.99 -62.381 53.18
4.44 -59.902 59.36 -0.24974 175.75 -0.24974 175.75 -59.902 59.36
4.47 -57.909 62.57 -0.25116 174.51 -0.25116 174.51 -57.909 62.57
4.5 -56.263 64.27 -0.25259 173.26 -0.25259 173.26 -56.263 64.27
4.53 -54.87 65.12 -0.25402 172.02 -0.25402 172.02 -54.87 65.12
4.56 -53.665 65.43 -0.25544 170.78 -0.25544 170.78 -53.665 65.43
4.59 -52.606 65.40 -0.25687 169.54 -0.25687 169.54 -52.606 65.40
4.62 -51.662 65.13 -0.25829 168.30 -0.25829 168.30 -51.662 65.13
4.65 -50.813 64.69 -0.25972 167.06 -0.25972 167.06 -50.813 64.69
4.68 -50.042 64.12 -0.26114 165.81 -0.26114 165.81 -50.042 64.12
4.71 -49.336 63.45 -0.26257 164.57 -0.26257 164.57 -49.336 63.45
4.74 -48.686 62.70 -0.26399 163.33 -0.26399 163.33 -48.686 62.70
4.77 -48.084 61.90 -0.26541 162.09 -0.26541 162.09 -48.084 61.90
4.8 -47.524 61.04 -0.26683 160.85 -0.26683 160.85 -47.524 61.04
4.83 -47.002 60.14 -0.26826 159.61 -0.26826 159.61 -47.002 60.14
4.86 -46.512 59.21 -0.26968 158.36 -0.26968 158.36 -46.512 59.21
4.89 -46.052 58.26 -0.2711 157.12 -0.2711 157.12 -46.052 58.26
4.92 -45.619 57.27 -0.27252 155.88 -0.27252 155.88 -45.619 57.27
4.95 -45.21 56.27 -0.27394 154.64 -0.27394 154.64 -45.21 56.27
4.98 -44.823 55.25 -0.27535 153.40 -0.27535 153.40 -44.823 55.25
5.01 -44.456 54.22 -0.27677 152.16 -0.27677 152.16 -44.456 54.22
5.04 -44.107 53.17 -0.27819 150.92 -0.27819 150.92 -44.107 53.17
5.07 -43.776 52.11 -0.27961 149.67 -0.27961 149.67 -43.776 52.11
5.1 -43.461 51.04 -0.28102 148.43 -0.28102 148.43 -43.461 51.04
5.13 -43.16 49.96 -0.28244 147.19 -0.28244 147.19 -43.16 49.96
5.16 -42.873 48.87 -0.28385 145.95 -0.28385 145.95 -42.873 48.87
5.19 -42.599 47.78 -0.28526 144.71 -0.28526 144.71 -42.599 47.78
5.22 -42.337 46.68 -0.28668 143.47 -0.28668 143.47 -42.337 46.68
5.25 -42.087 45.57 -0.28809 142.23 -0.28809 142.23 -42.087 45.57
5.28 -41.848 44.46 -0.2895 140.98 -0.2895 140.98 -41.848 44.46
5.31 -41.618 43.34 -0.29091 139.74 -0.29091 139.74 -41.618 43.34
5.34 -41.399 42.22 -0.29232 138.50 -0.29232 138.50 -41.399 42.22
5.37 -41.189 41.10 -0.29372 137.26 -0.29372 137.26 -41.189 41.10
5.4 -40.987 39.97 -0.29513 136.02 -0.29513 136.02 -40.987 39.97
5.43 -40.794 38.83 -0.29654 134.78 -0.29654 134.78 -40.794 38.83
5.46 -40.609 37.70 -0.29794 133.53 -0.29794 133.53 -40.609 37.70
5.49 -40.432 36.56 -0.29935 132.29 -0.29935 132.29 -40.432 36.56
5.52 -40.263 35.42 -0.30075 131.05 -0.30075 131.05 -40.263 35.42
5.55 -40.1 34.28 -0.30215 129.81 -0.30215 129.81 -40.1 34.28
5.58 -39.944 33.13 -0.30355 128.57 -0.30355 128.57 -39.944 33.13
5.61 -39.795 31.98 -0.30495 127.33 -0.30495 127.33 -39.795 31.98
5.64 -39.653 30.83 -0.30635 126.09 -0.30635 126.09 -39.653 30.83
5.67 -39.517 29.68 -0.30775 124.84 -0.30775 124.84 -39.517 29.68
5.7 -39.386 28.53 -0.30915 123.60 -0.30915 123.60 -39.386 28.53
5.73 -39.262 27.38 -0.31054 122.36 -0.31054 122.36 -39.262 27.38
5.76 -39.143 26.22 -0.31194 121.12 -0.31194 121.12 -39.143 26.22
5.79 -39.03 25.06 -0.31333 119.88 -0.31333 119.88 -39.03 25.06
5.82 -38.923 23.90 -0.31472 118.64 -0.31472 118.64 -38.923 23.90
5.85 -38.82 22.75 -0.31611 117.40 -0.31611 117.40 -38.82 22.75
5.88 -38.723 21.59 -0.3175 116.15 -0.3175 116.15 -38.723 21.59
5.91 -38.631 20.42 -0.31889 114.91 -0.31889 114.91 -38.631 20.42
5.94 -38.544 19.26 -0.32028 113.67 -0.32028 113.67 -38.544 19.26
5.97 -38.461 18.10 -0.32166 112.43 -0.32166 112.43 -38.461 18.10
6 -38.384 16.94 -0.32305 111.19 -0.32305 111.19 -38.384 16.94
