! yapnr Order 0 O0-M: O0-M A08 M0.7 30 (variant, family M0.7)
! stackup OSHPARK-4L-FR408HR, nominal parameters; geometry of the OSHPARK-4L-FR408HR design
! model: 2D quasi-static RLGC (Djordjevic-Sarkar, Huray roughness, Wheeler loss); generated by python -m yapnr.rf.coupons expected --stackup OSHPARK-4L-FR408HR --upload M
! reference planes 10 mm from each end; 50 ohm (from the M line's Zc)
# GHz S DB R 50
0.03 -42.644 76.62 -0.014655 -1.87 -0.014655 -1.87 -42.644 76.62
0.06 -37.185 77.91 -0.021666 -3.70 -0.021666 -3.70 -37.185 77.91
0.09 -33.918 77.56 -0.027831 -5.51 -0.027831 -5.51 -33.918 77.56
0.12 -31.575 76.66 -0.033712 -7.31 -0.033712 -7.31 -31.575 76.66
0.15 -29.749 75.49 -0.039523 -9.11 -0.039523 -9.11 -29.749 75.49
0.18 -28.253 74.17 -0.045369 -10.91 -0.045369 -10.91 -28.253 74.17
0.21 -26.989 72.74 -0.051309 -12.70 -0.051309 -12.70 -26.989 72.74
0.24 -25.896 71.25 -0.057375 -14.49 -0.057375 -14.49 -25.896 71.25
0.27 -24.935 69.72 -0.063588 -16.28 -0.063588 -16.28 -24.935 69.72
0.3 -24.08 68.15 -0.069958 -18.07 -0.069958 -18.07 -24.08 68.15
0.33 -23.31 66.55 -0.076488 -19.85 -0.076488 -19.85 -23.31 66.55
0.36 -22.612 64.93 -0.083176 -21.63 -0.083176 -21.63 -22.612 64.93
0.39 -21.974 63.29 -0.09002 -23.41 -0.09002 -23.41 -21.974 63.29
0.42 -21.39 61.65 -0.097011 -25.19 -0.097011 -25.19 -21.39 61.65
0.45 -20.85 59.99 -0.10414 -26.96 -0.10414 -26.96 -20.85 59.99
0.48 -20.351 58.33 -0.1114 -28.74 -0.1114 -28.74 -20.351 58.33
0.51 -19.888 56.66 -0.11877 -30.51 -0.11877 -30.51 -19.888 56.66
0.54 -19.457 54.98 -0.12625 -32.27 -0.12625 -32.27 -19.457 54.98
0.57 -19.054 53.30 -0.13381 -34.04 -0.13381 -34.04 -19.054 53.30
0.6 -18.678 51.62 -0.14144 -35.80 -0.14144 -35.80 -18.678 51.62
0.63 -18.326 49.93 -0.14913 -37.56 -0.14913 -37.56 -18.326 49.93
0.66 -17.996 48.24 -0.15686 -39.32 -0.15686 -39.32 -17.996 48.24
0.69 -17.687 46.55 -0.16461 -41.08 -0.16461 -41.08 -17.687 46.55
0.72 -17.396 44.86 -0.17236 -42.83 -0.17236 -42.83 -17.396 44.86
0.75 -17.123 43.17 -0.1801 -44.58 -0.1801 -44.58 -17.123 43.17
0.78 -16.867 41.48 -0.18781 -46.33 -0.18781 -46.33 -16.867 41.48
0.81 -16.626 39.79 -0.19547 -48.08 -0.19547 -48.08 -16.626 39.79
0.84 -16.4 38.10 -0.20306 -49.82 -0.20306 -49.82 -16.4 38.10
0.87 -16.188 36.41 -0.21057 -51.57 -0.21057 -51.57 -16.188 36.41
0.9 -15.989 34.72 -0.21798 -53.31 -0.21798 -53.31 -15.989 34.72
0.93 -15.803 33.04 -0.22527 -55.04 -0.22527 -55.04 -15.803 33.04
0.96 -15.628 31.35 -0.23242 -56.78 -0.23242 -56.78 -15.628 31.35
0.99 -15.465 29.66 -0.23942 -58.51 -0.23942 -58.51 -15.465 29.66
1.02 -15.313 27.98 -0.24626 -60.24 -0.24626 -60.24 -15.313 27.98
1.05 -15.172 26.29 -0.25292 -61.97 -0.25292 -61.97 -15.172 26.29
1.08 -15.041 24.61 -0.25937 -63.70 -0.25937 -63.70 -15.041 24.61
1.11 -14.919 22.93 -0.26562 -65.43 -0.26562 -65.43 -14.919 22.93
1.14 -14.807 21.25 -0.27165 -67.15 -0.27165 -67.15 -14.807 21.25
1.17 -14.705 19.57 -0.27744 -68.88 -0.27744 -68.88 -14.705 19.57
1.2 -14.612 17.89 -0.28298 -70.60 -0.28298 -70.60 -14.612 17.89
1.23 -14.527 16.21 -0.28827 -72.32 -0.28827 -72.32 -14.527 16.21
1.26 -14.451 14.53 -0.29329 -74.04 -0.29329 -74.04 -14.451 14.53
1.29 -14.383 12.86 -0.29803 -75.76 -0.29803 -75.76 -14.383 12.86
1.32 -14.324 11.18 -0.30248 -77.47 -0.30248 -77.47 -14.324 11.18
1.35 -14.273 9.51 -0.30665 -79.19 -0.30665 -79.19 -14.273 9.51
1.38 -14.23 7.83 -0.31052 -80.91 -0.31052 -80.91 -14.23 7.83
1.41 -14.195 6.16 -0.31409 -82.62 -0.31409 -82.62 -14.195 6.16
1.44 -14.167 4.49 -0.31735 -84.33 -0.31735 -84.33 -14.167 4.49
1.47 -14.148 2.82 -0.3203 -86.05 -0.3203 -86.05 -14.148 2.82
1.5 -14.136 1.15 -0.32294 -87.76 -0.32294 -87.76 -14.136 1.15
1.53 -14.132 -0.52 -0.32527 -89.48 -0.32527 -89.48 -14.132 -0.52
1.56 -14.136 -2.19 -0.32728 -91.19 -0.32728 -91.19 -14.136 -2.19
1.59 -14.148 -3.86 -0.32899 -92.90 -0.32899 -92.90 -14.148 -3.86
1.62 -14.167 -5.53 -0.33039 -94.62 -0.33039 -94.62 -14.167 -5.53
1.65 -14.194 -7.20 -0.33148 -96.33 -0.33148 -96.33 -14.194 -7.20
1.68 -14.229 -8.86 -0.33228 -98.04 -0.33228 -98.04 -14.229 -8.86
1.71 -14.272 -10.53 -0.33278 -99.76 -0.33278 -99.76 -14.272 -10.53
1.74 -14.323 -12.20 -0.33299 -101.48 -0.33299 -101.48 -14.323 -12.20
1.77 -14.382 -13.86 -0.33292 -103.19 -0.33292 -103.19 -14.382 -13.86
1.8 -14.449 -15.53 -0.33258 -104.91 -0.33258 -104.91 -14.449 -15.53
1.83 -14.525 -17.20 -0.33197 -106.63 -0.33197 -106.63 -14.525 -17.20
1.86 -14.609 -18.86 -0.33111 -108.35 -0.33111 -108.35 -14.609 -18.86
1.89 -14.702 -20.53 -0.33001 -110.07 -0.33001 -110.07 -14.702 -20.53
1.92 -14.804 -22.19 -0.32868 -111.79 -0.32868 -111.79 -14.804 -22.19
1.95 -14.915 -23.85 -0.32714 -113.51 -0.32714 -113.51 -14.915 -23.85
1.98 -15.035 -25.52 -0.32539 -115.24 -0.32539 -115.24 -15.035 -25.52
2.01 -15.165 -27.18 -0.32345 -116.96 -0.32345 -116.96 -15.165 -27.18
2.04 -15.306 -28.84 -0.32134 -118.69 -0.32134 -118.69 -15.306 -28.84
2.07 -15.456 -30.50 -0.31907 -120.42 -0.31907 -120.42 -15.456 -30.50
2.1 -15.618 -32.16 -0.31666 -122.15 -0.31666 -122.15 -15.618 -32.16
2.13 -15.79 -33.82 -0.31412 -123.89 -0.31412 -123.89 -15.79 -33.82
2.16 -15.974 -35.48 -0.31147 -125.62 -0.31147 -125.62 -15.974 -35.48
2.19 -16.171 -37.13 -0.30874 -127.36 -0.30874 -127.36 -16.171 -37.13
2.22 -16.38 -38.79 -0.30593 -129.10 -0.30593 -129.10 -16.38 -38.79
2.25 -16.603 -40.44 -0.30306 -130.84 -0.30306 -130.84 -16.603 -40.44
2.28 -16.84 -42.08 -0.30017 -132.58 -0.30017 -132.58 -16.84 -42.08
2.31 -17.092 -43.72 -0.29725 -134.32 -0.29725 -134.32 -17.092 -43.72
2.34 -17.361 -45.36 -0.29434 -136.07 -0.29434 -136.07 -17.361 -45.36
2.37 -17.646 -46.99 -0.29145 -137.82 -0.29145 -137.82 -17.646 -46.99
2.4 -17.949 -48.62 -0.2886 -139.57 -0.2886 -139.57 -17.949 -48.62
2.43 -18.272 -50.24 -0.28581 -141.32 -0.28581 -141.32 -18.272 -50.24
2.46 -18.616 -51.85 -0.28309 -143.08 -0.28309 -143.08 -18.616 -51.85
2.49 -18.983 -53.44 -0.28047 -144.83 -0.28047 -144.83 -18.983 -53.44
2.52 -19.375 -55.03 -0.27796 -146.59 -0.27796 -146.59 -19.375 -55.03
2.55 -19.795 -56.60 -0.27559 -148.35 -0.27559 -148.35 -19.795 -56.60
2.58 -20.244 -58.15 -0.27336 -150.11 -0.27336 -150.11 -20.244 -58.15
2.61 -20.726 -59.68 -0.2713 -151.88 -0.2713 -151.88 -20.726 -59.68
2.64 -21.246 -61.18 -0.26942 -153.64 -0.26942 -153.64 -21.246 -61.18
2.67 -21.808 -62.65 -0.26773 -155.41 -0.26773 -155.41 -21.808 -62.65
2.7 -22.417 -64.07 -0.26626 -157.18 -0.26626 -157.18 -22.417 -64.07
2.73 -23.081 -65.45 -0.26501 -158.95 -0.26501 -158.95 -23.081 -65.45
2.76 -23.809 -66.75 -0.264 -160.72 -0.264 -160.72 -23.809 -66.75
2.79 -24.612 -67.97 -0.26323 -162.49 -0.26323 -162.49 -24.612 -67.97
2.82 -25.505 -69.07 -0.26273 -164.26 -0.26273 -164.26 -25.505 -69.07
2.85 -26.509 -70.00 -0.2625 -166.04 -0.2625 -166.04 -26.509 -70.00
2.88 -27.65 -70.71 -0.26255 -167.81 -0.26255 -167.81 -27.65 -70.71
2.91 -28.97 -71.06 -0.26288 -169.59 -0.26288 -169.59 -28.97 -71.06
2.94 -30.528 -70.86 -0.26352 -171.36 -0.26352 -171.36 -30.528 -70.86
2.97 -32.418 -69.69 -0.26445 -173.14 -0.26445 -173.14 -32.418 -69.69
3 -34.8 -66.66 -0.26568 -174.92 -0.26568 -174.92 -34.8 -66.66
3.03 -37.933 -59.33 -0.26722 -176.69 -0.26722 -176.69 -37.933 -59.33
3.06 -42.011 -39.84 -0.26908 -178.47 -0.26908 -178.47 -42.011 -39.84
3.09 -44.266 7.10 -0.27124 179.75 -0.27124 179.75 -44.266 7.10
3.12 -40.733 45.75 -0.27372 177.97 -0.27372 177.97 -40.733 45.75
3.15 -36.91 60.10 -0.2765 176.20 -0.2765 176.20 -36.91 60.10
3.18 -34.038 65.71 -0.27959 174.42 -0.27959 174.42 -34.038 65.71
3.21 -31.829 68.04 -0.28298 172.64 -0.28298 172.64 -31.829 68.04
3.24 -30.055 68.86 -0.28667 170.87 -0.28667 170.87 -30.055 68.86
3.27 -28.58 68.87 -0.29065 169.09 -0.29065 169.09 -28.58 68.87
3.3 -27.323 68.40 -0.29491 167.32 -0.29491 167.32 -27.323 68.40
3.33 -26.23 67.62 -0.29945 165.55 -0.29945 165.55 -26.23 67.62
3.36 -25.266 66.64 -0.30425 163.77 -0.30425 163.77 -25.266 66.64
3.39 -24.405 65.51 -0.30931 162.00 -0.30931 162.00 -24.405 65.51
3.42 -23.63 64.27 -0.31461 160.23 -0.31461 160.23 -23.63 64.27
3.45 -22.926 62.95 -0.32014 158.46 -0.32014 158.46 -22.926 62.95
3.48 -22.283 61.56 -0.32589 156.70 -0.32589 156.70 -22.283 61.56
3.51 -21.693 60.13 -0.33184 154.93 -0.33184 154.93 -21.693 60.13
3.54 -21.148 58.66 -0.33798 153.17 -0.33798 153.17 -21.148 58.66
3.57 -20.644 57.16 -0.34429 151.41 -0.34429 151.41 -20.644 57.16
3.6 -20.175 55.64 -0.35076 149.65 -0.35076 149.65 -20.175 55.64
3.63 -19.739 54.09 -0.35737 147.89 -0.35737 147.89 -19.739 54.09
3.66 -19.332 52.53 -0.3641 146.13 -0.3641 146.13 -19.332 52.53
3.69 -18.952 50.95 -0.37093 144.38 -0.37093 144.38 -18.952 50.95
3.72 -18.596 49.36 -0.37785 142.63 -0.37785 142.63 -18.596 49.36
3.75 -18.262 47.77 -0.38485 140.88 -0.38485 140.88 -18.262 47.77
3.78 -17.948 46.16 -0.39189 139.13 -0.39189 139.13 -17.948 46.16
3.81 -17.654 44.55 -0.39896 137.38 -0.39896 137.38 -17.654 44.55
3.84 -17.378 42.93 -0.40605 135.64 -0.40605 135.64 -17.378 42.93
3.87 -17.118 41.31 -0.41314 133.89 -0.41314 133.89 -17.118 41.31
3.9 -16.874 39.68 -0.4202 132.15 -0.4202 132.15 -16.874 39.68
3.93 -16.645 38.05 -0.42722 130.42 -0.42722 130.42 -16.645 38.05
3.96 -16.43 36.42 -0.43417 128.68 -0.43417 128.68 -16.43 36.42
3.99 -16.228 34.78 -0.44106 126.95 -0.44106 126.95 -16.228 34.78
4.02 -16.038 33.14 -0.44784 125.21 -0.44784 125.21 -16.038 33.14
4.05 -15.861 31.51 -0.45452 123.48 -0.45452 123.48 -15.861 31.51
4.08 -15.695 29.87 -0.46107 121.75 -0.46107 121.75 -15.695 29.87
4.11 -15.541 28.23 -0.46747 120.03 -0.46747 120.03 -15.541 28.23
4.14 -15.397 26.59 -0.47372 118.30 -0.47372 118.30 -15.397 26.59
4.17 -15.263 24.95 -0.47978 116.58 -0.47978 116.58 -15.263 24.95
4.2 -15.139 23.31 -0.48567 114.86 -0.48567 114.86 -15.139 23.31
4.23 -15.025 21.67 -0.49134 113.14 -0.49134 113.14 -15.025 21.67
4.26 -14.92 20.03 -0.49681 111.42 -0.49681 111.42 -14.92 20.03
4.29 -14.824 18.39 -0.50205 109.70 -0.50205 109.70 -14.824 18.39
4.32 -14.737 16.75 -0.50705 107.98 -0.50705 107.98 -14.737 16.75
4.35 -14.659 15.11 -0.5118 106.27 -0.5118 106.27 -14.659 15.11
4.38 -14.589 13.47 -0.51629 104.55 -0.51629 104.55 -14.589 13.47
4.41 -14.527 11.83 -0.52052 102.84 -0.52052 102.84 -14.527 11.83
4.44 -14.474 10.19 -0.52448 101.13 -0.52448 101.13 -14.474 10.19
4.47 -14.429 8.55 -0.52816 99.41 -0.52816 99.41 -14.429 8.55
4.5 -14.391 6.92 -0.53155 97.70 -0.53155 97.70 -14.391 6.92
4.53 -14.362 5.28 -0.53465 95.99 -0.53465 95.99 -14.362 5.28
4.56 -14.34 3.65 -0.53746 94.28 -0.53746 94.28 -14.34 3.65
4.59 -14.327 2.01 -0.53997 92.57 -0.53997 92.57 -14.327 2.01
4.62 -14.321 0.38 -0.54219 90.86 -0.54219 90.86 -14.321 0.38
4.65 -14.322 -1.25 -0.54411 89.15 -0.54411 89.15 -14.322 -1.25
4.68 -14.331 -2.89 -0.54573 87.44 -0.54573 87.44 -14.331 -2.89
4.71 -14.349 -4.52 -0.54706 85.73 -0.54706 85.73 -14.349 -4.52
4.74 -14.373 -6.15 -0.5481 84.02 -0.5481 84.02 -14.373 -6.15
4.77 -14.406 -7.78 -0.54885 82.31 -0.54885 82.31 -14.406 -7.78
4.8 -14.447 -9.41 -0.54931 80.59 -0.54931 80.59 -14.447 -9.41
4.83 -14.495 -11.03 -0.5495 78.88 -0.5495 78.88 -14.495 -11.03
4.86 -14.552 -12.66 -0.54941 77.17 -0.54941 77.17 -14.552 -12.66
4.89 -14.617 -14.29 -0.54906 75.45 -0.54906 75.45 -14.617 -14.29
4.92 -14.69 -15.91 -0.54845 73.74 -0.54845 73.74 -14.69 -15.91
4.95 -14.771 -17.53 -0.5476 72.02 -0.5476 72.02 -14.771 -17.53
4.98 -14.862 -19.16 -0.54651 70.31 -0.54651 70.31 -14.862 -19.16
5.01 -14.961 -20.78 -0.5452 68.59 -0.5452 68.59 -14.961 -20.78
5.04 -15.069 -22.39 -0.54368 66.87 -0.54368 66.87 -15.069 -22.39
5.07 -15.186 -24.01 -0.54195 65.14 -0.54195 65.14 -15.186 -24.01
5.1 -15.314 -25.62 -0.54004 63.42 -0.54004 63.42 -15.314 -25.62
5.13 -15.451 -27.24 -0.53796 61.70 -0.53796 61.70 -15.451 -27.24
5.16 -15.598 -28.84 -0.53571 59.97 -0.53571 59.97 -15.598 -28.84
5.19 -15.756 -30.45 -0.53333 58.24 -0.53333 58.24 -15.756 -30.45
5.22 -15.925 -32.05 -0.53082 56.51 -0.53082 56.51 -15.925 -32.05
5.25 -16.105 -33.65 -0.5282 54.78 -0.5282 54.78 -16.105 -33.65
5.28 -16.297 -35.24 -0.52548 53.05 -0.52548 53.05 -16.297 -35.24
5.31 -16.502 -36.83 -0.52269 51.31 -0.52269 51.31 -16.502 -36.83
5.34 -16.721 -38.41 -0.51984 49.57 -0.51984 49.57 -16.721 -38.41
5.37 -16.953 -39.98 -0.51695 47.84 -0.51695 47.84 -16.953 -39.98
5.4 -17.2 -41.55 -0.51404 46.09 -0.51404 46.09 -17.2 -41.55
5.43 -17.462 -43.11 -0.51112 44.35 -0.51112 44.35 -17.462 -43.11
5.46 -17.741 -44.65 -0.50822 42.61 -0.50822 42.61 -17.741 -44.65
5.49 -18.038 -46.18 -0.50535 40.86 -0.50535 40.86 -18.038 -46.18
5.52 -18.354 -47.70 -0.50252 39.11 -0.50252 39.11 -18.354 -47.70
5.55 -18.69 -49.20 -0.49977 37.36 -0.49977 37.36 -18.69 -49.20
5.58 -19.048 -50.68 -0.49709 35.61 -0.49709 35.61 -19.048 -50.68
5.61 -19.43 -52.14 -0.49453 33.85 -0.49453 33.85 -19.43 -52.14
5.64 -19.839 -53.57 -0.49208 32.10 -0.49208 32.10 -19.839 -53.57
5.67 -20.276 -54.97 -0.48976 30.34 -0.48976 30.34 -20.276 -54.97
5.7 -20.744 -56.33 -0.4876 28.58 -0.4876 28.58 -20.744 -56.33
5.73 -21.248 -57.65 -0.48561 26.82 -0.48561 26.82 -21.248 -57.65
5.76 -21.791 -58.90 -0.4838 25.05 -0.4838 25.05 -21.791 -58.90
5.79 -22.379 -60.09 -0.48219 23.29 -0.48219 23.29 -22.379 -60.09
5.82 -23.018 -61.19 -0.48078 21.52 -0.48078 21.52 -23.018 -61.19
5.85 -23.714 -62.18 -0.4796 19.75 -0.4796 19.75 -23.714 -62.18
5.88 -24.479 -63.03 -0.47866 17.99 -0.47866 17.99 -24.479 -63.03
5.91 -25.325 -63.69 -0.47797 16.22 -0.47797 16.22 -25.325 -63.69
5.94 -26.266 -64.10 -0.47753 14.45 -0.47753 14.45 -26.266 -64.10
5.97 -27.325 -64.16 -0.47735 12.67 -0.47735 12.67 -27.325 -64.16
6 -28.528 -63.70 -0.47745 10.90 -0.47745 10.90 -28.528 -63.70
