! yapnr Order 0 O0-M: O0-M A09 M1.4 30 (variant, family M1.4)
! stackup OSHPARK-4L-FR408HR, nominal parameters; geometry of the OSHPARK-4L-FR408HR design
! model: 2D quasi-static RLGC (Djordjevic-Sarkar, Huray roughness, Wheeler loss); generated by python -m yapnr.rf.coupons expected --stackup OSHPARK-4L-FR408HR --upload M
! reference planes 10 mm from each end; 50 ohm (from the M line's Zc)
# GHz S DB R 50
0.03 -44.832 -83.65 -0.0099379 -1.92 -0.0099379 -1.92 -44.832 -83.65
0.06 -38.569 -88.56 -0.015226 -3.79 -0.015226 -3.79 -38.569 -88.56
0.09 -34.955 -91.69 -0.02008 -5.66 -0.02008 -5.66 -34.955 -91.69
0.12 -32.414 -94.28 -0.024868 -7.53 -0.024868 -7.53 -32.414 -94.28
0.15 -30.458 -96.62 -0.029728 -9.39 -0.029728 -9.39 -30.458 -96.62
0.18 -28.872 -98.83 -0.034727 -11.24 -0.034727 -11.24 -28.872 -98.83
0.21 -27.54 -100.95 -0.0399 -13.10 -0.0399 -13.10 -27.54 -100.95
0.24 -26.395 -103.02 -0.045266 -14.95 -0.045266 -14.95 -26.395 -103.02
0.27 -25.393 -105.04 -0.050834 -16.80 -0.050834 -16.80 -25.393 -105.04
0.3 -24.505 -107.03 -0.056606 -18.65 -0.056606 -18.65 -24.505 -107.03
0.33 -23.708 -109.00 -0.06258 -20.49 -0.06258 -20.49 -23.708 -109.00
0.36 -22.988 -110.95 -0.068749 -22.34 -0.068749 -22.34 -22.988 -110.95
0.39 -22.333 -112.89 -0.075106 -24.18 -0.075106 -24.18 -22.333 -112.89
0.42 -21.733 -114.80 -0.081639 -26.02 -0.081639 -26.02 -21.733 -114.80
0.45 -21.182 -116.71 -0.088337 -27.85 -0.088337 -27.85 -21.182 -116.71
0.48 -20.673 -118.61 -0.095185 -29.69 -0.095185 -29.69 -20.673 -118.61
0.51 -20.201 -120.50 -0.10217 -31.52 -0.10217 -31.52 -20.201 -120.50
0.54 -19.763 -122.38 -0.10927 -33.35 -0.10927 -33.35 -19.763 -122.38
0.57 -19.355 -124.25 -0.11648 -35.17 -0.11648 -35.17 -19.355 -124.25
0.6 -18.975 -126.11 -0.12376 -37.00 -0.12376 -37.00 -18.975 -126.11
0.63 -18.62 -127.97 -0.13112 -38.82 -0.13112 -38.82 -18.62 -127.97
0.66 -18.288 -129.82 -0.13852 -40.64 -0.13852 -40.64 -18.288 -129.82
0.69 -17.978 -131.67 -0.14596 -42.46 -0.14596 -42.46 -17.978 -131.67
0.72 -17.687 -133.51 -0.1534 -44.27 -0.1534 -44.27 -17.687 -133.51
0.75 -17.415 -135.35 -0.16083 -46.08 -0.16083 -46.08 -17.415 -135.35
0.78 -17.16 -137.18 -0.16824 -47.89 -0.16824 -47.89 -17.16 -137.18
0.81 -16.921 -139.00 -0.1756 -49.70 -0.1756 -49.70 -16.921 -139.00
0.84 -16.697 -140.83 -0.18289 -51.51 -0.18289 -51.51 -16.697 -140.83
0.87 -16.488 -142.64 -0.19009 -53.31 -0.19009 -53.31 -16.488 -142.64
0.9 -16.293 -144.46 -0.1972 -55.11 -0.1972 -55.11 -16.293 -144.46
0.93 -16.11 -146.27 -0.20418 -56.91 -0.20418 -56.91 -16.11 -146.27
0.96 -15.94 -148.07 -0.21102 -58.71 -0.21102 -58.71 -15.94 -148.07
0.99 -15.782 -149.88 -0.2177 -60.50 -0.2177 -60.50 -15.782 -149.88
1.02 -15.636 -151.68 -0.22422 -62.29 -0.22422 -62.29 -15.636 -151.68
1.05 -15.5 -153.47 -0.23054 -64.08 -0.23054 -64.08 -15.5 -153.47
1.08 -15.376 -155.26 -0.23666 -65.87 -0.23666 -65.87 -15.376 -155.26
1.11 -15.261 -157.05 -0.24257 -67.66 -0.24257 -67.66 -15.261 -157.05
1.14 -15.157 -158.84 -0.24824 -69.45 -0.24824 -69.45 -15.157 -158.84
1.17 -15.062 -160.62 -0.25368 -71.23 -0.25368 -71.23 -15.062 -160.62
1.2 -14.977 -162.40 -0.25886 -73.01 -0.25886 -73.01 -14.977 -162.40
1.23 -14.901 -164.18 -0.26377 -74.79 -0.26377 -74.79 -14.901 -164.18
1.26 -14.834 -165.96 -0.26841 -76.57 -0.26841 -76.57 -14.834 -165.96
1.29 -14.776 -167.73 -0.27277 -78.35 -0.27277 -78.35 -14.776 -167.73
1.32 -14.727 -169.50 -0.27684 -80.13 -0.27684 -80.13 -14.727 -169.50
1.35 -14.687 -171.27 -0.28061 -81.91 -0.28061 -81.91 -14.687 -171.27
1.38 -14.655 -173.04 -0.28408 -83.68 -0.28408 -83.68 -14.655 -173.04
1.41 -14.631 -174.81 -0.28725 -85.46 -0.28725 -85.46 -14.631 -174.81
1.44 -14.616 -176.57 -0.29011 -87.24 -0.29011 -87.24 -14.616 -176.57
1.47 -14.61 -178.33 -0.29266 -89.01 -0.29266 -89.01 -14.61 -178.33
1.5 -14.612 179.91 -0.2949 -90.79 -0.2949 -90.79 -14.612 179.91
1.53 -14.622 178.15 -0.29683 -92.56 -0.29683 -92.56 -14.622 178.15
1.56 -14.64 176.39 -0.29845 -94.34 -0.29845 -94.34 -14.64 176.39
1.59 -14.667 174.63 -0.29976 -96.11 -0.29976 -96.11 -14.667 174.63
1.62 -14.702 172.88 -0.30077 -97.89 -0.30077 -97.89 -14.702 172.88
1.65 -14.746 171.12 -0.30149 -99.67 -0.30149 -99.67 -14.746 171.12
1.68 -14.799 169.37 -0.30191 -101.44 -0.30191 -101.44 -14.799 169.37
1.71 -14.86 167.62 -0.30205 -103.22 -0.30205 -103.22 -14.86 167.62
1.74 -14.93 165.86 -0.30192 -105.00 -0.30192 -105.00 -14.93 165.86
1.77 -15.009 164.11 -0.30152 -106.78 -0.30152 -106.78 -15.009 164.11
1.8 -15.097 162.36 -0.30086 -108.56 -0.30086 -108.56 -15.097 162.36
1.83 -15.195 160.61 -0.29996 -110.34 -0.29996 -110.34 -15.195 160.61
1.86 -15.302 158.87 -0.29882 -112.12 -0.29882 -112.12 -15.302 158.87
1.89 -15.419 157.12 -0.29747 -113.90 -0.29747 -113.90 -15.419 157.12
1.92 -15.546 155.37 -0.2959 -115.69 -0.2959 -115.69 -15.546 155.37
1.95 -15.684 153.63 -0.29415 -117.48 -0.29415 -117.48 -15.684 153.63
1.98 -15.833 151.88 -0.29222 -119.27 -0.29222 -119.27 -15.833 151.88
2.01 -15.993 150.14 -0.29012 -121.06 -0.29012 -121.06 -15.993 150.14
2.04 -16.164 148.40 -0.28789 -122.85 -0.28789 -122.85 -16.164 148.40
2.07 -16.348 146.66 -0.28552 -124.64 -0.28552 -124.64 -16.348 146.66
2.1 -16.544 144.93 -0.28305 -126.44 -0.28305 -126.44 -16.544 144.93
2.13 -16.754 143.19 -0.28048 -128.23 -0.28048 -128.23 -16.754 143.19
2.16 -16.978 141.46 -0.27784 -130.03 -0.27784 -130.03 -16.978 141.46
2.19 -17.217 139.73 -0.27515 -131.83 -0.27515 -131.83 -17.217 139.73
2.22 -17.472 138.01 -0.27242 -133.64 -0.27242 -133.64 -17.472 138.01
2.25 -17.743 136.29 -0.26967 -135.44 -0.26967 -135.44 -17.743 136.29
2.28 -18.032 134.57 -0.26693 -137.25 -0.26693 -137.25 -18.032 134.57
2.31 -18.34 132.86 -0.26421 -139.06 -0.26421 -139.06 -18.34 132.86
2.34 -18.669 131.16 -0.26152 -140.87 -0.26152 -140.87 -18.669 131.16
2.37 -19.019 129.47 -0.2589 -142.68 -0.2589 -142.68 -19.019 129.47
2.4 -19.394 127.79 -0.25636 -144.49 -0.25636 -144.49 -19.394 127.79
2.43 -19.795 126.12 -0.25391 -146.31 -0.25391 -146.31 -19.795 126.12
2.46 -20.224 124.46 -0.25158 -148.13 -0.25158 -148.13 -20.224 124.46
2.49 -20.685 122.83 -0.24938 -149.95 -0.24938 -149.95 -20.685 122.83
2.52 -21.181 121.21 -0.24732 -151.77 -0.24732 -151.77 -21.181 121.21
2.55 -21.717 119.62 -0.24544 -153.59 -0.24544 -153.59 -21.717 119.62
2.58 -22.297 118.06 -0.24373 -155.41 -0.24373 -155.41 -22.297 118.06
2.61 -22.929 116.54 -0.24223 -157.24 -0.24223 -157.24 -22.929 116.54
2.64 -23.619 115.08 -0.24093 -159.07 -0.24093 -159.07 -23.619 115.08
2.67 -24.378 113.68 -0.23986 -160.90 -0.23986 -160.90 -24.378 113.68
2.7 -25.219 112.37 -0.23902 -162.73 -0.23902 -162.73 -25.219 112.37
2.73 -26.159 111.17 -0.23843 -164.56 -0.23843 -164.56 -26.159 111.17
2.76 -27.222 110.15 -0.2381 -166.39 -0.2381 -166.39 -27.222 110.15
2.79 -28.441 109.36 -0.23804 -168.22 -0.23804 -168.22 -28.441 109.36
2.82 -29.865 108.96 -0.23825 -170.06 -0.23825 -170.06 -29.865 108.96
2.85 -31.57 109.17 -0.23874 -171.89 -0.23874 -171.89 -31.57 109.17
2.88 -33.682 110.52 -0.23953 -173.72 -0.23953 -173.72 -33.682 110.52
2.91 -36.424 114.27 -0.2406 -175.56 -0.2406 -175.56 -36.424 114.27
2.94 -40.19 124.30 -0.24197 -177.39 -0.24197 -177.39 -40.19 124.30
2.97 -44.873 155.41 -0.24365 -179.23 -0.24365 -179.23 -44.873 155.41
3 -44.142 -147.45 -0.24562 178.93 -0.24562 178.93 -44.142 -147.45
3.03 -39.451 -121.98 -0.24788 177.10 -0.24788 177.10 -39.451 -121.98
3.06 -35.902 -113.59 -0.25045 175.26 -0.25045 175.26 -35.902 -113.59
3.09 -33.296 -110.42 -0.25331 173.43 -0.25331 173.43 -33.296 -110.42
3.12 -31.271 -109.32 -0.25646 171.60 -0.25646 171.60 -31.271 -109.32
3.15 -29.627 -109.24 -0.2599 169.76 -0.2599 169.76 -29.627 -109.24
3.18 -28.248 -109.72 -0.26361 167.93 -0.26361 167.93 -28.248 -109.72
3.21 -27.064 -110.55 -0.26759 166.10 -0.26759 166.10 -27.064 -110.55
3.24 -26.029 -111.60 -0.27184 164.27 -0.27184 164.27 -26.029 -111.60
3.27 -25.112 -112.81 -0.27634 162.44 -0.27634 162.44 -25.112 -112.81
3.3 -24.291 -114.13 -0.28107 160.61 -0.28107 160.61 -24.291 -114.13
3.33 -23.549 -115.53 -0.28604 158.78 -0.28604 158.78 -23.549 -115.53
3.36 -22.875 -117.00 -0.29122 156.95 -0.29122 156.95 -22.875 -117.00
3.39 -22.257 -118.51 -0.29661 155.13 -0.29661 155.13 -22.257 -118.51
3.42 -21.69 -120.07 -0.30218 153.31 -0.30218 153.31 -21.69 -120.07
3.45 -21.166 -121.65 -0.30792 151.48 -0.30792 151.48 -21.166 -121.65
3.48 -20.681 -123.26 -0.31383 149.66 -0.31383 149.66 -20.681 -123.26
3.51 -20.23 -124.89 -0.31987 147.85 -0.31987 147.85 -20.23 -124.89
3.54 -19.81 -126.53 -0.32603 146.03 -0.32603 146.03 -19.81 -126.53
3.57 -19.419 -128.19 -0.3323 144.21 -0.3323 144.21 -19.419 -128.19
3.6 -19.053 -129.86 -0.33866 142.40 -0.33866 142.40 -19.053 -129.86
3.63 -18.711 -131.53 -0.34509 140.59 -0.34509 140.59 -18.711 -131.53
3.66 -18.391 -133.22 -0.35157 138.78 -0.35157 138.78 -18.391 -133.22
3.69 -18.091 -134.91 -0.35809 136.98 -0.35809 136.98 -18.091 -134.91
3.72 -17.809 -136.61 -0.36462 135.17 -0.36462 135.17 -17.809 -136.61
3.75 -17.545 -138.31 -0.37114 133.37 -0.37114 133.37 -17.545 -138.31
3.78 -17.298 -140.01 -0.37765 131.57 -0.37765 131.57 -17.298 -140.01
3.81 -17.066 -141.72 -0.38411 129.77 -0.38411 129.77 -17.066 -141.72
3.84 -16.849 -143.43 -0.39052 127.97 -0.39052 127.97 -16.849 -143.43
3.87 -16.646 -145.14 -0.39685 126.17 -0.39685 126.17 -16.646 -145.14
3.9 -16.456 -146.85 -0.40309 124.38 -0.40309 124.38 -16.456 -146.85
3.93 -16.279 -148.56 -0.40922 122.59 -0.40922 122.59 -16.279 -148.56
3.96 -16.114 -150.28 -0.41522 120.80 -0.41522 120.80 -16.114 -150.28
3.99 -15.96 -151.99 -0.42108 119.01 -0.42108 119.01 -15.96 -151.99
4.02 -15.818 -153.71 -0.42679 117.22 -0.42679 117.22 -15.818 -153.71
4.05 -15.686 -155.42 -0.43232 115.44 -0.43232 115.44 -15.686 -155.42
4.08 -15.565 -157.14 -0.43766 113.65 -0.43766 113.65 -15.565 -157.14
4.11 -15.454 -158.85 -0.44281 111.87 -0.44281 111.87 -15.454 -158.85
4.14 -15.353 -160.56 -0.44775 110.09 -0.44775 110.09 -15.353 -160.56
4.17 -15.261 -162.28 -0.45246 108.31 -0.45246 108.31 -15.261 -162.28
4.2 -15.178 -163.99 -0.45694 106.53 -0.45694 106.53 -15.178 -163.99
4.23 -15.105 -165.70 -0.46118 104.75 -0.46118 104.75 -15.105 -165.70
4.26 -15.041 -167.42 -0.46516 102.98 -0.46516 102.98 -15.041 -167.42
4.29 -14.985 -169.13 -0.46889 101.20 -0.46889 101.20 -14.985 -169.13
4.32 -14.939 -170.84 -0.47235 99.42 -0.47235 99.42 -14.939 -170.84
4.35 -14.9 -172.55 -0.47554 97.65 -0.47554 97.65 -14.9 -172.55
4.38 -14.871 -174.26 -0.47845 95.88 -0.47845 95.88 -14.871 -174.26
4.41 -14.849 -175.97 -0.48109 94.10 -0.48109 94.10 -14.849 -175.97
4.44 -14.836 -177.68 -0.48344 92.33 -0.48344 92.33 -14.836 -177.68
4.47 -14.832 -179.38 -0.4855 90.55 -0.4855 90.55 -14.832 -179.38
4.5 -14.835 178.91 -0.48728 88.78 -0.48728 88.78 -14.835 178.91
4.53 -14.847 177.20 -0.48878 87.01 -0.48878 87.01 -14.847 177.20
4.56 -14.868 175.50 -0.48999 85.23 -0.48999 85.23 -14.868 175.50
4.59 -14.896 173.79 -0.49093 83.46 -0.49093 83.46 -14.896 173.79
4.62 -14.933 172.09 -0.49159 81.68 -0.49159 81.68 -14.933 172.09
4.65 -14.979 170.39 -0.49197 79.91 -0.49197 79.91 -14.979 170.39
4.68 -15.033 168.69 -0.49209 78.13 -0.49209 78.13 -15.033 168.69
4.71 -15.096 166.99 -0.49196 76.36 -0.49196 76.36 -15.096 166.99
4.74 -15.168 165.29 -0.49157 74.58 -0.49157 74.58 -15.168 165.29
4.77 -15.249 163.59 -0.49094 72.80 -0.49094 72.80 -15.249 163.59
4.8 -15.339 161.89 -0.49008 71.02 -0.49008 71.02 -15.339 161.89
4.83 -15.438 160.20 -0.489 69.24 -0.489 69.24 -15.438 160.20
4.86 -15.547 158.50 -0.4877 67.46 -0.4877 67.46 -15.547 158.50
4.89 -15.666 156.81 -0.48621 65.67 -0.48621 65.67 -15.666 156.81
4.92 -15.796 155.12 -0.48453 63.89 -0.48453 63.89 -15.796 155.12
4.95 -15.935 153.44 -0.48269 62.10 -0.48269 62.10 -15.935 153.44
4.98 -16.086 151.75 -0.48068 60.31 -0.48068 60.31 -16.086 151.75
5.01 -16.248 150.07 -0.47853 58.52 -0.47853 58.52 -16.248 150.07
5.04 -16.422 148.39 -0.47626 56.73 -0.47626 56.73 -16.422 148.39
5.07 -16.608 146.72 -0.47388 54.94 -0.47388 54.94 -16.608 146.72
5.1 -16.807 145.05 -0.4714 53.14 -0.4714 53.14 -16.807 145.05
5.13 -17.019 143.39 -0.46885 51.35 -0.46885 51.35 -17.019 143.39
5.16 -17.245 141.73 -0.46623 49.55 -0.46623 49.55 -17.245 141.73
5.19 -17.487 140.08 -0.46358 47.75 -0.46358 47.75 -17.487 140.08
5.22 -17.744 138.44 -0.4609 45.95 -0.4609 45.95 -17.744 138.44
5.25 -18.018 136.80 -0.45821 44.14 -0.45821 44.14 -18.018 136.80
5.28 -18.31 135.18 -0.45554 42.34 -0.45554 42.34 -18.31 135.18
5.31 -18.621 133.57 -0.45289 40.53 -0.45289 40.53 -18.621 133.57
5.34 -18.952 131.97 -0.45029 38.72 -0.45029 38.72 -18.952 131.97
5.37 -19.306 130.39 -0.44776 36.91 -0.44776 36.91 -19.306 130.39
5.4 -19.684 128.83 -0.44531 35.10 -0.44531 35.10 -19.684 128.83
5.43 -20.089 127.30 -0.44296 33.28 -0.44296 33.28 -20.089 127.30
5.46 -20.522 125.79 -0.44073 31.46 -0.44073 31.46 -20.522 125.79
5.49 -20.987 124.31 -0.43863 29.64 -0.43863 29.64 -20.987 124.31
5.52 -21.487 122.88 -0.43667 27.82 -0.43667 27.82 -21.487 122.88
5.55 -22.027 121.49 -0.43488 26.00 -0.43488 26.00 -22.027 121.49
5.58 -22.612 120.16 -0.43327 24.18 -0.43327 24.18 -22.612 120.16
5.61 -23.248 118.91 -0.43185 22.36 -0.43185 22.36 -23.248 118.91
5.64 -23.943 117.75 -0.43064 20.53 -0.43064 20.53 -23.943 117.75
5.67 -24.707 116.72 -0.42964 18.70 -0.42964 18.70 -24.707 116.72
5.7 -25.552 115.84 -0.42887 16.87 -0.42887 16.87 -25.552 115.84
5.73 -26.494 115.19 -0.42835 15.05 -0.42835 15.05 -26.494 115.19
5.76 -27.557 114.84 -0.42807 13.22 -0.42807 13.22 -27.557 114.84
5.79 -28.769 114.93 -0.42804 11.38 -0.42804 11.38 -28.769 114.93
5.82 -30.173 115.70 -0.42828 9.55 -0.42828 9.55 -30.173 115.70
5.85 -31.828 117.57 -0.4288 7.72 -0.4288 7.72 -31.828 117.57
5.88 -33.815 121.37 -0.42958 5.89 -0.42958 5.89 -33.815 121.37
5.91 -36.219 128.91 -0.43065 4.05 -0.43065 4.05 -36.219 128.91
5.94 -38.952 144.18 -0.432 2.22 -0.432 2.22 -38.952 144.18
5.97 -40.902 172.62 -0.43363 0.39 -0.43363 0.39 -40.902 172.62
6 -39.966 -154.72 -0.43555 -1.45 -0.43555 -1.45 -39.966 -154.72
