! yapnr Order 0 O0-M: O0-M A10 M-MK 30 (variant, family M-MK)
! stackup OSHPARK-4L-FR408HR, nominal parameters; geometry of the OSHPARK-4L-FR408HR design
! model: 2D quasi-static RLGC (Djordjevic-Sarkar, Huray roughness, Wheeler loss); generated by python -m yapnr.rf.coupons expected --stackup OSHPARK-4L-FR408HR --upload M
! reference planes 10 mm from each end; 50 ohm (from the M line's Zc)
# GHz S DB R 50
0.03 -61.044 -6.03 -0.010271 -1.90 -0.010271 -1.90 -61.044 -6.03
0.06 -57.856 -29.28 -0.015216 -3.76 -0.015216 -3.76 -57.856 -29.28
0.09 -55.286 -44.74 -0.01938 -5.61 -0.01938 -5.61 -55.286 -44.74
0.12 -53.165 -55.57 -0.023138 -7.46 -0.023138 -7.46 -53.165 -55.57
0.15 -51.395 -63.69 -0.026641 -9.30 -0.026641 -9.30 -51.395 -63.69
0.18 -49.898 -70.14 -0.029964 -11.14 -0.029964 -11.14 -49.898 -70.14
0.21 -48.61 -75.52 -0.033152 -12.98 -0.033152 -12.98 -48.61 -75.52
0.24 -47.488 -80.17 -0.036235 -14.82 -0.036235 -14.82 -47.488 -80.17
0.27 -46.497 -84.30 -0.039232 -16.66 -0.039232 -16.66 -46.497 -84.30
0.3 -45.615 -88.04 -0.042159 -18.49 -0.042159 -18.49 -45.615 -88.04
0.33 -44.821 -91.49 -0.045027 -20.33 -0.045027 -20.33 -44.821 -91.49
0.36 -44.103 -94.71 -0.047843 -22.16 -0.047843 -22.16 -44.103 -94.71
0.39 -43.449 -97.76 -0.050615 -24.00 -0.050615 -24.00 -43.449 -97.76
0.42 -42.851 -100.66 -0.053347 -25.83 -0.053347 -25.83 -42.851 -100.66
0.45 -42.301 -103.44 -0.056045 -27.66 -0.056045 -27.66 -42.301 -103.44
0.48 -41.794 -106.12 -0.058711 -29.49 -0.058711 -29.49 -41.794 -106.12
0.51 -41.325 -108.72 -0.061348 -31.32 -0.061348 -31.32 -41.325 -108.72
0.54 -40.89 -111.25 -0.06396 -33.15 -0.06396 -33.15 -40.89 -111.25
0.57 -40.486 -113.71 -0.066548 -34.98 -0.066548 -34.98 -40.486 -113.71
0.6 -40.109 -116.13 -0.069114 -36.81 -0.069114 -36.81 -40.109 -116.13
0.63 -39.758 -118.49 -0.071659 -38.64 -0.071659 -38.64 -39.758 -118.49
0.66 -39.431 -120.82 -0.074186 -40.47 -0.074186 -40.47 -39.431 -120.82
0.69 -39.125 -123.11 -0.076694 -42.30 -0.076694 -42.30 -39.125 -123.11
0.72 -38.839 -125.37 -0.079185 -44.12 -0.079185 -44.12 -38.839 -125.37
0.75 -38.572 -127.60 -0.08166 -45.95 -0.08166 -45.95 -38.572 -127.60
0.78 -38.323 -129.80 -0.08412 -47.78 -0.08412 -47.78 -38.323 -129.80
0.81 -38.09 -131.98 -0.086565 -49.61 -0.086565 -49.61 -38.09 -131.98
0.84 -37.873 -134.14 -0.088996 -51.43 -0.088996 -51.43 -37.873 -134.14
0.87 -37.67 -136.28 -0.091414 -53.26 -0.091414 -53.26 -37.67 -136.28
0.9 -37.482 -138.40 -0.093818 -55.08 -0.093818 -55.08 -37.482 -138.40
0.93 -37.306 -140.51 -0.09621 -56.91 -0.09621 -56.91 -37.306 -140.51
0.96 -37.144 -142.60 -0.09859 -58.74 -0.09859 -58.74 -37.144 -142.60
0.99 -36.994 -144.67 -0.10096 -60.56 -0.10096 -60.56 -36.994 -144.67
1.02 -36.855 -146.74 -0.10331 -62.39 -0.10331 -62.39 -36.855 -146.74
1.05 -36.728 -148.79 -0.10566 -64.21 -0.10566 -64.21 -36.728 -148.79
1.08 -36.612 -150.83 -0.10799 -66.03 -0.10799 -66.03 -36.612 -150.83
1.11 -36.507 -152.86 -0.11032 -67.86 -0.11032 -67.86 -36.507 -152.86
1.14 -36.412 -154.88 -0.11263 -69.68 -0.11263 -69.68 -36.412 -154.88
1.17 -36.327 -156.90 -0.11493 -71.51 -0.11493 -71.51 -36.327 -156.90
1.2 -36.251 -158.90 -0.11722 -73.33 -0.11722 -73.33 -36.251 -158.90
1.23 -36.186 -160.90 -0.11951 -75.15 -0.11951 -75.15 -36.186 -160.90
1.26 -36.13 -162.89 -0.12178 -76.98 -0.12178 -76.98 -36.13 -162.89
1.29 -36.083 -164.87 -0.12404 -78.80 -0.12404 -78.80 -36.083 -164.87
1.32 -36.045 -166.84 -0.1263 -80.62 -0.1263 -80.62 -36.045 -166.84
1.35 -36.016 -168.81 -0.12854 -82.45 -0.12854 -82.45 -36.016 -168.81
1.38 -35.997 -170.77 -0.13078 -84.27 -0.13078 -84.27 -35.997 -170.77
1.41 -35.986 -172.72 -0.13301 -86.09 -0.13301 -86.09 -35.986 -172.72
1.44 -35.984 -174.67 -0.13522 -87.92 -0.13522 -87.92 -35.984 -174.67
1.47 -35.99 -176.62 -0.13743 -89.74 -0.13743 -89.74 -35.99 -176.62
1.5 -36.006 -178.56 -0.13964 -91.56 -0.13964 -91.56 -36.006 -178.56
1.53 -36.03 179.51 -0.14183 -93.38 -0.14183 -93.38 -36.03 179.51
1.56 -36.063 177.58 -0.14402 -95.20 -0.14402 -95.20 -36.063 177.58
1.59 -36.105 175.66 -0.1462 -97.03 -0.1462 -97.03 -36.105 175.66
1.62 -36.156 173.74 -0.14837 -98.85 -0.14837 -98.85 -36.156 173.74
1.65 -36.216 171.83 -0.15053 -100.67 -0.15053 -100.67 -36.216 171.83
1.68 -36.284 169.92 -0.15269 -102.49 -0.15269 -102.49 -36.284 169.92
1.71 -36.362 168.01 -0.15484 -104.31 -0.15484 -104.31 -36.362 168.01
1.74 -36.45 166.11 -0.15698 -106.13 -0.15698 -106.13 -36.45 166.11
1.77 -36.546 164.22 -0.15912 -107.96 -0.15912 -107.96 -36.546 164.22
1.8 -36.653 162.33 -0.16125 -109.78 -0.16125 -109.78 -36.653 162.33
1.83 -36.769 160.44 -0.16338 -111.60 -0.16338 -111.60 -36.769 160.44
1.86 -36.895 158.56 -0.1655 -113.42 -0.1655 -113.42 -36.895 158.56
1.89 -37.032 156.68 -0.16761 -115.24 -0.16761 -115.24 -37.032 156.68
1.92 -37.179 154.81 -0.16972 -117.06 -0.16972 -117.06 -37.179 154.81
1.95 -37.337 152.94 -0.17182 -118.88 -0.17182 -118.88 -37.337 152.94
1.98 -37.507 151.08 -0.17392 -120.70 -0.17392 -120.70 -37.507 151.08
2.01 -37.689 149.22 -0.17602 -122.52 -0.17602 -122.52 -37.689 149.22
2.04 -37.882 147.37 -0.1781 -124.34 -0.1781 -124.34 -37.882 147.37
2.07 -38.089 145.52 -0.18019 -126.17 -0.18019 -126.17 -38.089 145.52
2.1 -38.309 143.68 -0.18227 -127.99 -0.18227 -127.99 -38.309 143.68
2.13 -38.543 141.85 -0.18435 -129.81 -0.18435 -129.81 -38.543 141.85
2.16 -38.792 140.02 -0.18642 -131.63 -0.18642 -131.63 -38.792 140.02
2.19 -39.056 138.20 -0.18849 -133.45 -0.18849 -133.45 -39.056 138.20
2.22 -39.337 136.38 -0.19056 -135.27 -0.19056 -135.27 -39.337 136.38
2.25 -39.635 134.58 -0.19263 -137.09 -0.19263 -137.09 -39.635 134.58
2.28 -39.953 132.78 -0.19469 -138.91 -0.19469 -138.91 -39.953 132.78
2.31 -40.29 131.00 -0.19675 -140.73 -0.19675 -140.73 -40.29 131.00
2.34 -40.65 129.23 -0.1988 -142.55 -0.1988 -142.55 -40.65 129.23
2.37 -41.033 127.47 -0.20086 -144.37 -0.20086 -144.37 -41.033 127.47
2.4 -41.441 125.72 -0.20291 -146.19 -0.20291 -146.19 -41.441 125.72
2.43 -41.878 123.99 -0.20496 -148.01 -0.20496 -148.01 -41.878 123.99
2.46 -42.345 122.28 -0.20701 -149.83 -0.20701 -149.83 -42.345 122.28
2.49 -42.848 120.60 -0.20906 -151.65 -0.20906 -151.65 -42.848 120.60
2.52 -43.388 118.94 -0.21111 -153.47 -0.21111 -153.47 -43.388 118.94
2.55 -43.973 117.32 -0.21315 -155.29 -0.21315 -155.29 -43.973 117.32
2.58 -44.606 115.73 -0.2152 -157.11 -0.2152 -157.11 -44.606 115.73
2.61 -45.298 114.20 -0.21724 -158.93 -0.21724 -158.93 -45.298 114.20
2.64 -46.056 112.74 -0.21928 -160.75 -0.21928 -160.75 -46.056 112.74
2.67 -46.893 111.36 -0.22132 -162.57 -0.22132 -162.57 -46.893 111.36
2.7 -47.827 110.09 -0.22337 -164.39 -0.22337 -164.39 -47.827 110.09
2.73 -48.878 108.98 -0.22541 -166.21 -0.22541 -166.21 -48.878 108.98
2.76 -50.079 108.11 -0.22745 -168.03 -0.22745 -168.03 -50.079 108.11
2.79 -51.475 107.58 -0.22949 -169.85 -0.22949 -169.85 -51.475 107.58
2.82 -53.138 107.62 -0.23153 -171.66 -0.23153 -171.66 -53.138 107.62
2.85 -55.183 108.67 -0.23357 -173.48 -0.23357 -173.48 -55.183 108.67
2.88 -57.813 111.82 -0.23561 -175.30 -0.23561 -175.30 -57.813 111.82
2.91 -61.396 120.23 -0.23765 -177.12 -0.23765 -177.12 -61.396 120.23
2.94 -66.125 146.00 -0.23968 -178.94 -0.23968 -178.94 -66.125 146.00
2.97 -66.776 -156.55 -0.24172 179.24 -0.24172 179.24 -66.776 -156.55
3 -62.075 -125.86 -0.24376 177.42 -0.24376 177.42 -62.075 -125.86
3.03 -58.328 -116.02 -0.2458 175.60 -0.2458 175.60 -58.328 -116.02
3.06 -55.604 -112.37 -0.24784 173.78 -0.24784 173.78 -55.604 -112.37
3.09 -53.508 -111.09 -0.24988 171.96 -0.24988 171.96 -53.508 -111.09
3.12 -51.817 -110.92 -0.25192 170.14 -0.25192 170.14 -51.817 -110.92
3.15 -50.407 -111.37 -0.25396 168.32 -0.25396 168.32 -50.407 -111.37
3.18 -49.2 -112.19 -0.25599 166.51 -0.25599 166.51 -49.2 -112.19
3.21 -48.149 -113.25 -0.25803 164.69 -0.25803 164.69 -48.149 -113.25
3.24 -47.22 -114.48 -0.26007 162.87 -0.26007 162.87 -47.22 -114.48
3.27 -46.39 -115.82 -0.26211 161.05 -0.26211 161.05 -46.39 -115.82
3.3 -45.642 -117.25 -0.26414 159.23 -0.26414 159.23 -45.642 -117.25
3.33 -44.962 -118.75 -0.26618 157.41 -0.26618 157.41 -44.962 -118.75
3.36 -44.34 -120.30 -0.26821 155.59 -0.26821 155.59 -44.34 -120.30
3.39 -43.77 -121.89 -0.27025 153.77 -0.27025 153.77 -43.77 -121.89
3.42 -43.243 -123.51 -0.27228 151.96 -0.27228 151.96 -43.243 -123.51
3.45 -42.756 -125.15 -0.27431 150.14 -0.27431 150.14 -42.756 -125.15
3.48 -42.304 -126.82 -0.27635 148.32 -0.27635 148.32 -42.304 -126.82
3.51 -41.883 -128.51 -0.27838 146.50 -0.27838 146.50 -41.883 -128.51
3.54 -41.491 -130.21 -0.2804 144.68 -0.2804 144.68 -41.491 -130.21
3.57 -41.125 -131.92 -0.28243 142.86 -0.28243 142.86 -41.125 -131.92
3.6 -40.783 -133.65 -0.28446 141.04 -0.28446 141.04 -40.783 -133.65
3.63 -40.463 -135.38 -0.28648 139.23 -0.28648 139.23 -40.463 -135.38
3.66 -40.164 -137.12 -0.28851 137.41 -0.28851 137.41 -40.164 -137.12
3.69 -39.883 -138.87 -0.29053 135.59 -0.29053 135.59 -39.883 -138.87
3.72 -39.62 -140.62 -0.29255 133.77 -0.29255 133.77 -39.62 -140.62
3.75 -39.374 -142.38 -0.29456 131.95 -0.29456 131.95 -39.374 -142.38
3.78 -39.143 -144.15 -0.29658 130.13 -0.29658 130.13 -39.143 -144.15
3.81 -38.928 -145.91 -0.29859 128.32 -0.29859 128.32 -38.928 -145.91
3.84 -38.726 -147.68 -0.3006 126.50 -0.3006 126.50 -38.726 -147.68
3.87 -38.538 -149.46 -0.30261 124.68 -0.30261 124.68 -38.538 -149.46
3.9 -38.363 -151.23 -0.30462 122.86 -0.30462 122.86 -38.363 -151.23
3.93 -38.201 -153.01 -0.30662 121.04 -0.30662 121.04 -38.201 -153.01
3.96 -38.05 -154.79 -0.30862 119.23 -0.30862 119.23 -38.05 -154.79
3.99 -37.91 -156.57 -0.31062 117.41 -0.31062 117.41 -37.91 -156.57
4.02 -37.782 -158.36 -0.31262 115.59 -0.31262 115.59 -37.782 -158.36
4.05 -37.664 -160.14 -0.31461 113.77 -0.31461 113.77 -37.664 -160.14
4.08 -37.557 -161.92 -0.3166 111.95 -0.3166 111.95 -37.557 -161.92
4.11 -37.46 -163.71 -0.31858 110.14 -0.31858 110.14 -37.46 -163.71
4.14 -37.372 -165.49 -0.32057 108.32 -0.32057 108.32 -37.372 -165.49
4.17 -37.295 -167.28 -0.32255 106.50 -0.32255 106.50 -37.295 -167.28
4.2 -37.227 -169.07 -0.32453 104.68 -0.32453 104.68 -37.227 -169.07
4.23 -37.168 -170.85 -0.3265 102.87 -0.3265 102.87 -37.168 -170.85
4.26 -37.118 -172.64 -0.32847 101.05 -0.32847 101.05 -37.118 -172.64
4.29 -37.077 -174.42 -0.33044 99.23 -0.33044 99.23 -37.077 -174.42
4.32 -37.046 -176.21 -0.3324 97.41 -0.3324 97.41 -37.046 -176.21
4.35 -37.023 -177.99 -0.33436 95.60 -0.33436 95.60 -37.023 -177.99
4.38 -37.009 -179.78 -0.33632 93.78 -0.33632 93.78 -37.009 -179.78
4.41 -37.003 178.44 -0.33828 91.96 -0.33828 91.96 -37.003 178.44
4.44 -37.007 176.66 -0.34023 90.14 -0.34023 90.14 -37.007 176.66
4.47 -37.019 174.88 -0.34218 88.32 -0.34218 88.32 -37.019 174.88
4.5 -37.04 173.10 -0.34412 86.51 -0.34412 86.51 -37.04 173.10
4.53 -37.069 171.32 -0.34607 84.69 -0.34607 84.69 -37.069 171.32
4.56 -37.107 169.54 -0.34801 82.87 -0.34801 82.87 -37.107 169.54
4.59 -37.154 167.77 -0.34994 81.05 -0.34994 81.05 -37.154 167.77
4.62 -37.21 165.99 -0.35188 79.24 -0.35188 79.24 -37.21 165.99
4.65 -37.276 164.22 -0.35381 77.42 -0.35381 77.42 -37.276 164.22
4.68 -37.35 162.45 -0.35574 75.60 -0.35574 75.60 -37.35 162.45
4.71 -37.433 160.68 -0.35767 73.78 -0.35767 73.78 -37.433 160.68
4.74 -37.526 158.92 -0.35959 71.97 -0.35959 71.97 -37.526 158.92
4.77 -37.629 157.16 -0.36151 70.15 -0.36151 70.15 -37.629 157.16
4.8 -37.741 155.40 -0.36343 68.33 -0.36343 68.33 -37.741 155.40
4.83 -37.863 153.64 -0.36535 66.51 -0.36535 66.51 -37.863 153.64
4.86 -37.996 151.89 -0.36726 64.70 -0.36726 64.70 -37.996 151.89
4.89 -38.139 150.15 -0.36917 62.88 -0.36917 62.88 -38.139 150.15
4.92 -38.294 148.40 -0.37108 61.06 -0.37108 61.06 -38.294 148.40
4.95 -38.459 146.67 -0.37299 59.24 -0.37299 59.24 -38.459 146.67
4.98 -38.637 144.93 -0.3749 57.42 -0.3749 57.42 -38.637 144.93
5.01 -38.826 143.21 -0.37681 55.61 -0.37681 55.61 -38.826 143.21
5.04 -39.029 141.48 -0.37871 53.79 -0.37871 53.79 -39.029 141.48
5.07 -39.245 139.77 -0.38061 51.97 -0.38061 51.97 -39.245 139.77
5.1 -39.474 138.06 -0.38252 50.15 -0.38252 50.15 -39.474 138.06
5.13 -39.719 136.37 -0.38442 48.34 -0.38442 48.34 -39.719 136.37
5.16 -39.979 134.68 -0.38632 46.52 -0.38632 46.52 -39.979 134.68
5.19 -40.255 133.00 -0.38822 44.70 -0.38822 44.70 -40.255 133.00
5.22 -40.549 131.34 -0.39011 42.88 -0.39011 42.88 -40.549 131.34
5.25 -40.862 129.69 -0.39201 41.07 -0.39201 41.07 -40.862 129.69
5.28 -41.194 128.05 -0.39391 39.25 -0.39391 39.25 -41.194 128.05
5.31 -41.548 126.44 -0.39581 37.43 -0.39581 37.43 -41.548 126.44
5.34 -41.926 124.84 -0.3977 35.61 -0.3977 35.61 -41.926 124.84
5.37 -42.329 123.27 -0.3996 33.80 -0.3996 33.80 -42.329 123.27
5.4 -42.759 121.73 -0.40149 31.98 -0.40149 31.98 -42.759 121.73
5.43 -43.221 120.22 -0.40339 30.16 -0.40339 30.16 -43.221 120.22
5.46 -43.716 118.74 -0.40529 28.34 -0.40529 28.34 -43.716 118.74
5.49 -44.248 117.32 -0.40718 26.52 -0.40718 26.52 -44.248 117.32
5.52 -44.824 115.95 -0.40908 24.71 -0.40908 24.71 -44.824 115.95
5.55 -45.448 114.66 -0.41098 22.89 -0.41098 22.89 -45.448 114.66
5.58 -46.127 113.45 -0.41287 21.07 -0.41287 21.07 -46.127 113.45
5.61 -46.871 112.36 -0.41477 19.25 -0.41477 19.25 -46.871 112.36
5.64 -47.69 111.41 -0.41667 17.44 -0.41667 17.44 -47.69 111.41
5.67 -48.6 110.66 -0.41857 15.62 -0.41857 15.62 -48.6 110.66
5.7 -49.62 110.19 -0.42047 13.80 -0.42047 13.80 -49.62 110.19
5.73 -50.777 110.10 -0.42237 11.98 -0.42237 11.98 -50.777 110.10
5.76 -52.107 110.59 -0.42427 10.16 -0.42427 10.16 -52.107 110.59
5.79 -53.662 111.99 -0.42617 8.35 -0.42617 8.35 -53.662 111.99
5.82 -55.513 114.95 -0.42807 6.53 -0.42807 6.53 -55.513 114.95
5.85 -57.747 120.80 -0.42998 4.71 -0.42998 4.71 -57.747 120.80
5.88 -60.383 132.50 -0.43188 2.89 -0.43188 2.89 -60.383 132.50
5.91 -62.853 155.53 -0.43378 1.07 -0.43378 1.07 -62.853 155.53
5.94 -63.114 -171.20 -0.43569 -0.74 -0.43569 -0.74 -63.114 -171.20
5.97 -60.846 -145.93 -0.4376 -2.56 -0.4376 -2.56 -60.846 -145.93
6 -58.182 -132.82 -0.4395 -4.38 -0.4395 -4.38 -58.182 -132.82
