! yapnr Order 0 O0-M: O0-M A11 RING M (ring, family M)
! stackup OSHPARK-4L-FR408HR, nominal parameters; geometry of the OSHPARK-4L-FR408HR design
! model: 2D quasi-static RLGC (Djordjevic-Sarkar, Huray roughness, Wheeler loss); generated by python -m yapnr.rf.coupons expected --stackup OSHPARK-4L-FR408HR --upload M
! reference planes 10 mm from each end; 50 ohm (from the M line's Zc)
# GHz S DB R 50
0.03 -28.212 -92.97 -0.021726 -4.27 -0.021726 -4.27 -28.212 -92.97
0.06 -22.185 -97.74 -0.050172 -8.47 -0.050172 -8.47 -22.185 -97.74
0.09 -18.695 -102.16 -0.090777 -12.64 -0.090777 -12.64 -18.695 -102.16
0.12 -16.249 -106.45 -0.14365 -16.78 -0.14365 -16.78 -16.249 -106.45
0.15 -14.378 -110.66 -0.20851 -20.89 -0.20851 -20.89 -14.378 -110.66
0.18 -12.875 -114.80 -0.28484 -24.97 -0.28484 -24.97 -12.875 -114.80
0.21 -11.63 -118.89 -0.37205 -29.00 -0.37205 -29.00 -11.63 -118.89
0.24 -10.575 -122.93 -0.46943 -32.99 -0.46943 -32.99 -10.575 -122.93
0.27 -9.6663 -126.92 -0.57624 -36.94 -0.57624 -36.94 -9.6663 -126.92
0.3 -8.8753 -130.85 -0.69168 -40.83 -0.69168 -40.83 -8.8753 -130.85
0.33 -8.1801 -134.73 -0.81497 -44.68 -0.81497 -44.68 -8.1801 -134.73
0.36 -7.5647 -138.55 -0.9453 -48.48 -0.9453 -48.48 -7.5647 -138.55
0.39 -7.0165 -142.32 -1.0819 -52.23 -1.0819 -52.23 -7.0165 -142.32
0.42 -6.5257 -146.04 -1.224 -55.93 -1.224 -55.93 -6.5257 -146.04
0.45 -6.0846 -149.71 -1.3709 -59.58 -1.3709 -59.58 -6.0846 -149.71
0.48 -5.6866 -153.33 -1.5219 -63.18 -1.5219 -63.18 -5.6866 -153.33
0.51 -5.3262 -156.91 -1.6765 -66.74 -1.6765 -66.74 -5.3262 -156.91
0.54 -4.9991 -160.44 -1.834 -70.25 -1.834 -70.25 -4.9991 -160.44
0.57 -4.7012 -163.93 -1.994 -73.73 -1.994 -73.73 -4.7012 -163.93
0.6 -4.4294 -167.39 -2.156 -77.17 -2.156 -77.17 -4.4294 -167.39
0.63 -4.1806 -170.81 -2.3196 -80.58 -2.3196 -80.58 -4.1806 -170.81
0.66 -3.9526 -174.20 -2.4845 -83.95 -2.4845 -83.95 -3.9526 -174.20
0.69 -3.743 -177.57 -2.6505 -87.30 -2.6505 -87.30 -3.743 -177.57
0.72 -3.55 179.08 -2.8174 -90.63 -2.8174 -90.63 -3.55 179.08
0.75 -3.3719 175.76 -2.985 -93.95 -2.985 -93.95 -3.3719 175.76
0.78 -3.2072 172.44 -3.1532 -97.25 -3.1532 -97.25 -3.2072 172.44
0.81 -3.0545 169.13 -3.322 -100.54 -3.322 -100.54 -3.0545 169.13
0.84 -2.9128 165.83 -3.4915 -103.82 -3.4915 -103.82 -2.9128 165.83
0.87 -2.7809 162.52 -3.6618 -107.11 -3.6618 -107.11 -2.7809 162.52
0.9 -2.6579 159.20 -3.833 -110.41 -3.833 -110.41 -2.6579 159.20
0.93 -2.5429 155.88 -4.0055 -113.72 -4.0055 -113.72 -2.5429 155.88
0.96 -2.4352 152.53 -4.1794 -117.05 -4.1794 -117.05 -2.4352 152.53
0.99 -2.334 149.15 -4.3553 -120.40 -4.3553 -120.40 -2.334 149.15
1.02 -2.2387 145.74 -4.5337 -123.78 -4.5337 -123.78 -2.2387 145.74
1.05 -2.1488 142.29 -4.7152 -127.21 -4.7152 -127.21 -2.1488 142.29
1.08 -2.0636 138.78 -4.9005 -130.67 -4.9005 -130.67 -2.0636 138.78
1.11 -1.9828 135.22 -5.0906 -134.20 -5.0906 -134.20 -1.9828 135.22
1.14 -1.9058 131.59 -5.2865 -137.79 -5.2865 -137.79 -1.9058 131.59
1.17 -1.8323 127.88 -5.4895 -141.45 -5.4895 -141.45 -1.8323 127.88
1.2 -1.7619 124.08 -5.7012 -145.19 -5.7012 -145.19 -1.7619 124.08
1.23 -1.6942 120.18 -5.9234 -149.03 -5.9234 -149.03 -1.6942 120.18
1.26 -1.6289 116.16 -6.1583 -152.99 -6.1583 -152.99 -1.6289 116.16
1.29 -1.5659 112.00 -6.4086 -157.06 -6.4086 -157.06 -1.5659 112.00
1.32 -1.5049 107.69 -6.6776 -161.27 -6.6776 -161.27 -1.5049 107.69
1.35 -1.4457 103.21 -6.969 -165.64 -6.969 -165.64 -1.4457 103.21
1.38 -1.3883 98.53 -7.2878 -170.19 -7.2878 -170.19 -1.3883 98.53
1.41 -1.3327 93.63 -7.6397 -174.93 -7.6397 -174.93 -1.3327 93.63
1.44 -1.279 88.48 -8.0319 -179.88 -8.0319 -179.88 -1.279 88.48
1.47 -1.2275 83.05 -8.4733 174.92 -8.4733 174.92 -1.2275 83.05
1.5 -1.1787 77.31 -8.9752 169.46 -8.9752 169.46 -1.1787 77.31
1.53 -1.1331 71.22 -9.5513 163.71 -9.5513 163.71 -1.1331 71.22
1.56 -1.0917 64.74 -10.219 157.65 -10.219 157.65 -1.0917 64.74
1.59 -1.0557 57.84 -11.001 151.27 -11.001 151.27 -1.0557 57.84
1.62 -1.0263 50.47 -11.926 144.55 -11.926 144.55 -1.0263 50.47
1.65 -1.0052 42.59 -13.029 137.50 -13.029 137.50 -1.0052 42.59
1.68 -0.99367 34.18 -14.36 130.15 -14.36 130.15 -0.99367 34.18
1.71 -0.99304 25.22 -15.982 122.57 -15.982 122.57 -0.99304 25.22
1.74 -1.0038 15.71 -17.984 114.91 -17.984 114.91 -1.0038 15.71
1.77 -1.0253 5.64 -20.494 107.42 -20.494 107.42 -1.0253 5.64
1.8 -1.0555 -4.94 -23.711 100.61 -23.711 100.61 -1.0555 -4.94
1.83 -1.0909 -15.98 -27.972 95.55 -27.972 95.55 -1.0909 -15.98
1.86 -1.1269 -27.40 -33.923 95.13 -33.923 95.13 -1.1269 -27.40
1.89 -1.1584 -39.11 -42.929 109.89 -42.929 109.89 -1.1584 -39.11
1.92 -1.1813 -50.99 -54.305 -165.96 -54.305 -165.96 -1.1813 -50.99
1.95 -1.1934 -62.93 -46.294 -49.26 -46.294 -49.26 -1.1934 -62.93
1.98 -1.195 -74.80 -36.044 -24.28 -36.044 -24.28 -1.195 -74.80
2.01 -1.1888 -86.47 -29.389 -22.26 -29.389 -22.26 -1.1888 -86.47
2.04 -1.1789 -97.84 -24.718 -26.56 -24.718 -26.56 -1.1789 -97.84
2.07 -1.1699 -108.80 -21.237 -33.17 -21.237 -33.17 -1.1699 -108.80
2.1 -1.1657 -119.28 -18.545 -40.69 -18.545 -40.69 -1.1657 -119.28
2.13 -1.169 -129.22 -16.413 -48.50 -16.413 -48.50 -1.169 -129.22
2.16 -1.1809 -138.60 -14.698 -56.27 -14.698 -56.27 -1.1809 -138.60
2.19 -1.2015 -147.40 -13.299 -63.84 -13.299 -63.84 -1.2015 -147.40
2.22 -1.2301 -155.64 -12.148 -71.12 -12.148 -71.12 -1.2301 -155.64
2.25 -1.2654 -163.35 -11.19 -78.06 -11.19 -78.06 -1.2654 -163.35
2.28 -1.3062 -170.56 -10.386 -84.64 -10.386 -84.64 -1.3062 -170.56
2.31 -1.3514 -177.30 -9.7048 -90.89 -9.7048 -90.89 -1.3514 -177.30
2.34 -1.3998 176.38 -9.1221 -96.80 -9.1221 -96.80 -1.3998 176.38
2.37 -1.4508 170.44 -8.6188 -102.41 -8.6188 -102.41 -1.4508 170.44
2.4 -1.5038 164.84 -8.1797 -107.74 -8.1797 -107.74 -1.5038 164.84
2.43 -1.5584 159.55 -7.793 -112.81 -7.793 -112.81 -1.5584 159.55
2.46 -1.6144 154.53 -7.449 -117.64 -7.449 -117.64 -1.6144 154.53
2.49 -1.6719 149.75 -7.1399 -122.27 -7.1399 -122.27 -1.6719 149.75
2.52 -1.7307 145.19 -6.8596 -126.72 -6.8596 -126.72 -1.7307 145.19
2.55 -1.7912 140.82 -6.6029 -130.99 -6.6029 -130.99 -1.7912 140.82
2.58 -1.8534 136.61 -6.3657 -135.11 -6.3657 -135.11 -1.8534 136.61
2.61 -1.9175 132.56 -6.1445 -139.11 -6.1445 -139.11 -1.9175 132.56
2.64 -1.984 128.63 -5.9366 -142.98 -5.9366 -142.98 -1.984 128.63
2.67 -2.053 124.83 -5.7397 -146.75 -5.7397 -146.75 -2.053 124.83
2.7 -2.1249 121.13 -5.5518 -150.43 -5.5518 -150.43 -2.1249 121.13
2.73 -2.2001 117.51 -5.3713 -154.03 -5.3713 -154.03 -2.2001 117.51
2.76 -2.279 113.98 -5.1968 -157.56 -5.1968 -157.56 -2.279 113.98
2.79 -2.3619 110.51 -5.0273 -161.03 -5.0273 -161.03 -2.3619 110.51
2.82 -2.4495 107.11 -4.8617 -164.45 -4.8617 -164.45 -2.4495 107.11
2.85 -2.5421 103.76 -4.6994 -167.83 -4.6994 -167.83 -2.5421 103.76
2.88 -2.6403 100.45 -4.5396 -171.16 -4.5396 -171.16 -2.6403 100.45
2.91 -2.7448 97.17 -4.3818 -174.47 -4.3818 -174.47 -2.7448 97.17
2.94 -2.8561 93.93 -4.2256 -177.75 -4.2256 -177.75 -2.8561 93.93
2.97 -2.9749 90.71 -4.0707 178.98 -4.0707 178.98 -2.9749 90.71
3 -3.1021 87.51 -3.9167 175.72 -3.9167 175.72 -3.1021 87.51
3.03 -3.2385 84.33 -3.7634 172.47 -3.7634 172.47 -3.2385 84.33
3.06 -3.385 81.15 -3.6108 169.23 -3.6108 169.23 -3.385 81.15
3.09 -3.5428 77.98 -3.4588 165.97 -3.4588 165.97 -3.5428 77.98
3.12 -3.7129 74.81 -3.3073 162.71 -3.3073 162.71 -3.7129 74.81
3.15 -3.8967 71.64 -3.1564 159.44 -3.1564 159.44 -3.8967 71.64
3.18 -4.0957 68.46 -3.0063 156.15 -3.0063 156.15 -4.0957 68.46
3.21 -4.3115 65.27 -2.857 152.84 -2.857 152.84 -4.3115 65.27
3.24 -4.546 62.08 -2.7088 149.51 -2.7088 149.51 -4.546 62.08
3.27 -4.8014 58.86 -2.562 146.15 -2.562 146.15 -4.8014 58.86
3.3 -5.0801 55.64 -2.4169 142.76 -2.4169 142.76 -5.0801 55.64
3.33 -5.3848 52.40 -2.2739 139.33 -2.2739 139.33 -5.3848 52.40
3.36 -5.7189 49.15 -2.1334 135.86 -2.1334 135.86 -5.7189 49.15
3.39 -6.086 45.88 -1.9959 132.36 -1.9959 132.36 -6.086 45.88
3.42 -6.4906 42.61 -1.862 128.82 -1.862 128.82 -6.4906 42.61
3.45 -6.9378 39.33 -1.7322 125.23 -1.7322 125.23 -6.9378 39.33
3.48 -7.4338 36.06 -1.6073 121.60 -1.6073 121.60 -7.4338 36.06
3.51 -7.9862 32.80 -1.4878 117.92 -1.4878 117.92 -7.9862 32.80
3.54 -8.6043 29.57 -1.3745 114.20 -1.3745 114.20 -8.6043 29.57
3.57 -9.2996 26.39 -1.2681 110.43 -1.2681 110.43 -9.2996 26.39
3.6 -10.087 23.30 -1.1693 106.62 -1.1693 106.62 -10.087 23.30
3.63 -10.986 20.34 -1.079 102.76 -1.079 102.76 -10.986 20.34
3.66 -12.023 17.59 -0.99777 98.87 -0.99777 98.87 -12.023 17.59
3.69 -13.235 15.18 -0.9264 94.94 -0.9264 94.94 -13.235 15.18
3.72 -14.676 13.31 -0.86554 90.97 -0.86554 90.97 -14.676 13.31
3.75 -16.429 12.38 -0.81578 86.98 -0.81578 86.98 -16.429 12.38
3.78 -18.623 13.26 -0.77767 82.96 -0.77767 82.96 -18.623 13.26
3.81 -21.456 18.04 -0.75173 78.92 -0.75173 78.92 -21.456 18.04
3.84 -25.044 32.81 -0.73854 74.87 -0.73854 74.87 -25.044 32.81
3.87 -27.557 69.73 -0.73762 70.82 -0.73762 70.82 -27.557 69.73
3.9 -25.124 107.05 -0.74816 66.77 -0.74816 66.77 -25.124 107.05
3.93 -21.528 122.20 -0.77168 62.72 -0.77168 62.72 -21.528 122.20
3.96 -18.676 127.13 -0.80788 58.68 -0.80788 58.68 -18.676 127.13
3.99 -16.468 128.06 -0.85634 54.66 -0.85634 54.66 -16.468 128.06
4.02 -14.705 127.16 -0.91662 50.66 -0.91662 50.66 -14.705 127.16
4.05 -13.257 125.30 -0.98822 46.68 -0.98822 46.68 -13.257 125.30
4.08 -12.039 122.89 -1.0706 42.74 -1.0706 42.74 -12.039 122.89
4.11 -10.998 120.14 -1.163 38.84 -1.163 38.84 -10.998 120.14
4.14 -10.095 117.18 -1.265 34.98 -1.265 34.98 -10.095 117.18
4.17 -9.3054 114.09 -1.3756 31.16 -1.3756 31.16 -9.3054 114.09
4.2 -8.6083 110.91 -1.4943 27.38 -1.4943 27.38 -8.6083 110.91
4.23 -7.989 107.67 -1.6202 23.64 -1.6202 23.64 -7.989 107.67
4.26 -7.436 104.41 -1.7527 19.96 -1.7527 19.96 -7.436 104.41
4.29 -6.9398 101.13 -1.891 16.32 -1.891 16.32 -6.9398 101.13
4.32 -6.493 97.85 -2.0346 12.72 -2.0346 12.72 -6.493 97.85
4.35 -6.0893 94.57 -2.1826 9.17 -2.1826 9.17 -6.0893 94.57
4.38 -5.7234 91.31 -2.3346 5.66 -2.3346 5.66 -5.7234 91.31
4.41 -5.3911 88.06 -2.4901 2.19 -2.4901 2.19 -5.3911 88.06
4.44 -5.0885 84.82 -2.6485 -1.24 -2.6485 -1.24 -5.0885 84.82
4.47 -4.8123 81.59 -2.8093 -4.64 -2.8093 -4.64 -4.8123 81.59
4.5 -4.5599 78.39 -2.9724 -8.00 -2.9724 -8.00 -4.5599 78.39
4.53 -4.3288 75.19 -3.1372 -11.33 -3.1372 -11.33 -4.3288 75.19
4.56 -4.1167 72.01 -3.3037 -14.64 -3.3037 -14.64 -4.1167 72.01
4.59 -3.922 68.84 -3.4715 -17.93 -3.4715 -17.93 -3.922 68.84
4.62 -3.7428 65.68 -3.6405 -21.19 -3.6405 -21.19 -3.7428 65.68
4.65 -3.5778 62.52 -3.8108 -24.44 -3.8108 -24.44 -3.5778 62.52
4.68 -3.4257 59.36 -3.9822 -27.69 -3.9822 -27.69 -3.4257 59.36
4.71 -3.2853 56.19 -4.1548 -30.92 -4.1548 -30.92 -3.2853 56.19
4.74 -3.1556 53.02 -4.3287 -34.16 -4.3287 -34.16 -3.1556 53.02
4.77 -3.0357 49.83 -4.5043 -37.40 -4.5043 -37.40 -3.0357 49.83
4.8 -2.9248 46.63 -4.6816 -40.64 -4.6816 -40.64 -2.9248 46.63
4.83 -2.8222 43.41 -4.8611 -43.91 -4.8611 -43.91 -2.8222 43.41
4.86 -2.7273 40.15 -5.0432 -47.19 -5.0432 -47.19 -2.7273 40.15
4.89 -2.6395 36.86 -5.2285 -50.50 -5.2285 -50.50 -2.6395 36.86
4.92 -2.5582 33.52 -5.4177 -53.84 -5.4177 -53.84 -2.5582 33.52
4.95 -2.4832 30.13 -5.6115 -57.22 -5.6115 -57.22 -2.4832 30.13
4.98 -2.414 26.69 -5.811 -60.64 -5.811 -60.64 -2.414 26.69
5.01 -2.3503 23.17 -6.0173 -64.12 -6.0173 -64.12 -2.3503 23.17
5.04 -2.2919 19.58 -6.2317 -67.67 -6.2317 -67.67 -2.2919 19.58
5.07 -2.2386 15.89 -6.4559 -71.28 -6.4559 -71.28 -2.2386 15.89
5.1 -2.1903 12.10 -6.6918 -74.97 -6.6918 -74.97 -2.1903 12.10
5.13 -2.1469 8.20 -6.9417 -78.76 -6.9417 -78.76 -2.1469 8.20
5.16 -2.1085 4.16 -7.2085 -82.65 -7.2085 -82.65 -2.1085 4.16
5.19 -2.0752 -0.03 -7.4953 -86.65 -7.4953 -86.65 -2.0752 -0.03
5.22 -2.0471 -4.40 -7.8063 -90.78 -7.8063 -90.78 -2.0471 -4.40
5.25 -2.0247 -8.95 -8.1462 -95.05 -8.1462 -95.05 -2.0247 -8.95
5.28 -2.0083 -13.72 -8.521 -99.47 -8.521 -99.47 -2.0083 -13.72
5.31 -1.9985 -18.74 -8.9377 -104.05 -8.9377 -104.05 -1.9985 -18.74
5.34 -1.9961 -24.03 -9.4053 -108.81 -9.4053 -108.81 -1.9961 -24.03
5.37 -2.0019 -29.62 -9.9344 -113.75 -9.9344 -113.75 -2.0019 -29.62
5.4 -2.0172 -35.57 -10.538 -118.89 -10.538 -118.89 -2.0172 -35.57
5.43 -2.0431 -41.89 -11.234 -124.21 -11.234 -124.21 -2.0431 -41.89
5.46 -2.0809 -48.65 -12.042 -129.70 -12.042 -129.70 -2.0809 -48.65
5.49 -2.132 -55.87 -12.987 -135.34 -12.987 -135.34 -2.132 -55.87
5.52 -2.1974 -63.60 -14.103 -141.05 -14.103 -141.05 -2.1974 -63.60
5.55 -2.2778 -71.87 -15.432 -146.74 -15.432 -146.74 -2.2778 -71.87
5.58 -2.3727 -80.72 -17.027 -152.22 -17.027 -152.22 -2.3727 -80.72
5.61 -2.4805 -90.17 -18.957 -157.18 -18.957 -157.18 -2.4805 -90.17
5.64 -2.5976 -100.23 -21.318 -161.09 -21.318 -161.09 -2.5976 -100.23
5.67 -2.7183 -110.87 -24.232 -163.00 -24.232 -163.00 -2.7183 -110.87
5.7 -2.8347 -122.05 -27.855 -161.04 -27.855 -161.04 -2.8347 -122.05
5.73 -2.9376 -133.70 -32.306 -151.34 -32.306 -151.34 -2.9376 -133.70
5.76 -3.0176 -145.71 -37.225 -126.05 -37.225 -126.05 -3.0176 -145.71
5.79 -3.0671 -157.96 -40.269 -77.69 -40.269 -77.69 -3.0671 -157.96
5.82 -3.0816 -170.28 -38.268 -25.21 -38.268 -25.21 -3.0816 -170.28
5.85 -3.061 177.48 -33.446 5.40 -33.446 5.40 -3.061 177.48
5.88 -3.0096 165.48 -28.782 17.89 -28.782 17.89 -3.0096 165.48
5.91 -2.9348 153.85 -24.942 21.14 -24.942 21.14 -2.9348 153.85
5.94 -2.8457 142.71 -21.853 19.80 -21.853 19.80 -2.8457 142.71
5.97 -2.7508 132.13 -19.358 16.09 -19.358 16.09 -2.7508 132.13
6 -2.6576 122.14 -17.326 11.16 -17.326 11.16 -2.6576 122.14
