! yapnr Order 0 O0-M: O0-M A12 STUB (stub, family M)
! stackup OSHPARK-4L-FR408HR, nominal parameters; geometry of the OSHPARK-4L-FR408HR design
! model: 2D quasi-static RLGC (Djordjevic-Sarkar, Huray roughness, Wheeler loss); generated by python -m yapnr.rf.coupons expected --stackup OSHPARK-4L-FR408HR --upload M
! reference planes 10 mm from each end; 50 ohm (from the M line's Zc)
# GHz S DB R 50
0.03 -48.324 -83.35 -0.0061953 -1.17 -0.0061953 -1.17 -48.324 -83.35
0.06 -42.068 -87.33 -0.0094176 -2.32 -0.0094176 -2.32 -42.068 -87.33
0.09 -38.449 -89.65 -0.01232 -3.46 -0.01232 -3.46 -38.449 -89.65
0.12 -35.897 -91.48 -0.015131 -4.60 -0.015131 -4.60 -35.897 -91.48
0.15 -33.926 -93.07 -0.01794 -5.74 -0.01794 -5.74 -33.926 -93.07
0.18 -32.319 -94.54 -0.020793 -6.88 -0.020793 -6.88 -32.319 -94.54
0.21 -30.963 -95.93 -0.023716 -8.01 -0.023716 -8.01 -30.963 -95.93
0.24 -29.791 -97.27 -0.026727 -9.15 -0.026727 -9.15 -29.791 -97.27
0.27 -28.758 -98.57 -0.02984 -10.29 -0.02984 -10.29 -28.758 -98.57
0.3 -27.834 -99.85 -0.033062 -11.42 -0.033062 -11.42 -27.834 -99.85
0.33 -26.999 -101.11 -0.036403 -12.56 -0.036403 -12.56 -26.999 -101.11
0.36 -26.236 -102.35 -0.039867 -13.69 -0.039867 -13.69 -26.236 -102.35
0.39 -25.535 -103.58 -0.043459 -14.82 -0.043459 -14.82 -25.535 -103.58
0.42 -24.886 -104.80 -0.047184 -15.96 -0.047184 -15.96 -24.886 -104.80
0.45 -24.281 -106.01 -0.051045 -17.09 -0.051045 -17.09 -24.281 -106.01
0.48 -23.715 -107.21 -0.055046 -18.23 -0.055046 -18.23 -23.715 -107.21
0.51 -23.183 -108.41 -0.059191 -19.36 -0.059191 -19.36 -23.183 -108.41
0.54 -22.681 -109.60 -0.063481 -20.50 -0.063481 -20.50 -22.681 -109.60
0.57 -22.206 -110.79 -0.06792 -21.63 -0.06792 -21.63 -22.206 -110.79
0.6 -21.755 -111.97 -0.072511 -22.77 -0.072511 -22.77 -21.755 -111.97
0.63 -21.325 -113.16 -0.077257 -23.90 -0.077257 -23.90 -21.325 -113.16
0.66 -20.915 -114.34 -0.08216 -25.04 -0.08216 -25.04 -20.915 -114.34
0.69 -20.523 -115.51 -0.087223 -26.18 -0.087223 -26.18 -20.523 -115.51
0.72 -20.147 -116.69 -0.092449 -27.31 -0.092449 -27.31 -20.147 -116.69
0.75 -19.785 -117.86 -0.09784 -28.45 -0.09784 -28.45 -19.785 -117.86
0.78 -19.437 -119.04 -0.1034 -29.59 -0.1034 -29.59 -19.437 -119.04
0.81 -19.102 -120.21 -0.10913 -30.73 -0.10913 -30.73 -19.102 -120.21
0.84 -18.779 -121.38 -0.11504 -31.87 -0.11504 -31.87 -18.779 -121.38
0.87 -18.466 -122.55 -0.12112 -33.01 -0.12112 -33.01 -18.466 -122.55
0.9 -18.163 -123.72 -0.12739 -34.15 -0.12739 -34.15 -18.163 -123.72
0.93 -17.87 -124.89 -0.13384 -35.29 -0.13384 -35.29 -17.87 -124.89
0.96 -17.585 -126.06 -0.14047 -36.43 -0.14047 -36.43 -17.585 -126.06
0.99 -17.309 -127.23 -0.1473 -37.58 -0.1473 -37.58 -17.309 -127.23
1.02 -17.04 -128.40 -0.15432 -38.72 -0.15432 -38.72 -17.04 -128.40
1.05 -16.778 -129.57 -0.16154 -39.87 -0.16154 -39.87 -16.778 -129.57
1.08 -16.523 -130.74 -0.16896 -41.01 -0.16896 -41.01 -16.523 -130.74
1.11 -16.274 -131.91 -0.17659 -42.16 -0.17659 -42.16 -16.274 -131.91
1.14 -16.032 -133.09 -0.18442 -43.31 -0.18442 -43.31 -16.032 -133.09
1.17 -15.795 -134.26 -0.19248 -44.46 -0.19248 -44.46 -15.795 -134.26
1.2 -15.564 -135.43 -0.20075 -45.61 -0.20075 -45.61 -15.564 -135.43
1.23 -15.337 -136.60 -0.20924 -46.76 -0.20924 -46.76 -15.337 -136.60
1.26 -15.116 -137.78 -0.21796 -47.92 -0.21796 -47.92 -15.116 -137.78
1.29 -14.899 -138.95 -0.22691 -49.07 -0.22691 -49.07 -14.899 -138.95
1.32 -14.686 -140.13 -0.2361 -50.23 -0.2361 -50.23 -14.686 -140.13
1.35 -14.478 -141.30 -0.24553 -51.38 -0.24553 -51.38 -14.478 -141.30
1.38 -14.273 -142.48 -0.25521 -52.54 -0.25521 -52.54 -14.273 -142.48
1.41 -14.072 -143.66 -0.26515 -53.70 -0.26515 -53.70 -14.072 -143.66
1.44 -13.875 -144.84 -0.27534 -54.86 -0.27534 -54.86 -13.875 -144.84
1.47 -13.681 -146.02 -0.2858 -56.03 -0.2858 -56.03 -13.681 -146.02
1.5 -13.491 -147.20 -0.29653 -57.19 -0.29653 -57.19 -13.491 -147.20
1.53 -13.304 -148.39 -0.30753 -58.36 -0.30753 -58.36 -13.304 -148.39
1.56 -13.119 -149.57 -0.31882 -59.52 -0.31882 -59.52 -13.119 -149.57
1.59 -12.938 -150.76 -0.3304 -60.69 -0.3304 -60.69 -12.938 -150.76
1.62 -12.759 -151.94 -0.34228 -61.86 -0.34228 -61.86 -12.759 -151.94
1.65 -12.583 -153.13 -0.35446 -63.04 -0.35446 -63.04 -12.583 -153.13
1.68 -12.41 -154.33 -0.36695 -64.21 -0.36695 -64.21 -12.41 -154.33
1.71 -12.239 -155.52 -0.37977 -65.39 -0.37977 -65.39 -12.239 -155.52
1.74 -12.07 -156.71 -0.39291 -66.57 -0.39291 -66.57 -12.07 -156.71
1.77 -11.904 -157.91 -0.40638 -67.75 -0.40638 -67.75 -11.904 -157.91
1.8 -11.74 -159.11 -0.4202 -68.93 -0.4202 -68.93 -11.74 -159.11
1.83 -11.577 -160.31 -0.43438 -70.11 -0.43438 -70.11 -11.577 -160.31
1.86 -11.417 -161.51 -0.44891 -71.30 -0.44891 -71.30 -11.417 -161.51
1.89 -11.259 -162.71 -0.46382 -72.49 -0.46382 -72.49 -11.259 -162.71
1.92 -11.103 -163.92 -0.47911 -73.68 -0.47911 -73.68 -11.103 -163.92
1.95 -10.948 -165.13 -0.49478 -74.87 -0.49478 -74.87 -10.948 -165.13
1.98 -10.796 -166.34 -0.51086 -76.07 -0.51086 -76.07 -10.796 -166.34
2.01 -10.645 -167.55 -0.52736 -77.27 -0.52736 -77.27 -10.645 -167.55
2.04 -10.495 -168.77 -0.54427 -78.47 -0.54427 -78.47 -10.495 -168.77
2.07 -10.347 -169.99 -0.56162 -79.67 -0.56162 -79.67 -10.347 -169.99
2.1 -10.201 -171.21 -0.57942 -80.87 -0.57942 -80.87 -10.201 -171.21
2.13 -10.056 -172.43 -0.59767 -82.08 -0.59767 -82.08 -10.056 -172.43
2.16 -9.9127 -173.65 -0.6164 -83.29 -0.6164 -83.29 -9.9127 -173.65
2.19 -9.7707 -174.88 -0.63561 -84.50 -0.63561 -84.50 -9.7707 -174.88
2.22 -9.63 -176.11 -0.65532 -85.72 -0.65532 -85.72 -9.63 -176.11
2.25 -9.4907 -177.35 -0.67554 -86.94 -0.67554 -86.94 -9.4907 -177.35
2.28 -9.3526 -178.58 -0.69629 -88.16 -0.69629 -88.16 -9.3526 -178.58
2.31 -9.2157 -179.82 -0.71758 -89.38 -0.71758 -89.38 -9.2157 -179.82
2.34 -9.0801 178.94 -0.73943 -90.61 -0.73943 -90.61 -9.0801 178.94
2.37 -8.9456 177.69 -0.76185 -91.84 -0.76185 -91.84 -8.9456 177.69
2.4 -8.8122 176.44 -0.78487 -93.07 -0.78487 -93.07 -8.8122 176.44
2.43 -8.68 175.19 -0.80849 -94.31 -0.80849 -94.31 -8.68 175.19
2.46 -8.5488 173.94 -0.83274 -95.55 -0.83274 -95.55 -8.5488 173.94
2.49 -8.4186 172.68 -0.85763 -96.79 -0.85763 -96.79 -8.4186 172.68
2.52 -8.2895 171.42 -0.88319 -98.04 -0.88319 -98.04 -8.2895 171.42
2.55 -8.1614 170.15 -0.90943 -99.29 -0.90943 -99.29 -8.1614 170.15
2.58 -8.0342 168.89 -0.93638 -100.54 -0.93638 -100.54 -8.0342 168.89
2.61 -7.908 167.61 -0.96405 -101.80 -0.96405 -101.80 -7.908 167.61
2.64 -7.7827 166.34 -0.99248 -103.06 -0.99248 -103.06 -7.7827 166.34
2.67 -7.6584 165.06 -1.0217 -104.32 -1.0217 -104.32 -7.6584 165.06
2.7 -7.5349 163.78 -1.0517 -105.59 -1.0517 -105.59 -7.5349 163.78
2.73 -7.4123 162.49 -1.0825 -106.86 -1.0825 -106.86 -7.4123 162.49
2.76 -7.2906 161.20 -1.1141 -108.14 -1.1141 -108.14 -7.2906 161.20
2.79 -7.1697 159.90 -1.1467 -109.42 -1.1467 -109.42 -7.1697 159.90
2.82 -7.0496 158.60 -1.1801 -110.70 -1.1801 -110.70 -7.0496 158.60
2.85 -6.9303 157.30 -1.2145 -111.99 -1.2145 -111.99 -6.9303 157.30
2.88 -6.8119 155.99 -1.2498 -113.28 -1.2498 -113.28 -6.8119 155.99
2.91 -6.6942 154.68 -1.2861 -114.57 -1.2861 -114.57 -6.6942 154.68
2.94 -6.5773 153.36 -1.3235 -115.87 -1.3235 -115.87 -6.5773 153.36
2.97 -6.4612 152.04 -1.3619 -117.18 -1.3619 -117.18 -6.4612 152.04
3 -6.3458 150.72 -1.4014 -118.49 -1.4014 -118.49 -6.3458 150.72
3.03 -6.2312 149.39 -1.442 -119.80 -1.442 -119.80 -6.2312 149.39
3.06 -6.1174 148.05 -1.4838 -121.12 -1.4838 -121.12 -6.1174 148.05
3.09 -6.0042 146.71 -1.5268 -122.44 -1.5268 -122.44 -6.0042 146.71
3.12 -5.8919 145.37 -1.5711 -123.77 -1.5711 -123.77 -5.8919 145.37
3.15 -5.7802 144.02 -1.6166 -125.10 -1.6166 -125.10 -5.7802 144.02
3.18 -5.6693 142.66 -1.6635 -126.44 -1.6635 -126.44 -5.6693 142.66
3.21 -5.5591 141.30 -1.7118 -127.78 -1.7118 -127.78 -5.5591 141.30
3.24 -5.4496 139.93 -1.7615 -129.13 -1.7615 -129.13 -5.4496 139.93
3.27 -5.3408 138.56 -1.8127 -130.48 -1.8127 -130.48 -5.3408 138.56
3.3 -5.2328 137.19 -1.8654 -131.84 -1.8654 -131.84 -5.2328 137.19
3.33 -5.1255 135.80 -1.9197 -133.20 -1.9197 -133.20 -5.1255 135.80
3.36 -5.0189 134.41 -1.9756 -134.57 -1.9756 -134.57 -5.0189 134.41
3.39 -4.9131 133.02 -2.0333 -135.94 -2.0333 -135.94 -4.9131 133.02
3.42 -4.808 131.62 -2.0927 -137.32 -2.0927 -137.32 -4.808 131.62
3.45 -4.7036 130.21 -2.154 -138.71 -2.154 -138.71 -4.7036 130.21
3.48 -4.6 128.80 -2.2171 -140.10 -2.2171 -140.10 -4.6 128.80
3.51 -4.4971 127.38 -2.2823 -141.49 -2.2823 -141.49 -4.4971 127.38
3.54 -4.3949 125.96 -2.3494 -142.89 -2.3494 -142.89 -4.3949 125.96
3.57 -4.2936 124.53 -2.4187 -144.30 -2.4187 -144.30 -4.2936 124.53
3.6 -4.193 123.09 -2.4902 -145.72 -2.4902 -145.72 -4.193 123.09
3.63 -4.0932 121.65 -2.564 -147.14 -2.564 -147.14 -4.0932 121.65
3.66 -3.9942 120.20 -2.6401 -148.56 -2.6401 -148.56 -3.9942 120.20
3.69 -3.896 118.74 -2.7188 -149.99 -2.7188 -149.99 -3.896 118.74
3.72 -3.7986 117.27 -2.7999 -151.43 -2.7999 -151.43 -3.7986 117.27
3.75 -3.7021 115.80 -2.8838 -152.87 -2.8838 -152.87 -3.7021 115.80
3.78 -3.6064 114.33 -2.9704 -154.32 -2.9704 -154.32 -3.6064 114.33
3.81 -3.5116 112.84 -3.0599 -155.78 -3.0599 -155.78 -3.5116 112.84
3.84 -3.4176 111.35 -3.1524 -157.24 -3.1524 -157.24 -3.4176 111.35
3.87 -3.3246 109.85 -3.248 -158.71 -3.248 -158.71 -3.3246 109.85
3.9 -3.2325 108.34 -3.3469 -160.19 -3.3469 -160.19 -3.2325 108.34
3.93 -3.1413 106.83 -3.4492 -161.67 -3.4492 -161.67 -3.1413 106.83
3.96 -3.0511 105.31 -3.555 -163.15 -3.555 -163.15 -3.0511 105.31
3.99 -2.9619 103.78 -3.6644 -164.65 -3.6644 -164.65 -2.9619 103.78
4.02 -2.8737 102.24 -3.7778 -166.15 -3.7778 -166.15 -2.8737 102.24
4.05 -2.7865 100.70 -3.8951 -167.65 -3.8951 -167.65 -2.7865 100.70
4.08 -2.7004 99.15 -4.0166 -169.17 -4.0166 -169.17 -2.7004 99.15
4.11 -2.6154 97.59 -4.1425 -170.68 -4.1425 -170.68 -2.6154 97.59
4.14 -2.5314 96.02 -4.273 -172.21 -4.273 -172.21 -2.5314 96.02
4.17 -2.4486 94.44 -4.4082 -173.74 -4.4082 -173.74 -2.4486 94.44
4.2 -2.367 92.86 -4.5485 -175.27 -4.5485 -175.27 -2.367 92.86
4.23 -2.2866 91.27 -4.694 -176.82 -4.694 -176.82 -2.2866 91.27
4.26 -2.2074 89.67 -4.845 -178.36 -4.845 -178.36 -2.2074 89.67
4.29 -2.1295 88.07 -5.0018 -179.92 -5.0018 -179.92 -2.1295 88.07
4.32 -2.0528 86.45 -5.1647 178.53 -5.1647 178.53 -2.0528 86.45
4.35 -1.9775 84.83 -5.3339 176.96 -5.3339 176.96 -1.9775 84.83
4.38 -1.9035 83.20 -5.5099 175.40 -5.5099 175.40 -1.9035 83.20
4.41 -1.8309 81.56 -5.6929 173.83 -5.6929 173.83 -1.8309 81.56
4.44 -1.7598 79.92 -5.8833 172.25 -5.8833 172.25 -1.7598 79.92
4.47 -1.6901 78.26 -6.0816 170.67 -6.0816 170.67 -1.6901 78.26
4.5 -1.6219 76.60 -6.2881 169.09 -6.2881 169.09 -1.6219 76.60
4.53 -1.5553 74.94 -6.5035 167.50 -6.5035 167.50 -1.5553 74.94
4.56 -1.4902 73.26 -6.7282 165.91 -6.7282 165.91 -1.4902 73.26
4.59 -1.4267 71.58 -6.9627 164.32 -6.9627 164.32 -1.4267 71.58
4.62 -1.3649 69.89 -7.2077 162.73 -7.2077 162.73 -1.3649 69.89
4.65 -1.3048 68.19 -7.4639 161.14 -7.4639 161.14 -1.3048 68.19
4.68 -1.2464 66.48 -7.7321 159.55 -7.7321 159.55 -1.2464 66.48
4.71 -1.1897 64.77 -8.013 157.96 -8.013 157.96 -1.1897 64.77
4.74 -1.1348 63.05 -8.3076 156.38 -8.3076 156.38 -1.1348 63.05
4.77 -1.0818 61.33 -8.617 154.80 -8.617 154.80 -1.0818 61.33
4.8 -1.0307 59.59 -8.9422 153.22 -8.9422 153.22 -1.0307 59.59
4.83 -0.98142 57.86 -9.2845 151.66 -9.2845 151.66 -0.98142 57.86
4.86 -0.93412 56.11 -9.6455 150.10 -9.6455 150.10 -0.93412 56.11
4.89 -0.8888 54.36 -10.027 148.56 -10.027 148.56 -0.8888 54.36
4.92 -0.84549 52.60 -10.43 147.03 -10.43 147.03 -0.84549 52.60
4.95 -0.80423 50.84 -10.858 145.52 -10.858 145.52 -0.80423 50.84
4.98 -0.76505 49.07 -11.313 144.03 -11.313 144.03 -0.76505 49.07
5.01 -0.72798 47.30 -11.797 142.58 -11.797 142.58 -0.72798 47.30
5.04 -0.69305 45.52 -12.316 141.16 -12.316 141.16 -0.69305 45.52
5.07 -0.66029 43.74 -12.871 139.78 -12.871 139.78 -0.66029 43.74
5.1 -0.62973 41.96 -13.469 138.46 -13.469 138.46 -0.62973 41.96
5.13 -0.6014 40.17 -14.116 137.22 -14.116 137.22 -0.6014 40.17
5.16 -0.57532 38.37 -14.82 136.06 -14.82 136.06 -0.57532 38.37
5.19 -0.5515 36.58 -15.589 135.02 -15.589 135.02 -0.5515 36.58
5.22 -0.52998 34.78 -16.436 134.14 -16.436 134.14 -0.52998 34.78
5.25 -0.51077 32.97 -17.377 133.47 -17.377 133.47 -0.51077 32.97
5.28 -0.49389 31.17 -18.434 133.10 -18.434 133.10 -0.49389 31.17
5.31 -0.47935 29.36 -19.633 133.16 -19.633 133.16 -0.47935 29.36
5.34 -0.46717 27.55 -21.017 133.86 -21.017 133.86 -0.46717 27.55
5.37 -0.45736 25.74 -22.639 135.62 -22.639 135.62 -0.45736 25.74
5.4 -0.44992 23.93 -24.577 139.19 -24.577 139.19 -0.44992 23.93
5.43 -0.44486 22.12 -26.912 146.22 -26.912 146.22 -0.44486 22.12
5.46 -0.44219 20.31 -29.588 160.29 -29.588 160.29 -0.44219 20.31
5.49 -0.4419 18.49 -31.691 -173.20 -31.691 -173.20 -0.4419 18.49
5.52 -0.444 16.68 -31.134 -140.50 -31.134 -140.50 -0.444 16.68
5.55 -0.44849 14.87 -28.613 -118.91 -28.613 -118.91 -0.44849 14.87
5.58 -0.45535 13.06 -26.032 -107.99 -26.032 -107.99 -0.45535 13.06
5.61 -0.46458 11.25 -23.854 -102.49 -23.854 -102.49 -0.46458 11.25
5.64 -0.47618 9.45 -22.046 -99.70 -22.046 -99.70 -0.47618 9.45
5.67 -0.49012 7.64 -20.524 -98.39 -20.524 -98.39 -0.49012 7.64
5.7 -0.5064 5.84 -19.218 -97.95 -19.218 -97.95 -0.5064 5.84
5.73 -0.52501 4.04 -18.08 -98.06 -18.08 -98.06 -0.52501 4.04
5.76 -0.54591 2.25 -17.074 -98.54 -17.074 -98.54 -0.54591 2.25
5.79 -0.56909 0.45 -16.174 -99.29 -16.174 -99.29 -0.56909 0.45
5.82 -0.59454 -1.34 -15.362 -100.22 -15.362 -100.22 -0.59454 -1.34
5.85 -0.62223 -3.12 -14.624 -101.30 -14.624 -101.30 -0.62223 -3.12
5.88 -0.65212 -4.90 -13.947 -102.48 -13.947 -102.48 -0.65212 -4.90
5.91 -0.6842 -6.68 -13.324 -103.75 -13.324 -103.75 -0.6842 -6.68
5.94 -0.71845 -8.45 -12.747 -105.07 -12.747 -105.07 -0.71845 -8.45
5.97 -0.75482 -10.21 -12.211 -106.46 -12.211 -106.46 -0.75482 -10.21
6 -0.79328 -11.97 -11.71 -107.88 -11.71 -107.88 -0.79328 -11.97
