! yapnr Order 0 O0-M: O0-M A14 SHUNT 100R (switch, family M)
! stackup OSHPARK-4L-FR408HR, nominal parameters; geometry of the OSHPARK-4L-FR408HR design
! model: 2D quasi-static RLGC (Djordjevic-Sarkar, Huray roughness, Wheeler loss); generated by python -m yapnr.rf.coupons expected --stackup OSHPARK-4L-FR408HR --upload M
! reference planes 10 mm from each end; 50 ohm (from the M line's Zc)
# GHz S DB R 50
0.03 -14.018 179.12 -1.9519 -1.86 -1.9519 -1.86 -14.045 176.55
0.06 -14.033 178.37 -1.9581 -3.66 -1.9581 -3.66 -14.069 173.32
0.09 -14.044 177.64 -1.9632 -5.46 -1.9632 -5.46 -14.085 170.13
0.12 -14.054 176.92 -1.9677 -7.25 -1.9677 -7.25 -14.097 166.96
0.15 -14.063 176.21 -1.9718 -9.04 -1.9718 -9.04 -14.107 163.80
0.18 -14.071 175.50 -1.9757 -10.82 -1.9757 -10.82 -14.114 160.64
0.21 -14.079 174.80 -1.9794 -12.60 -1.9794 -12.60 -14.12 157.49
0.24 -14.087 174.09 -1.983 -14.38 -1.983 -14.38 -14.124 154.35
0.27 -14.094 173.39 -1.9864 -16.16 -1.9864 -16.16 -14.127 151.21
0.3 -14.102 172.70 -1.9898 -17.94 -1.9898 -17.94 -14.128 148.07
0.33 -14.109 172.00 -1.9931 -19.72 -1.9931 -19.72 -14.128 144.94
0.36 -14.116 171.31 -1.9963 -21.49 -1.9963 -21.49 -14.128 141.81
0.39 -14.123 170.62 -1.9994 -23.27 -1.9994 -23.27 -14.126 138.69
0.42 -14.13 169.93 -2.0026 -25.04 -2.0026 -25.04 -14.123 135.57
0.45 -14.138 169.24 -2.0056 -26.82 -2.0056 -26.82 -14.119 132.45
0.48 -14.145 168.55 -2.0087 -28.59 -2.0087 -28.59 -14.115 129.34
0.51 -14.152 167.87 -2.0116 -30.36 -2.0116 -30.36 -14.109 126.24
0.54 -14.159 167.19 -2.0146 -32.13 -2.0146 -32.13 -14.103 123.14
0.57 -14.167 166.51 -2.0175 -33.90 -2.0175 -33.90 -14.097 120.04
0.6 -14.174 165.83 -2.0205 -35.67 -2.0205 -35.67 -14.09 116.95
0.63 -14.181 165.16 -2.0233 -37.44 -2.0233 -37.44 -14.082 113.87
0.66 -14.189 164.48 -2.0262 -39.21 -2.0262 -39.21 -14.073 110.79
0.69 -14.196 163.81 -2.029 -40.98 -2.029 -40.98 -14.065 107.72
0.72 -14.203 163.14 -2.0318 -42.75 -2.0318 -42.75 -14.056 104.65
0.75 -14.21 162.47 -2.0346 -44.52 -2.0346 -44.52 -14.046 101.58
0.78 -14.218 161.81 -2.0374 -46.29 -2.0374 -46.29 -14.036 98.53
0.81 -14.225 161.14 -2.0401 -48.06 -2.0401 -48.06 -14.026 95.48
0.84 -14.232 160.48 -2.0428 -49.82 -2.0428 -49.82 -14.016 92.43
0.87 -14.239 159.82 -2.0455 -51.59 -2.0455 -51.59 -14.005 89.39
0.9 -14.246 159.17 -2.0482 -53.36 -2.0482 -53.36 -13.995 86.36
0.93 -14.253 158.51 -2.0509 -55.12 -2.0509 -55.12 -13.984 83.33
0.96 -14.26 157.86 -2.0535 -56.89 -2.0535 -56.89 -13.973 80.31
0.99 -14.266 157.21 -2.0561 -58.65 -2.0561 -58.65 -13.963 77.29
1.02 -14.273 156.56 -2.0587 -60.42 -2.0587 -60.42 -13.952 74.28
1.05 -14.279 155.92 -2.0612 -62.18 -2.0612 -62.18 -13.941 71.28
1.08 -14.285 155.27 -2.0638 -63.95 -2.0638 -63.95 -13.931 68.28
1.11 -14.291 154.63 -2.0663 -65.71 -2.0663 -65.71 -13.921 65.28
1.14 -14.297 153.99 -2.0687 -67.47 -2.0687 -67.47 -13.911 62.29
1.17 -14.303 153.35 -2.0712 -69.24 -2.0712 -69.24 -13.901 59.31
1.2 -14.308 152.72 -2.0736 -71.00 -2.0736 -71.00 -13.891 56.33
1.23 -14.313 152.08 -2.076 -72.76 -2.076 -72.76 -13.882 53.36
1.26 -14.318 151.45 -2.0784 -74.53 -2.0784 -74.53 -13.874 50.39
1.29 -14.323 150.82 -2.0807 -76.29 -2.0807 -76.29 -13.865 47.42
1.32 -14.328 150.19 -2.083 -78.05 -2.083 -78.05 -13.857 44.46
1.35 -14.332 149.57 -2.0853 -79.81 -2.0853 -79.81 -13.85 41.51
1.38 -14.336 148.94 -2.0876 -81.57 -2.0876 -81.57 -13.843 38.56
1.41 -14.339 148.32 -2.0898 -83.34 -2.0898 -83.34 -13.836 35.61
1.44 -14.342 147.69 -2.092 -85.10 -2.092 -85.10 -13.83 32.66
1.47 -14.345 147.07 -2.0941 -86.86 -2.0941 -86.86 -13.825 29.72
1.5 -14.348 146.45 -2.0963 -88.62 -2.0963 -88.62 -13.82 26.79
1.53 -14.35 145.84 -2.0983 -90.38 -2.0983 -90.38 -13.816 23.85
1.56 -14.352 145.22 -2.1004 -92.14 -2.1004 -92.14 -13.812 20.92
1.59 -14.354 144.60 -2.1024 -93.90 -2.1024 -93.90 -13.81 17.99
1.62 -14.355 143.99 -2.1044 -95.66 -2.1044 -95.66 -13.807 15.07
1.65 -14.355 143.37 -2.1064 -97.42 -2.1064 -97.42 -13.806 12.14
1.68 -14.356 142.76 -2.1083 -99.18 -2.1083 -99.18 -13.805 9.22
1.71 -14.356 142.15 -2.1102 -100.94 -2.1102 -100.94 -13.805 6.30
1.74 -14.356 141.53 -2.1121 -102.70 -2.1121 -102.70 -13.805 3.38
1.77 -14.355 140.92 -2.1139 -104.46 -2.1139 -104.46 -13.806 0.46
1.8 -14.354 140.31 -2.1157 -106.22 -2.1157 -106.22 -13.808 -2.46
1.83 -14.352 139.70 -2.1175 -107.98 -2.1175 -107.98 -13.811 -5.38
1.86 -14.35 139.08 -2.1192 -109.74 -2.1192 -109.74 -13.815 -8.29
1.89 -14.348 138.47 -2.121 -111.50 -2.121 -111.50 -13.819 -11.21
1.92 -14.345 137.86 -2.1226 -113.26 -2.1226 -113.26 -13.824 -14.13
1.95 -14.342 137.24 -2.1243 -115.02 -2.1243 -115.02 -13.829 -17.04
1.98 -14.339 136.63 -2.1259 -116.78 -2.1259 -116.78 -13.836 -19.96
2.01 -14.335 136.02 -2.1275 -118.54 -2.1275 -118.54 -13.843 -22.88
2.04 -14.331 135.40 -2.129 -120.30 -2.129 -120.30 -13.851 -25.80
2.07 -14.326 134.79 -2.1306 -122.06 -2.1306 -122.06 -13.859 -28.72
2.1 -14.321 134.17 -2.1321 -123.82 -2.1321 -123.82 -13.868 -31.64
2.13 -14.316 133.55 -2.1336 -125.58 -2.1336 -125.58 -13.878 -34.57
2.16 -14.311 132.93 -2.135 -127.34 -2.135 -127.34 -13.889 -37.50
2.19 -14.305 132.31 -2.1364 -129.10 -2.1364 -129.10 -13.9 -40.43
2.22 -14.298 131.69 -2.1378 -130.86 -2.1378 -130.86 -13.912 -43.36
2.25 -14.292 131.07 -2.1392 -132.62 -2.1392 -132.62 -13.924 -46.29
2.28 -14.285 130.45 -2.1406 -134.38 -2.1406 -134.38 -13.938 -49.23
2.31 -14.278 129.82 -2.1419 -136.14 -2.1419 -136.14 -13.951 -52.17
2.34 -14.271 129.19 -2.1433 -137.90 -2.1433 -137.90 -13.965 -55.12
2.37 -14.263 128.56 -2.1446 -139.66 -2.1446 -139.66 -13.98 -58.06
2.4 -14.255 127.93 -2.1459 -141.42 -2.1459 -141.42 -13.996 -61.02
2.43 -14.247 127.30 -2.1471 -143.19 -2.1471 -143.19 -14.011 -63.97
2.46 -14.239 126.66 -2.1484 -144.95 -2.1484 -144.95 -14.027 -66.93
2.49 -14.231 126.03 -2.1496 -146.71 -2.1496 -146.71 -14.044 -69.90
2.52 -14.222 125.39 -2.1509 -148.47 -2.1509 -148.47 -14.061 -72.87
2.55 -14.213 124.75 -2.1521 -150.23 -2.1521 -150.23 -14.078 -75.84
2.58 -14.205 124.10 -2.1533 -151.99 -2.1533 -151.99 -14.096 -78.82
2.61 -14.196 123.46 -2.1545 -153.75 -2.1545 -153.75 -14.114 -81.80
2.64 -14.187 122.81 -2.1557 -155.51 -2.1557 -155.51 -14.132 -84.79
2.67 -14.177 122.16 -2.1569 -157.28 -2.1569 -157.28 -14.151 -87.78
2.7 -14.168 121.51 -2.1581 -159.04 -2.1581 -159.04 -14.169 -90.78
2.73 -14.159 120.86 -2.1593 -160.80 -2.1593 -160.80 -14.188 -93.79
2.76 -14.15 120.20 -2.1605 -162.56 -2.1605 -162.56 -14.207 -96.79
2.79 -14.141 119.54 -2.1617 -164.32 -2.1617 -164.32 -14.226 -99.81
2.82 -14.131 118.88 -2.1629 -166.09 -2.1629 -166.09 -14.245 -102.83
2.85 -14.122 118.22 -2.1641 -167.85 -2.1641 -167.85 -14.264 -105.85
2.88 -14.113 117.55 -2.1653 -169.61 -2.1653 -169.61 -14.282 -108.88
2.91 -14.104 116.88 -2.1665 -171.37 -2.1665 -171.37 -14.301 -111.92
2.94 -14.095 116.21 -2.1678 -173.14 -2.1678 -173.14 -14.32 -114.96
2.97 -14.086 115.54 -2.169 -174.90 -2.169 -174.90 -14.338 -118.00
3 -14.078 114.87 -2.1702 -176.66 -2.1702 -176.66 -14.356 -121.06
3.03 -14.069 114.19 -2.1715 -178.43 -2.1715 -178.43 -14.374 -124.11
3.06 -14.061 113.52 -2.1727 179.81 -2.1727 179.81 -14.391 -127.17
3.09 -14.052 112.84 -2.174 178.05 -2.174 178.05 -14.408 -130.24
3.12 -14.044 112.15 -2.1753 176.28 -2.1753 176.28 -14.425 -133.31
3.15 -14.037 111.47 -2.1766 174.52 -2.1766 174.52 -14.442 -136.38
3.18 -14.029 110.79 -2.1779 172.76 -2.1779 172.76 -14.457 -139.46
3.21 -14.022 110.10 -2.1792 170.99 -2.1792 170.99 -14.473 -142.55
3.24 -14.014 109.41 -2.1806 169.23 -2.1806 169.23 -14.487 -145.63
3.27 -14.008 108.72 -2.182 167.46 -2.182 167.46 -14.502 -148.72
3.3 -14.001 108.03 -2.1833 165.70 -2.1833 165.70 -14.515 -151.82
3.33 -13.995 107.34 -2.1847 163.94 -2.1847 163.94 -14.528 -154.92
3.36 -13.989 106.65 -2.1862 162.17 -2.1862 162.17 -14.54 -158.02
3.39 -13.983 105.95 -2.1876 160.41 -2.1876 160.41 -14.552 -161.12
3.42 -13.978 105.26 -2.1891 158.64 -2.1891 158.64 -14.563 -164.23
3.45 -13.973 104.56 -2.1906 156.88 -2.1906 156.88 -14.573 -167.33
3.48 -13.968 103.86 -2.1921 155.12 -2.1921 155.12 -14.582 -170.44
3.51 -13.964 103.17 -2.1936 153.35 -2.1936 153.35 -14.591 -173.55
3.54 -13.96 102.47 -2.1952 151.59 -2.1952 151.59 -14.599 -176.67
3.57 -13.956 101.77 -2.1967 149.82 -2.1967 149.82 -14.606 -179.78
3.6 -13.953 101.07 -2.1983 148.06 -2.1983 148.06 -14.612 177.11
3.63 -13.95 100.37 -2.2 146.30 -2.2 146.30 -14.617 173.99
3.66 -13.947 99.67 -2.2016 144.53 -2.2016 144.53 -14.622 170.88
3.69 -13.945 98.97 -2.2033 142.77 -2.2033 142.77 -14.626 167.77
3.72 -13.943 98.27 -2.2049 141.01 -2.2049 141.01 -14.629 164.65
3.75 -13.942 97.57 -2.2066 139.24 -2.2066 139.24 -14.631 161.54
3.78 -13.941 96.88 -2.2084 137.48 -2.2084 137.48 -14.632 158.43
3.81 -13.94 96.18 -2.2101 135.71 -2.2101 135.71 -14.633 155.32
3.84 -13.94 95.48 -2.2119 133.95 -2.2119 133.95 -14.633 152.22
3.87 -13.94 94.78 -2.2136 132.19 -2.2136 132.19 -14.632 149.11
3.9 -13.94 94.09 -2.2154 130.43 -2.2154 130.43 -14.63 146.01
3.93 -13.941 93.39 -2.2172 128.66 -2.2172 128.66 -14.628 142.91
3.96 -13.942 92.70 -2.2191 126.90 -2.2191 126.90 -14.625 139.82
3.99 -13.944 92.01 -2.2209 125.14 -2.2209 125.14 -14.621 136.73
4.02 -13.946 91.32 -2.2228 123.37 -2.2228 123.37 -14.617 133.64
4.05 -13.948 90.63 -2.2246 121.61 -2.2246 121.61 -14.612 130.55
4.08 -13.95 89.94 -2.2265 119.85 -2.2265 119.85 -14.606 127.47
4.11 -13.953 89.25 -2.2284 118.09 -2.2284 118.09 -14.6 124.40
4.14 -13.956 88.57 -2.2303 116.32 -2.2303 116.32 -14.594 121.33
4.17 -13.96 87.89 -2.2322 114.56 -2.2322 114.56 -14.587 118.26
4.2 -13.964 87.20 -2.2341 112.80 -2.2341 112.80 -14.58 115.20
4.23 -13.968 86.53 -2.236 111.04 -2.236 111.04 -14.572 112.14
4.26 -13.972 85.85 -2.238 109.28 -2.238 109.28 -14.564 109.09
4.29 -13.977 85.17 -2.2399 107.52 -2.2399 107.52 -14.555 106.05
4.32 -13.981 84.50 -2.2418 105.76 -2.2418 105.76 -14.547 103.01
4.35 -13.987 83.83 -2.2438 104.00 -2.2438 104.00 -14.538 99.97
4.38 -13.992 83.17 -2.2457 102.23 -2.2457 102.23 -14.529 96.94
4.41 -13.997 82.50 -2.2476 100.47 -2.2476 100.47 -14.52 93.92
4.44 -14.003 81.84 -2.2495 98.71 -2.2495 98.71 -14.51 90.90
4.47 -14.009 81.18 -2.2515 96.95 -2.2515 96.95 -14.501 87.89
4.5 -14.015 80.52 -2.2534 95.19 -2.2534 95.19 -14.492 84.88
4.53 -14.021 79.87 -2.2553 93.43 -2.2553 93.43 -14.483 81.88
4.56 -14.027 79.22 -2.2572 91.67 -2.2572 91.67 -14.473 78.88
4.59 -14.034 78.57 -2.2591 89.92 -2.2591 89.92 -14.464 75.89
4.62 -14.04 77.92 -2.2609 88.16 -2.2609 88.16 -14.455 72.91
4.65 -14.046 77.28 -2.2628 86.40 -2.2628 86.40 -14.447 69.93
4.68 -14.053 76.64 -2.2646 84.64 -2.2646 84.64 -14.438 66.96
4.71 -14.06 76.00 -2.2665 82.88 -2.2665 82.88 -14.43 63.99
4.74 -14.066 75.37 -2.2683 81.12 -2.2683 81.12 -14.422 61.02
4.77 -14.073 74.73 -2.2701 79.36 -2.2701 79.36 -14.415 58.06
4.8 -14.079 74.10 -2.2718 77.60 -2.2718 77.60 -14.407 55.11
4.83 -14.086 73.48 -2.2736 75.85 -2.2736 75.85 -14.401 52.16
4.86 -14.092 72.86 -2.2753 74.09 -2.2753 74.09 -14.394 49.22
4.89 -14.098 72.24 -2.277 72.33 -2.277 72.33 -14.389 46.28
4.92 -14.104 71.62 -2.2787 70.57 -2.2787 70.57 -14.383 43.34
4.95 -14.11 71.00 -2.2804 68.82 -2.2804 68.82 -14.378 40.41
4.98 -14.116 70.39 -2.282 67.06 -2.282 67.06 -14.374 37.48
5.01 -14.122 69.78 -2.2836 65.30 -2.2836 65.30 -14.371 34.55
5.04 -14.128 69.18 -2.2852 63.54 -2.2852 63.54 -14.368 31.63
5.07 -14.133 68.57 -2.2867 61.79 -2.2867 61.79 -14.365 28.71
5.1 -14.138 67.97 -2.2883 60.03 -2.2883 60.03 -14.363 25.80
5.13 -14.143 67.37 -2.2897 58.27 -2.2897 58.27 -14.362 22.88
5.16 -14.148 66.77 -2.2912 56.52 -2.2912 56.52 -14.362 19.97
5.19 -14.152 66.18 -2.2926 54.76 -2.2926 54.76 -14.362 17.06
5.22 -14.156 65.59 -2.294 53.00 -2.294 53.00 -14.363 14.16
5.25 -14.16 65.00 -2.2954 51.25 -2.2954 51.25 -14.365 11.25
5.28 -14.163 64.41 -2.2967 49.49 -2.2967 49.49 -14.367 8.35
5.31 -14.166 63.82 -2.298 47.73 -2.298 47.73 -14.37 5.44
5.34 -14.169 63.23 -2.2993 45.98 -2.2993 45.98 -14.374 2.54
5.37 -14.172 62.65 -2.3006 44.22 -2.3006 44.22 -14.379 -0.36
5.4 -14.174 62.07 -2.3018 42.46 -2.3018 42.46 -14.384 -3.26
5.43 -14.175 61.49 -2.3029 40.70 -2.3029 40.70 -14.391 -6.16
5.46 -14.177 60.91 -2.3041 38.95 -2.3041 38.95 -14.398 -9.06
5.49 -14.178 60.33 -2.3052 37.19 -2.3052 37.19 -14.405 -11.96
5.52 -14.178 59.75 -2.3063 35.43 -2.3063 35.43 -14.414 -14.86
5.55 -14.179 59.17 -2.3073 33.68 -2.3073 33.68 -14.423 -17.77
5.58 -14.179 58.59 -2.3083 31.92 -2.3083 31.92 -14.433 -20.67
5.61 -14.178 58.02 -2.3093 30.16 -2.3093 30.16 -14.444 -23.57
5.64 -14.177 57.44 -2.3103 28.41 -2.3103 28.41 -14.455 -26.48
5.67 -14.176 56.87 -2.3112 26.65 -2.3112 26.65 -14.467 -29.39
5.7 -14.174 56.29 -2.3121 24.89 -2.3121 24.89 -14.48 -32.30
5.73 -14.172 55.71 -2.313 23.13 -2.313 23.13 -14.494 -35.22
5.76 -14.169 55.14 -2.3139 21.38 -2.3139 21.38 -14.508 -38.13
5.79 -14.166 54.56 -2.3147 19.62 -2.3147 19.62 -14.523 -41.05
5.82 -14.163 53.98 -2.3155 17.86 -2.3155 17.86 -14.538 -43.97
5.85 -14.16 53.41 -2.3163 16.10 -2.3163 16.10 -14.554 -46.90
5.88 -14.156 52.83 -2.317 14.34 -2.317 14.34 -14.571 -49.83
5.91 -14.151 52.25 -2.3177 12.59 -2.3177 12.59 -14.588 -52.76
5.94 -14.147 51.67 -2.3185 10.83 -2.3185 10.83 -14.606 -55.70
5.97 -14.142 51.09 -2.3191 9.07 -2.3191 9.07 -14.624 -58.64
6 -14.136 50.50 -2.3198 7.31 -2.3198 7.31 -14.643 -61.59
