! yapnr Order 0 O0-M: A16 port 2, 12 mm C-pad
! stackup OSHPARK-4L-FR408HR, nominal parameters; geometry of the OSHPARK-4L-FR408HR design
! model: 2D quasi-static RLGC (Djordjevic-Sarkar, Huray roughness, Wheeler loss); generated by python -m yapnr.rf.coupons expected --stackup OSHPARK-4L-FR408HR --upload M
! open-ended wide line + KJK open end; the line-to-pad step not modelled; 50 ohm
# GHz S DB R 50
0.006 -0.0069463 -5.36
0.012 -0.013805 -10.65
0.018 -0.020492 -15.88
0.024 -0.026931 -21.04
0.03 -0.033055 -26.11
0.036 -0.03881 -31.07
0.042 -0.044153 -35.91
0.048 -0.049057 -40.61
0.054 -0.053504 -45.18
0.06 -0.05749 -49.60
0.066 -0.061019 -53.86
0.072 -0.064104 -57.97
0.078 -0.066765 -61.92
0.084 -0.069027 -65.71
0.09 -0.070915 -69.35
0.096 -0.072461 -72.83
0.102 -0.073693 -76.16
0.108 -0.074642 -79.35
0.114 -0.075336 -82.40
0.12 -0.075803 -85.31
0.126 -0.07607 -88.09
0.132 -0.07616 -90.75
0.138 -0.076095 -93.29
0.144 -0.075897 -95.71
0.15 -0.075582 -98.03
0.156 -0.075168 -100.24
0.162 -0.07467 -102.36
0.168 -0.0741 -104.39
0.174 -0.07347 -106.32
0.18 -0.07279 -108.18
0.186 -0.072069 -109.95
0.192 -0.071316 -111.65
0.198 -0.070536 -113.28
0.204 -0.069736 -114.84
0.21 -0.068921 -116.34
0.216 -0.068096 -117.78
0.222 -0.067265 -119.16
0.228 -0.06643 -120.49
0.234 -0.065595 -121.77
0.24 -0.064762 -123.00
0.246 -0.063933 -124.18
0.252 -0.063111 -125.32
0.258 -0.062296 -126.42
0.264 -0.061489 -127.48
0.27 -0.060693 -128.50
0.276 -0.059907 -129.48
0.282 -0.059132 -130.43
0.288 -0.058369 -131.35
0.294 -0.057619 -132.24
0.3 -0.056881 -133.09
0.306 -0.056156 -133.92
0.312 -0.055444 -134.73
0.318 -0.054744 -135.50
0.324 -0.054059 -136.26
0.33 -0.053386 -136.99
0.336 -0.052726 -137.69
0.342 -0.052079 -138.38
0.348 -0.051445 -139.05
0.354 -0.050824 -139.69
0.36 -0.050215 -140.32
0.366 -0.049618 -140.93
0.372 -0.049034 -141.52
0.378 -0.048461 -142.10
0.384 -0.0479 -142.66
0.39 -0.047351 -143.20
0.396 -0.046813 -143.73
0.402 -0.046286 -144.25
0.408 -0.045769 -144.75
0.414 -0.045263 -145.24
0.42 -0.044768 -145.72
0.426 -0.044283 -146.18
0.432 -0.043807 -146.64
0.438 -0.043341 -147.08
0.444 -0.042884 -147.51
0.45 -0.042437 -147.93
0.456 -0.041999 -148.34
0.462 -0.041569 -148.74
0.468 -0.041148 -149.14
0.474 -0.040735 -149.52
0.48 -0.04033 -149.89
0.486 -0.039933 -150.26
0.492 -0.039544 -150.62
0.498 -0.039163 -150.97
0.504 -0.038788 -151.31
0.51 -0.038421 -151.64
0.516 -0.038061 -151.97
0.522 -0.037708 -152.29
0.528 -0.037361 -152.61
0.534 -0.037021 -152.91
0.54 -0.036687 -153.21
0.546 -0.03636 -153.51
0.552 -0.036038 -153.80
0.558 -0.035722 -154.08
0.564 -0.035412 -154.36
0.57 -0.035108 -154.63
0.576 -0.034809 -154.90
0.582 -0.034516 -155.16
0.588 -0.034227 -155.42
0.594 -0.033944 -155.67
0.6 -0.033666 -155.92
0.606 -0.033392 -156.16
0.612 -0.033124 -156.40
0.618 -0.03286 -156.64
0.624 -0.0326 -156.87
0.63 -0.032345 -157.09
0.636 -0.032094 -157.32
0.642 -0.031847 -157.54
0.648 -0.031605 -157.75
0.654 -0.031366 -157.96
0.66 -0.031132 -158.17
0.666 -0.030901 -158.37
0.672 -0.030674 -158.57
0.678 -0.030451 -158.77
0.684 -0.030231 -158.97
0.69 -0.030015 -159.16
0.696 -0.029803 -159.34
0.702 -0.029593 -159.53
0.708 -0.029387 -159.71
0.714 -0.029185 -159.89
0.72 -0.028985 -160.07
0.726 -0.028788 -160.24
0.732 -0.028595 -160.41
0.738 -0.028404 -160.58
0.744 -0.028217 -160.75
0.75 -0.028032 -160.91
0.756 -0.02785 -161.07
0.762 -0.02767 -161.23
0.768 -0.027494 -161.39
0.774 -0.02732 -161.54
0.78 -0.027148 -161.69
0.786 -0.026979 -161.84
0.792 -0.026813 -161.99
0.798 -0.026649 -162.14
0.804 -0.026487 -162.28
0.81 -0.026328 -162.42
0.816 -0.02617 -162.56
0.822 -0.026016 -162.70
0.828 -0.025863 -162.84
0.834 -0.025712 -162.97
0.84 -0.025564 -163.11
0.846 -0.025417 -163.24
0.852 -0.025273 -163.37
0.858 -0.025131 -163.49
0.864 -0.02499 -163.62
0.87 -0.024852 -163.74
0.876 -0.024715 -163.87
0.882 -0.02458 -163.99
0.888 -0.024447 -164.11
0.894 -0.024316 -164.23
0.9 -0.024186 -164.34
0.906 -0.024059 -164.46
0.912 -0.023933 -164.57
0.918 -0.023808 -164.68
0.924 -0.023685 -164.80
0.93 -0.023564 -164.91
0.936 -0.023445 -165.01
0.942 -0.023326 -165.12
0.948 -0.02321 -165.23
0.954 -0.023095 -165.33
0.96 -0.022981 -165.44
0.966 -0.022869 -165.54
0.972 -0.022758 -165.64
0.978 -0.022649 -165.74
0.984 -0.022541 -165.84
0.99 -0.022434 -165.94
0.996 -0.022329 -166.04
1.002 -0.022225 -166.13
1.008 -0.022122 -166.23
1.014 -0.02202 -166.32
1.02 -0.02192 -166.41
1.026 -0.021821 -166.51
1.032 -0.021723 -166.60
1.038 -0.021627 -166.69
1.044 -0.021531 -166.78
1.05 -0.021437 -166.86
1.056 -0.021343 -166.95
1.062 -0.021251 -167.04
1.068 -0.02116 -167.12
1.074 -0.02107 -167.21
1.08 -0.020981 -167.29
1.086 -0.020893 -167.38
1.092 -0.020807 -167.46
1.098 -0.020721 -167.54
1.104 -0.020636 -167.62
1.11 -0.020552 -167.70
1.116 -0.020469 -167.78
1.122 -0.020387 -167.86
1.128 -0.020306 -167.93
1.134 -0.020226 -168.01
1.14 -0.020147 -168.09
1.146 -0.020069 -168.16
1.152 -0.019991 -168.24
1.158 -0.019915 -168.31
1.164 -0.019839 -168.39
1.17 -0.019764 -168.46
1.176 -0.01969 -168.53
1.182 -0.019617 -168.60
1.188 -0.019545 -168.67
1.194 -0.019473 -168.74
1.2 -0.019403 -168.81
1.206 -0.019333 -168.88
1.212 -0.019263 -168.95
1.218 -0.019195 -169.02
1.224 -0.019127 -169.08
1.23 -0.01906 -169.15
1.236 -0.018994 -169.22
1.242 -0.018929 -169.28
1.248 -0.018864 -169.35
1.254 -0.0188 -169.41
1.26 -0.018736 -169.48
1.266 -0.018674 -169.54
1.272 -0.018612 -169.60
1.278 -0.01855 -169.66
1.284 -0.018489 -169.73
1.29 -0.018429 -169.79
1.296 -0.01837 -169.85
1.302 -0.018311 -169.91
1.308 -0.018253 -169.97
1.314 -0.018195 -170.03
1.32 -0.018138 -170.09
1.326 -0.018082 -170.15
1.332 -0.018026 -170.20
1.338 -0.017971 -170.26
1.344 -0.017916 -170.32
1.35 -0.017862 -170.38
1.356 -0.017809 -170.43
1.362 -0.017756 -170.49
1.368 -0.017704 -170.54
1.374 -0.017652 -170.60
1.38 -0.017601 -170.65
1.386 -0.01755 -170.71
1.392 -0.0175 -170.76
1.398 -0.01745 -170.81
1.404 -0.017401 -170.87
1.41 -0.017352 -170.92
1.416 -0.017304 -170.97
1.422 -0.017256 -171.02
1.428 -0.017209 -171.08
1.434 -0.017162 -171.13
1.44 -0.017116 -171.18
1.446 -0.01707 -171.23
1.452 -0.017025 -171.28
1.458 -0.01698 -171.33
1.464 -0.016936 -171.38
1.47 -0.016892 -171.43
1.476 -0.016848 -171.48
1.482 -0.016805 -171.52
1.488 -0.016763 -171.57
1.494 -0.016721 -171.62
1.5 -0.016679 -171.67
1.506 -0.016637 -171.72
1.512 -0.016597 -171.76
1.518 -0.016556 -171.81
1.524 -0.016516 -171.86
1.53 -0.016476 -171.90
1.536 -0.016437 -171.95
1.542 -0.016398 -171.99
1.548 -0.01636 -172.04
1.554 -0.016322 -172.08
1.56 -0.016284 -172.13
1.566 -0.016247 -172.17
1.572 -0.01621 -172.22
1.578 -0.016174 -172.26
1.584 -0.016137 -172.30
1.59 -0.016102 -172.35
1.596 -0.016066 -172.39
1.602 -0.016031 -172.43
1.608 -0.015997 -172.47
1.614 -0.015962 -172.52
1.62 -0.015928 -172.56
1.626 -0.015895 -172.60
1.632 -0.015861 -172.64
1.638 -0.015828 -172.68
1.644 -0.015796 -172.72
1.65 -0.015763 -172.77
1.656 -0.015731 -172.81
1.662 -0.0157 -172.85
1.668 -0.015669 -172.89
1.674 -0.015638 -172.93
1.68 -0.015607 -172.97
1.686 -0.015577 -173.01
1.692 -0.015547 -173.05
1.698 -0.015517 -173.08
1.704 -0.015488 -173.12
1.71 -0.015458 -173.16
1.716 -0.01543 -173.20
1.722 -0.015401 -173.24
1.728 -0.015373 -173.28
1.734 -0.015345 -173.31
1.74 -0.015318 -173.35
1.746 -0.01529 -173.39
1.752 -0.015263 -173.43
1.758 -0.015237 -173.46
1.764 -0.01521 -173.50
1.77 -0.015184 -173.54
1.776 -0.015158 -173.57
1.782 -0.015133 -173.61
1.788 -0.015107 -173.65
1.794 -0.015082 -173.68
1.8 -0.015057 -173.72
1.806 -0.015033 -173.75
1.812 -0.015009 -173.79
1.818 -0.014985 -173.82
1.824 -0.014961 -173.86
1.83 -0.014938 -173.89
1.836 -0.014914 -173.93
1.842 -0.014891 -173.96
1.848 -0.014869 -174.00
1.854 -0.014846 -174.03
1.86 -0.014824 -174.07
1.866 -0.014802 -174.10
1.872 -0.014781 -174.13
1.878 -0.014759 -174.17
1.884 -0.014738 -174.20
1.89 -0.014717 -174.23
1.896 -0.014696 -174.27
1.902 -0.014676 -174.30
1.908 -0.014656 -174.33
1.914 -0.014636 -174.37
1.92 -0.014616 -174.40
1.926 -0.014596 -174.43
1.932 -0.014577 -174.46
1.938 -0.014558 -174.50
1.944 -0.014539 -174.53
1.95 -0.01452 -174.56
1.956 -0.014502 -174.59
1.962 -0.014484 -174.62
1.968 -0.014466 -174.65
1.974 -0.014448 -174.69
1.98 -0.014431 -174.72
1.986 -0.014414 -174.75
1.992 -0.014396 -174.78
1.998 -0.01438 -174.81
2.004 -0.014363 -174.84
2.01 -0.014347 -174.87
2.016 -0.01433 -174.90
2.022 -0.014314 -174.93
2.028 -0.014299 -174.96
2.034 -0.014283 -174.99
2.04 -0.014268 -175.02
2.046 -0.014253 -175.05
2.052 -0.014238 -175.08
2.058 -0.014223 -175.11
2.064 -0.014208 -175.14
2.07 -0.014194 -175.17
2.076 -0.01418 -175.20
2.082 -0.014166 -175.23
2.088 -0.014152 -175.26
2.094 -0.014138 -175.29
2.1 -0.014125 -175.31
2.106 -0.014112 -175.34
2.112 -0.014099 -175.37
2.118 -0.014086 -175.40
2.124 -0.014074 -175.43
2.13 -0.014061 -175.46
2.136 -0.014049 -175.49
2.142 -0.014037 -175.51
2.148 -0.014025 -175.54
2.154 -0.014014 -175.57
2.16 -0.014002 -175.60
2.166 -0.013991 -175.63
2.172 -0.01398 -175.65
2.178 -0.013969 -175.68
2.184 -0.013958 -175.71
2.19 -0.013948 -175.74
2.196 -0.013937 -175.76
2.202 -0.013927 -175.79
2.208 -0.013917 -175.82
2.214 -0.013907 -175.84
2.22 -0.013898 -175.87
2.226 -0.013888 -175.90
2.232 -0.013879 -175.92
2.238 -0.01387 -175.95
2.244 -0.013861 -175.98
2.25 -0.013852 -176.00
2.256 -0.013844 -176.03
2.262 -0.013835 -176.06
2.268 -0.013827 -176.08
2.274 -0.013819 -176.11
2.28 -0.013811 -176.14
2.286 -0.013804 -176.16
2.292 -0.013796 -176.19
2.298 -0.013789 -176.21
2.304 -0.013782 -176.24
2.31 -0.013775 -176.27
2.316 -0.013768 -176.29
2.322 -0.013761 -176.32
2.328 -0.013754 -176.34
2.334 -0.013748 -176.37
2.34 -0.013742 -176.39
2.346 -0.013736 -176.42
2.352 -0.01373 -176.44
2.358 -0.013724 -176.47
2.364 -0.013719 -176.49
2.37 -0.013714 -176.52
2.376 -0.013708 -176.54
2.382 -0.013703 -176.57
2.388 -0.013699 -176.59
2.394 -0.013694 -176.62
2.4 -0.013689 -176.64
2.406 -0.013685 -176.67
2.412 -0.013681 -176.69
2.418 -0.013677 -176.72
2.424 -0.013673 -176.74
2.43 -0.013669 -176.76
2.436 -0.013666 -176.79
2.442 -0.013662 -176.81
2.448 -0.013659 -176.84
2.454 -0.013656 -176.86
2.46 -0.013653 -176.88
2.466 -0.01365 -176.91
2.472 -0.013648 -176.93
2.478 -0.013645 -176.96
2.484 -0.013643 -176.98
2.49 -0.013641 -177.00
2.496 -0.013639 -177.03
2.502 -0.013637 -177.05
2.508 -0.013636 -177.08
2.514 -0.013634 -177.10
2.52 -0.013633 -177.12
2.526 -0.013632 -177.15
2.532 -0.013631 -177.17
2.538 -0.01363 -177.19
2.544 -0.013629 -177.22
2.55 -0.013629 -177.24
2.556 -0.013628 -177.26
2.562 -0.013628 -177.29
2.568 -0.013628 -177.31
2.574 -0.013628 -177.33
2.58 -0.013629 -177.35
2.586 -0.013629 -177.38
2.592 -0.01363 -177.40
2.598 -0.01363 -177.42
2.604 -0.013631 -177.45
2.61 -0.013632 -177.47
2.616 -0.013633 -177.49
2.622 -0.013635 -177.51
2.628 -0.013636 -177.54
2.634 -0.013638 -177.56
2.64 -0.01364 -177.58
2.646 -0.013642 -177.60
2.652 -0.013644 -177.63
2.658 -0.013646 -177.65
2.664 -0.013649 -177.67
2.67 -0.013651 -177.69
2.676 -0.013654 -177.72
2.682 -0.013657 -177.74
2.688 -0.01366 -177.76
2.694 -0.013663 -177.78
2.7 -0.013667 -177.80
2.706 -0.01367 -177.83
2.712 -0.013674 -177.85
2.718 -0.013678 -177.87
2.724 -0.013682 -177.89
2.73 -0.013686 -177.91
2.736 -0.01369 -177.94
2.742 -0.013695 -177.96
2.748 -0.013699 -177.98
2.754 -0.013704 -178.00
2.76 -0.013709 -178.02
2.766 -0.013714 -178.04
2.772 -0.013719 -178.07
2.778 -0.013725 -178.09
2.784 -0.013731 -178.11
2.79 -0.013736 -178.13
2.796 -0.013742 -178.15
2.802 -0.013748 -178.17
2.808 -0.013754 -178.20
2.814 -0.013761 -178.22
2.82 -0.013767 -178.24
2.826 -0.013774 -178.26
2.832 -0.013781 -178.28
2.838 -0.013788 -178.30
2.844 -0.013795 -178.32
2.85 -0.013803 -178.35
2.856 -0.01381 -178.37
2.862 -0.013818 -178.39
2.868 -0.013826 -178.41
2.874 -0.013834 -178.43
2.88 -0.013842 -178.45
2.886 -0.01385 -178.47
2.892 -0.013859 -178.49
2.898 -0.013867 -178.51
2.904 -0.013876 -178.54
2.91 -0.013885 -178.56
2.916 -0.013894 -178.58
2.922 -0.013903 -178.60
2.928 -0.013913 -178.62
2.934 -0.013923 -178.64
2.94 -0.013932 -178.66
2.946 -0.013942 -178.68
2.952 -0.013953 -178.70
2.958 -0.013963 -178.72
2.964 -0.013973 -178.75
2.97 -0.013984 -178.77
2.976 -0.013995 -178.79
2.982 -0.014006 -178.81
2.988 -0.014017 -178.83
2.994 -0.014028 -178.85
3 -0.01404 -178.87
3.006 -0.014051 -178.89
3.012 -0.014063 -178.91
3.018 -0.014075 -178.93
3.024 -0.014088 -178.95
3.03 -0.0141 -178.97
3.036 -0.014112 -178.99
3.042 -0.014125 -179.01
3.048 -0.014138 -179.03
3.054 -0.014151 -179.06
3.06 -0.014164 -179.08
3.066 -0.014178 -179.10
3.072 -0.014191 -179.12
3.078 -0.014205 -179.14
3.084 -0.014219 -179.16
3.09 -0.014233 -179.18
3.096 -0.014248 -179.20
3.102 -0.014262 -179.22
3.108 -0.014277 -179.24
3.114 -0.014292 -179.26
3.12 -0.014307 -179.28
3.126 -0.014322 -179.30
3.132 -0.014337 -179.32
3.138 -0.014353 -179.34
3.144 -0.014369 -179.36
3.15 -0.014385 -179.38
3.156 -0.014401 -179.40
3.162 -0.014417 -179.42
3.168 -0.014434 -179.44
3.174 -0.01445 -179.46
3.18 -0.014467 -179.48
3.186 -0.014484 -179.50
3.192 -0.014502 -179.52
3.198 -0.014519 -179.55
3.204 -0.014537 -179.57
3.21 -0.014555 -179.59
3.216 -0.014573 -179.61
3.222 -0.014591 -179.63
3.228 -0.01461 -179.65
3.234 -0.014628 -179.67
3.24 -0.014647 -179.69
3.246 -0.014666 -179.71
3.252 -0.014686 -179.73
3.258 -0.014705 -179.75
3.264 -0.014725 -179.77
3.27 -0.014745 -179.79
3.276 -0.014765 -179.81
3.282 -0.014785 -179.83
3.288 -0.014806 -179.85
3.294 -0.014826 -179.87
3.3 -0.014847 -179.89
3.306 -0.014868 -179.91
3.312 -0.01489 -179.93
3.318 -0.014911 -179.95
3.324 -0.014933 -179.97
3.33 -0.014955 -179.99
3.336 -0.014977 179.99
3.342 -0.015 179.97
3.348 -0.015022 179.95
3.354 -0.015045 179.93
3.36 -0.015068 179.91
3.366 -0.015092 179.89
3.372 -0.015115 179.87
3.378 -0.015139 179.85
3.384 -0.015163 179.83
3.39 -0.015187 179.81
3.396 -0.015211 179.79
3.402 -0.015236 179.77
3.408 -0.015261 179.75
3.414 -0.015286 179.73
3.42 -0.015312 179.71
3.426 -0.015337 179.69
3.432 -0.015363 179.67
3.438 -0.015389 179.65
3.444 -0.015415 179.63
3.45 -0.015442 179.61
3.456 -0.015469 179.58
3.462 -0.015496 179.56
3.468 -0.015523 179.54
3.474 -0.01555 179.52
3.48 -0.015578 179.50
3.486 -0.015606 179.48
3.492 -0.015635 179.46
3.498 -0.015663 179.44
3.504 -0.015692 179.42
3.51 -0.015721 179.40
3.516 -0.01575 179.38
3.522 -0.01578 179.36
3.528 -0.01581 179.34
3.534 -0.01584 179.32
3.54 -0.01587 179.30
3.546 -0.0159 179.28
3.552 -0.015931 179.26
3.558 -0.015962 179.24
3.564 -0.015994 179.22
3.57 -0.016026 179.20
3.576 -0.016058 179.18
3.582 -0.01609 179.16
3.588 -0.016122 179.14
3.594 -0.016155 179.12
3.6 -0.016188 179.10
3.606 -0.016221 179.07
3.612 -0.016255 179.05
3.618 -0.016289 179.03
3.624 -0.016323 179.01
3.63 -0.016358 178.99
3.636 -0.016392 178.97
3.642 -0.016428 178.95
3.648 -0.016463 178.93
3.654 -0.016499 178.91
3.66 -0.016535 178.89
3.666 -0.016571 178.87
3.672 -0.016607 178.85
3.678 -0.016644 178.83
3.684 -0.016682 178.81
3.69 -0.016719 178.79
3.696 -0.016757 178.76
3.702 -0.016795 178.74
3.708 -0.016833 178.72
3.714 -0.016872 178.70
3.72 -0.016911 178.68
3.726 -0.016951 178.66
3.732 -0.016991 178.64
3.738 -0.017031 178.62
3.744 -0.017071 178.60
3.75 -0.017112 178.58
3.756 -0.017153 178.56
3.762 -0.017194 178.53
3.768 -0.017236 178.51
3.774 -0.017278 178.49
3.78 -0.017321 178.47
3.786 -0.017364 178.45
3.792 -0.017407 178.43
3.798 -0.01745 178.41
3.804 -0.017494 178.39
3.81 -0.017538 178.37
3.816 -0.017583 178.34
3.822 -0.017628 178.32
3.828 -0.017673 178.30
3.834 -0.017719 178.28
3.84 -0.017765 178.26
3.846 -0.017812 178.24
3.852 -0.017859 178.22
3.858 -0.017906 178.19
3.864 -0.017953 178.17
3.87 -0.018002 178.15
3.876 -0.01805 178.13
3.882 -0.018099 178.11
3.888 -0.018148 178.09
3.894 -0.018198 178.06
3.9 -0.018248 178.04
3.906 -0.018298 178.02
3.912 -0.018349 178.00
3.918 -0.0184 177.98
3.924 -0.018452 177.96
3.93 -0.018504 177.93
3.936 -0.018557 177.91
3.942 -0.01861 177.89
3.948 -0.018663 177.87
3.954 -0.018717 177.85
3.96 -0.018771 177.82
3.966 -0.018826 177.80
3.972 -0.018881 177.78
3.978 -0.018937 177.76
3.984 -0.018993 177.74
3.99 -0.019049 177.71
3.996 -0.019106 177.69
4.002 -0.019164 177.67
4.008 -0.019222 177.65
4.014 -0.01928 177.62
4.02 -0.019339 177.60
4.026 -0.019399 177.58
4.032 -0.019459 177.56
4.038 -0.019519 177.53
4.044 -0.01958 177.51
4.05 -0.019641 177.49
4.056 -0.019703 177.47
4.062 -0.019766 177.44
4.068 -0.019828 177.42
4.074 -0.019892 177.40
4.08 -0.019956 177.37
4.086 -0.02002 177.35
4.092 -0.020085 177.33
4.098 -0.020151 177.31
4.104 -0.020217 177.28
4.11 -0.020284 177.26
4.116 -0.020351 177.24
4.122 -0.020419 177.21
4.128 -0.020487 177.19
4.134 -0.020556 177.17
4.14 -0.020626 177.14
4.146 -0.020696 177.12
4.152 -0.020766 177.10
4.158 -0.020838 177.07
4.164 -0.02091 177.05
4.17 -0.020982 177.02
4.176 -0.021055 177.00
4.182 -0.021129 176.98
4.188 -0.021203 176.95
4.194 -0.021278 176.93
4.2 -0.021354 176.91
4.206 -0.02143 176.88
4.212 -0.021507 176.86
4.218 -0.021584 176.83
4.224 -0.021662 176.81
4.23 -0.021741 176.79
4.236 -0.021821 176.76
4.242 -0.021901 176.74
4.248 -0.021982 176.71
4.254 -0.022063 176.69
4.26 -0.022145 176.66
4.266 -0.022228 176.64
4.272 -0.022312 176.61
4.278 -0.022396 176.59
4.284 -0.022482 176.56
4.29 -0.022567 176.54
4.296 -0.022654 176.51
4.302 -0.022741 176.49
4.308 -0.022829 176.46
4.314 -0.022918 176.44
4.32 -0.023008 176.41
4.326 -0.023098 176.39
4.332 -0.023189 176.36
4.338 -0.023281 176.34
4.344 -0.023374 176.31
4.35 -0.023467 176.29
4.356 -0.023562 176.26
4.362 -0.023657 176.24
4.368 -0.023753 176.21
4.374 -0.02385 176.18
4.38 -0.023948 176.16
4.386 -0.024046 176.13
4.392 -0.024146 176.11
4.398 -0.024246 176.08
4.404 -0.024347 176.05
4.41 -0.024449 176.03
4.416 -0.024552 176.00
4.422 -0.024656 175.97
4.428 -0.024761 175.95
4.434 -0.024867 175.92
4.44 -0.024974 175.89
4.446 -0.025081 175.87
4.452 -0.02519 175.84
4.458 -0.0253 175.81
4.464 -0.02541 175.79
4.47 -0.025522 175.76
4.476 -0.025635 175.73
4.482 -0.025748 175.70
4.488 -0.025863 175.68
4.494 -0.025979 175.65
4.5 -0.026096 175.62
4.506 -0.026213 175.59
4.512 -0.026332 175.56
4.518 -0.026452 175.54
4.524 -0.026573 175.51
4.53 -0.026696 175.48
4.536 -0.026819 175.45
4.542 -0.026944 175.42
4.548 -0.027069 175.40
4.554 -0.027196 175.37
4.56 -0.027324 175.34
4.566 -0.027453 175.31
4.572 -0.027584 175.28
4.578 -0.027715 175.25
4.584 -0.027848 175.22
4.59 -0.027982 175.19
4.596 -0.028118 175.16
4.602 -0.028254 175.13
4.608 -0.028392 175.10
4.614 -0.028532 175.07
4.62 -0.028672 175.05
4.626 -0.028814 175.02
4.632 -0.028957 174.99
4.638 -0.029102 174.96
4.644 -0.029248 174.92
4.65 -0.029396 174.89
4.656 -0.029544 174.86
4.662 -0.029695 174.83
4.668 -0.029846 174.80
4.674 -0.03 174.77
4.68 -0.030154 174.74
4.686 -0.030311 174.71
4.692 -0.030468 174.68
4.698 -0.030628 174.65
4.704 -0.030788 174.62
4.71 -0.030951 174.58
4.716 -0.031115 174.55
4.722 -0.031281 174.52
4.728 -0.031448 174.49
4.734 -0.031617 174.46
4.74 -0.031788 174.42
4.746 -0.03196 174.39
4.752 -0.032134 174.36
4.758 -0.03231 174.33
4.764 -0.032487 174.29
4.77 -0.032667 174.26
4.776 -0.032848 174.23
4.782 -0.033031 174.19
4.788 -0.033216 174.16
4.794 -0.033403 174.13
4.8 -0.033592 174.09
4.806 -0.033782 174.06
4.812 -0.033975 174.02
4.818 -0.034169 173.99
4.824 -0.034366 173.96
4.83 -0.034565 173.92
4.836 -0.034766 173.89
4.842 -0.034968 173.85
4.848 -0.035173 173.82
4.854 -0.03538 173.78
4.86 -0.03559 173.74
4.866 -0.035801 173.71
4.872 -0.036015 173.67
4.878 -0.036231 173.64
4.884 -0.036449 173.60
4.89 -0.03667 173.56
4.896 -0.036893 173.53
4.902 -0.037118 173.49
4.908 -0.037346 173.45
4.914 -0.037576 173.42
4.92 -0.037809 173.38
4.926 -0.038044 173.34
4.932 -0.038282 173.31
4.938 -0.038522 173.27
4.944 -0.038765 173.23
4.95 -0.039011 173.19
4.956 -0.03926 173.15
4.962 -0.039511 173.11
4.968 -0.039765 173.07
4.974 -0.040021 173.04
4.98 -0.040281 173.00
4.986 -0.040544 172.96
4.992 -0.040809 172.92
4.998 -0.041078 172.88
5.004 -0.041349 172.84
5.01 -0.041624 172.80
5.016 -0.041902 172.76
5.022 -0.042183 172.71
5.028 -0.042467 172.67
5.034 -0.042754 172.63
5.04 -0.043045 172.59
5.046 -0.043339 172.55
5.052 -0.043636 172.51
5.058 -0.043937 172.46
5.064 -0.044242 172.42
5.07 -0.04455 172.38
5.076 -0.044862 172.34
5.082 -0.045177 172.29
5.088 -0.045496 172.25
5.094 -0.045819 172.21
5.1 -0.046146 172.16
5.106 -0.046476 172.12
5.112 -0.046811 172.07
5.118 -0.047149 172.03
5.124 -0.047492 171.98
5.13 -0.047839 171.94
5.136 -0.04819 171.89
5.142 -0.048545 171.84
5.148 -0.048905 171.80
5.154 -0.049269 171.75
5.16 -0.049638 171.70
5.166 -0.050011 171.66
5.172 -0.050389 171.61
5.178 -0.050772 171.56
5.184 -0.051159 171.51
5.19 -0.051551 171.46
5.196 -0.051948 171.42
5.202 -0.052351 171.37
5.208 -0.052758 171.32
5.214 -0.05317 171.27
5.22 -0.053588 171.22
5.226 -0.054011 171.17
5.232 -0.05444 171.12
5.238 -0.054874 171.06
5.244 -0.055314 171.01
5.25 -0.05576 170.96
5.256 -0.056211 170.91
5.262 -0.056668 170.86
5.268 -0.057132 170.80
5.274 -0.057601 170.75
5.28 -0.058077 170.69
5.286 -0.058559 170.64
5.292 -0.059048 170.59
5.298 -0.059543 170.53
5.304 -0.060045 170.48
5.31 -0.060554 170.42
5.316 -0.061069 170.36
5.322 -0.061592 170.31
5.328 -0.062122 170.25
5.334 -0.062659 170.19
5.34 -0.063204 170.13
5.346 -0.063756 170.08
5.352 -0.064316 170.02
5.358 -0.064884 169.96
5.364 -0.06546 169.90
5.37 -0.066044 169.84
5.376 -0.066636 169.78
5.382 -0.067237 169.71
5.388 -0.067847 169.65
5.394 -0.068465 169.59
5.4 -0.069092 169.53
5.406 -0.069728 169.46
5.412 -0.070374 169.40
5.418 -0.071029 169.34
5.424 -0.071693 169.27
5.43 -0.072368 169.21
5.436 -0.073052 169.14
5.442 -0.073747 169.07
5.448 -0.074452 169.01
5.454 -0.075168 168.94
5.46 -0.075894 168.87
5.466 -0.076632 168.80
5.472 -0.077381 168.73
5.478 -0.078141 168.66
5.484 -0.078913 168.59
5.49 -0.079697 168.52
5.496 -0.080493 168.45
5.502 -0.081302 168.37
5.508 -0.082124 168.30
5.514 -0.082958 168.23
5.52 -0.083805 168.15
5.526 -0.084667 168.08
5.532 -0.085541 168.00
5.538 -0.08643 167.92
5.544 -0.087334 167.85
5.55 -0.088252 167.77
5.556 -0.089185 167.69
5.562 -0.090133 167.61
5.568 -0.091097 167.53
5.574 -0.092077 167.45
5.58 -0.093073 167.37
5.586 -0.094086 167.28
5.592 -0.095116 167.20
5.598 -0.096164 167.12
5.604 -0.097229 167.03
5.61 -0.098313 166.94
5.616 -0.099415 166.86
5.622 -0.10054 166.77
5.628 -0.10168 166.68
5.634 -0.10284 166.59
5.64 -0.10402 166.50
5.646 -0.10522 166.41
5.652 -0.10644 166.31
5.658 -0.10769 166.22
5.664 -0.10896 166.13
5.67 -0.11025 166.03
5.676 -0.11156 165.93
5.682 -0.1129 165.84
5.688 -0.11426 165.74
5.694 -0.11565 165.64
5.7 -0.11706 165.54
5.706 -0.1185 165.43
5.712 -0.11997 165.33
5.718 -0.12146 165.23
5.724 -0.12298 165.12
5.73 -0.12453 165.01
5.736 -0.12612 164.91
5.742 -0.12773 164.80
5.748 -0.12937 164.69
5.754 -0.13105 164.57
5.76 -0.13275 164.46
5.766 -0.1345 164.34
5.772 -0.13627 164.23
5.778 -0.13809 164.11
5.784 -0.13994 163.99
5.79 -0.14182 163.87
5.796 -0.14375 163.75
5.802 -0.14571 163.63
5.808 -0.14772 163.50
5.814 -0.14976 163.37
5.82 -0.15185 163.25
5.826 -0.15399 163.12
5.832 -0.15617 162.98
5.838 -0.15839 162.85
5.844 -0.16067 162.72
5.85 -0.16299 162.58
5.856 -0.16536 162.44
5.862 -0.16779 162.30
5.868 -0.17027 162.16
5.874 -0.1728 162.01
5.88 -0.1754 161.87
5.886 -0.17804 161.72
5.892 -0.18075 161.57
5.898 -0.18353 161.41
5.904 -0.18636 161.26
5.91 -0.18926 161.10
5.916 -0.19223 160.94
5.922 -0.19527 160.78
5.928 -0.19838 160.61
5.934 -0.20156 160.45
5.94 -0.20482 160.28
5.946 -0.20816 160.11
5.952 -0.21159 159.93
5.958 -0.21509 159.75
5.964 -0.21868 159.57
5.97 -0.22237 159.39
5.976 -0.22614 159.21
5.982 -0.23001 159.02
5.988 -0.23398 158.83
5.994 -0.23805 158.63
6 -0.24222 158.43
