! yapnr Order 0 O0-M: A16 port 1, 6 mm C-pad
! stackup OSHPARK-4L-FR408HR, nominal parameters; geometry of the OSHPARK-4L-FR408HR design
! model: 2D quasi-static RLGC (Djordjevic-Sarkar, Huray roughness, Wheeler loss); generated by python -m yapnr.rf.coupons expected --stackup OSHPARK-4L-FR408HR --upload M
! open-ended wide line + KJK open end; the line-to-pad step not modelled; 50 ohm
# GHz S DB R 50
0.006 -0.0017832 -1.39
0.012 -0.0035652 -2.76
0.018 -0.0053442 -4.13
0.024 -0.0071188 -5.50
0.03 -0.0088875 -6.86
0.036 -0.010649 -8.22
0.042 -0.012402 -9.58
0.048 -0.014144 -10.93
0.054 -0.015876 -12.28
0.06 -0.017594 -13.62
0.066 -0.019298 -14.96
0.072 -0.020987 -16.30
0.078 -0.02266 -17.63
0.084 -0.024315 -18.96
0.09 -0.025951 -20.28
0.096 -0.027567 -21.59
0.102 -0.029162 -22.90
0.108 -0.030736 -24.20
0.114 -0.032286 -25.49
0.12 -0.033813 -26.78
0.126 -0.035315 -28.06
0.132 -0.036793 -29.34
0.138 -0.038244 -30.60
0.144 -0.039668 -31.86
0.15 -0.041066 -33.11
0.156 -0.042435 -34.35
0.162 -0.043777 -35.59
0.168 -0.04509 -36.81
0.174 -0.046374 -38.03
0.18 -0.047628 -39.23
0.186 -0.048853 -40.43
0.192 -0.050049 -41.62
0.198 -0.051214 -42.80
0.204 -0.052349 -43.97
0.21 -0.053454 -45.13
0.216 -0.054529 -46.28
0.222 -0.055574 -47.42
0.228 -0.056589 -48.56
0.234 -0.057574 -49.68
0.24 -0.058528 -50.79
0.246 -0.059454 -51.89
0.252 -0.060349 -52.98
0.258 -0.061216 -54.06
0.264 -0.062053 -55.13
0.27 -0.062862 -56.19
0.276 -0.063642 -57.24
0.282 -0.064395 -58.28
0.288 -0.065119 -59.31
0.294 -0.065816 -60.33
0.3 -0.066487 -61.34
0.306 -0.067131 -62.34
0.312 -0.067748 -63.32
0.318 -0.068341 -64.30
0.324 -0.068908 -65.27
0.33 -0.06945 -66.23
0.336 -0.069968 -67.17
0.342 -0.070462 -68.11
0.348 -0.070933 -69.04
0.354 -0.071382 -69.95
0.36 -0.071808 -70.86
0.366 -0.072212 -71.76
0.372 -0.072595 -72.64
0.378 -0.072957 -73.52
0.384 -0.073299 -74.39
0.39 -0.073621 -75.25
0.396 -0.073924 -76.09
0.402 -0.074209 -76.93
0.408 -0.074474 -77.76
0.414 -0.074723 -78.58
0.42 -0.074953 -79.39
0.426 -0.075167 -80.19
0.432 -0.075365 -80.98
0.438 -0.075547 -81.77
0.444 -0.075713 -82.54
0.45 -0.075865 -83.30
0.456 -0.076001 -84.06
0.462 -0.076124 -84.81
0.468 -0.076233 -85.55
0.474 -0.076329 -86.28
0.48 -0.076413 -87.00
0.486 -0.076483 -87.71
0.492 -0.076542 -88.42
0.498 -0.076589 -89.11
0.504 -0.076625 -89.80
0.51 -0.07665 -90.48
0.516 -0.076665 -91.16
0.522 -0.07667 -91.82
0.528 -0.076664 -92.48
0.534 -0.07665 -93.13
0.54 -0.076626 -93.77
0.546 -0.076594 -94.41
0.552 -0.076553 -95.04
0.558 -0.076504 -95.66
0.564 -0.076447 -96.27
0.57 -0.076382 -96.88
0.576 -0.076311 -97.47
0.582 -0.076232 -98.07
0.588 -0.076147 -98.65
0.594 -0.076055 -99.23
0.6 -0.075957 -99.80
0.606 -0.075853 -100.37
0.612 -0.075743 -100.93
0.618 -0.075628 -101.48
0.624 -0.075508 -102.03
0.63 -0.075383 -102.57
0.636 -0.075252 -103.11
0.642 -0.075118 -103.63
0.648 -0.074978 -104.16
0.654 -0.074835 -104.67
0.66 -0.074688 -105.19
0.666 -0.074536 -105.69
0.672 -0.074381 -106.19
0.678 -0.074223 -106.68
0.684 -0.074061 -107.17
0.69 -0.073896 -107.66
0.696 -0.073728 -108.14
0.702 -0.073557 -108.61
0.708 -0.073384 -109.08
0.714 -0.073208 -109.54
0.72 -0.073029 -110.00
0.726 -0.072848 -110.45
0.732 -0.072665 -110.90
0.738 -0.07248 -111.34
0.744 -0.072293 -111.78
0.75 -0.072104 -112.21
0.756 -0.071913 -112.64
0.762 -0.071721 -113.06
0.768 -0.071527 -113.48
0.774 -0.071332 -113.90
0.78 -0.071135 -114.31
0.786 -0.070937 -114.72
0.792 -0.070738 -115.12
0.798 -0.070538 -115.52
0.804 -0.070337 -115.91
0.81 -0.070135 -116.30
0.816 -0.069932 -116.69
0.822 -0.069729 -117.07
0.828 -0.069525 -117.45
0.834 -0.06932 -117.82
0.84 -0.069114 -118.19
0.846 -0.068908 -118.56
0.852 -0.068702 -118.92
0.858 -0.068496 -119.28
0.864 -0.068289 -119.64
0.87 -0.068081 -119.99
0.876 -0.067874 -120.34
0.882 -0.067666 -120.68
0.888 -0.067459 -121.02
0.894 -0.067251 -121.36
0.9 -0.067043 -121.70
0.906 -0.066836 -122.03
0.912 -0.066628 -122.36
0.918 -0.06642 -122.68
0.924 -0.066213 -123.00
0.93 -0.066006 -123.32
0.936 -0.065799 -123.64
0.942 -0.065592 -123.95
0.948 -0.065386 -124.26
0.954 -0.06518 -124.57
0.96 -0.064974 -124.87
0.966 -0.064768 -125.17
0.972 -0.064563 -125.47
0.978 -0.064359 -125.77
0.984 -0.064155 -126.06
0.99 -0.063951 -126.35
0.996 -0.063748 -126.64
1.002 -0.063545 -126.92
1.008 -0.063343 -127.20
1.014 -0.063142 -127.48
1.02 -0.062941 -127.76
1.026 -0.062741 -128.03
1.032 -0.062541 -128.31
1.038 -0.062342 -128.58
1.044 -0.062143 -128.84
1.05 -0.061945 -129.11
1.056 -0.061748 -129.37
1.062 -0.061552 -129.63
1.068 -0.061356 -129.89
1.074 -0.061161 -130.14
1.08 -0.060967 -130.40
1.086 -0.060773 -130.65
1.092 -0.06058 -130.90
1.098 -0.060388 -131.14
1.104 -0.060197 -131.39
1.11 -0.060006 -131.63
1.116 -0.059817 -131.87
1.122 -0.059628 -132.11
1.128 -0.059439 -132.34
1.134 -0.059252 -132.58
1.14 -0.059065 -132.81
1.146 -0.05888 -133.04
1.152 -0.058695 -133.27
1.158 -0.05851 -133.49
1.164 -0.058327 -133.72
1.17 -0.058145 -133.94
1.176 -0.057963 -134.16
1.182 -0.057782 -134.38
1.188 -0.057602 -134.60
1.194 -0.057423 -134.81
1.2 -0.057245 -135.03
1.206 -0.057067 -135.24
1.212 -0.05689 -135.45
1.218 -0.056715 -135.66
1.224 -0.05654 -135.86
1.23 -0.056366 -136.07
1.236 -0.056192 -136.27
1.242 -0.05602 -136.47
1.248 -0.055848 -136.67
1.254 -0.055678 -136.87
1.26 -0.055508 -137.07
1.266 -0.055339 -137.26
1.272 -0.055171 -137.46
1.278 -0.055003 -137.65
1.284 -0.054837 -137.84
1.29 -0.054671 -138.03
1.296 -0.054507 -138.22
1.302 -0.054343 -138.41
1.308 -0.05418 -138.59
1.314 -0.054017 -138.78
1.32 -0.053856 -138.96
1.326 -0.053696 -139.14
1.332 -0.053536 -139.32
1.338 -0.053377 -139.50
1.344 -0.053219 -139.67
1.35 -0.053062 -139.85
1.356 -0.052905 -140.02
1.362 -0.05275 -140.20
1.368 -0.052595 -140.37
1.374 -0.052441 -140.54
1.38 -0.052288 -140.71
1.386 -0.052136 -140.88
1.392 -0.051985 -141.04
1.398 -0.051834 -141.21
1.404 -0.051684 -141.37
1.41 -0.051535 -141.54
1.416 -0.051387 -141.70
1.422 -0.051239 -141.86
1.428 -0.051093 -142.02
1.434 -0.050947 -142.18
1.44 -0.050802 -142.34
1.446 -0.050658 -142.49
1.452 -0.050514 -142.65
1.458 -0.050372 -142.80
1.464 -0.05023 -142.95
1.47 -0.050088 -143.11
1.476 -0.049948 -143.26
1.482 -0.049808 -143.41
1.488 -0.04967 -143.56
1.494 -0.049531 -143.71
1.5 -0.049394 -143.85
1.506 -0.049257 -144.00
1.512 -0.049122 -144.14
1.518 -0.048986 -144.29
1.524 -0.048852 -144.43
1.53 -0.048718 -144.57
1.536 -0.048586 -144.71
1.542 -0.048453 -144.85
1.548 -0.048322 -144.99
1.554 -0.048191 -145.13
1.56 -0.048061 -145.27
1.566 -0.047932 -145.41
1.572 -0.047803 -145.54
1.578 -0.047675 -145.68
1.584 -0.047548 -145.81
1.59 -0.047421 -145.94
1.596 -0.047296 -146.07
1.602 -0.047171 -146.21
1.608 -0.047046 -146.34
1.614 -0.046922 -146.47
1.62 -0.046799 -146.59
1.626 -0.046677 -146.72
1.632 -0.046555 -146.85
1.638 -0.046434 -146.98
1.644 -0.046313 -147.10
1.65 -0.046194 -147.23
1.656 -0.046075 -147.35
1.662 -0.045956 -147.47
1.668 -0.045838 -147.60
1.674 -0.045721 -147.72
1.68 -0.045605 -147.84
1.686 -0.045489 -147.96
1.692 -0.045373 -148.08
1.698 -0.045259 -148.20
1.704 -0.045145 -148.32
1.71 -0.045031 -148.43
1.716 -0.044919 -148.55
1.722 -0.044806 -148.67
1.728 -0.044695 -148.78
1.734 -0.044584 -148.90
1.74 -0.044473 -149.01
1.746 -0.044364 -149.12
1.752 -0.044254 -149.24
1.758 -0.044146 -149.35
1.764 -0.044038 -149.46
1.77 -0.04393 -149.57
1.776 -0.043824 -149.68
1.782 -0.043717 -149.79
1.788 -0.043612 -149.90
1.794 -0.043507 -150.01
1.8 -0.043402 -150.11
1.806 -0.043298 -150.22
1.812 -0.043195 -150.33
1.818 -0.043092 -150.43
1.824 -0.042989 -150.54
1.83 -0.042888 -150.64
1.836 -0.042786 -150.75
1.842 -0.042686 -150.85
1.848 -0.042586 -150.95
1.854 -0.042486 -151.05
1.86 -0.042387 -151.16
1.866 -0.042288 -151.26
1.872 -0.04219 -151.36
1.878 -0.042093 -151.46
1.884 -0.041996 -151.56
1.89 -0.041899 -151.65
1.896 -0.041803 -151.75
1.902 -0.041708 -151.85
1.908 -0.041613 -151.95
1.914 -0.041519 -152.04
1.92 -0.041425 -152.14
1.926 -0.041331 -152.24
1.932 -0.041238 -152.33
1.938 -0.041146 -152.43
1.944 -0.041054 -152.52
1.95 -0.040962 -152.61
1.956 -0.040871 -152.71
1.962 -0.040781 -152.80
1.968 -0.040691 -152.89
1.974 -0.040601 -152.98
1.98 -0.040512 -153.07
1.986 -0.040423 -153.16
1.992 -0.040335 -153.25
1.998 -0.040247 -153.34
2.004 -0.04016 -153.43
2.01 -0.040073 -153.52
2.016 -0.039987 -153.61
2.022 -0.039901 -153.70
2.028 -0.039816 -153.79
2.034 -0.039731 -153.87
2.04 -0.039646 -153.96
2.046 -0.039562 -154.05
2.052 -0.039478 -154.13
2.058 -0.039395 -154.22
2.064 -0.039312 -154.30
2.07 -0.03923 -154.39
2.076 -0.039148 -154.47
2.082 -0.039066 -154.55
2.088 -0.038985 -154.64
2.094 -0.038904 -154.72
2.1 -0.038824 -154.80
2.106 -0.038744 -154.88
2.112 -0.038664 -154.97
2.118 -0.038585 -155.05
2.124 -0.038507 -155.13
2.13 -0.038428 -155.21
2.136 -0.038351 -155.29
2.142 -0.038273 -155.37
2.148 -0.038196 -155.45
2.154 -0.038119 -155.53
2.16 -0.038043 -155.60
2.166 -0.037967 -155.68
2.172 -0.037892 -155.76
2.178 -0.037816 -155.84
2.184 -0.037742 -155.91
2.19 -0.037667 -155.99
2.196 -0.037593 -156.07
2.202 -0.03752 -156.14
2.208 -0.037446 -156.22
2.214 -0.037373 -156.29
2.22 -0.037301 -156.37
2.226 -0.037229 -156.44
2.232 -0.037157 -156.52
2.238 -0.037085 -156.59
2.244 -0.037014 -156.67
2.25 -0.036944 -156.74
2.256 -0.036873 -156.81
2.262 -0.036803 -156.88
2.268 -0.036734 -156.96
2.274 -0.036664 -157.03
2.28 -0.036595 -157.10
2.286 -0.036527 -157.17
2.292 -0.036458 -157.24
2.298 -0.03639 -157.31
2.304 -0.036323 -157.38
2.31 -0.036255 -157.45
2.316 -0.036188 -157.52
2.322 -0.036122 -157.59
2.328 -0.036056 -157.66
2.334 -0.03599 -157.73
2.34 -0.035924 -157.80
2.346 -0.035859 -157.87
2.352 -0.035794 -157.93
2.358 -0.035729 -158.00
2.364 -0.035665 -158.07
2.37 -0.035601 -158.14
2.376 -0.035537 -158.20
2.382 -0.035473 -158.27
2.388 -0.03541 -158.34
2.394 -0.035348 -158.40
2.4 -0.035285 -158.47
2.406 -0.035223 -158.53
2.412 -0.035161 -158.60
2.418 -0.035099 -158.66
2.424 -0.035038 -158.73
2.43 -0.034977 -158.79
2.436 -0.034917 -158.85
2.442 -0.034856 -158.92
2.448 -0.034796 -158.98
2.454 -0.034736 -159.04
2.46 -0.034677 -159.11
2.466 -0.034618 -159.17
2.472 -0.034559 -159.23
2.478 -0.0345 -159.30
2.484 -0.034442 -159.36
2.49 -0.034384 -159.42
2.496 -0.034326 -159.48
2.502 -0.034268 -159.54
2.508 -0.034211 -159.60
2.514 -0.034154 -159.66
2.52 -0.034097 -159.72
2.526 -0.034041 -159.78
2.532 -0.033985 -159.84
2.538 -0.033929 -159.90
2.544 -0.033873 -159.96
2.55 -0.033818 -160.02
2.556 -0.033763 -160.08
2.562 -0.033708 -160.14
2.568 -0.033653 -160.20
2.574 -0.033599 -160.26
2.58 -0.033545 -160.31
2.586 -0.033491 -160.37
2.592 -0.033438 -160.43
2.598 -0.033385 -160.49
2.604 -0.033332 -160.54
2.61 -0.033279 -160.60
2.616 -0.033226 -160.66
2.622 -0.033174 -160.71
2.628 -0.033122 -160.77
2.634 -0.03307 -160.83
2.64 -0.033019 -160.88
2.646 -0.032968 -160.94
2.652 -0.032917 -160.99
2.658 -0.032866 -161.05
2.664 -0.032815 -161.10
2.67 -0.032765 -161.16
2.676 -0.032715 -161.21
2.682 -0.032665 -161.27
2.688 -0.032615 -161.32
2.694 -0.032566 -161.38
2.7 -0.032517 -161.43
2.706 -0.032468 -161.48
2.712 -0.032419 -161.54
2.718 -0.032371 -161.59
2.724 -0.032323 -161.64
2.73 -0.032275 -161.70
2.736 -0.032227 -161.75
2.742 -0.032179 -161.80
2.748 -0.032132 -161.85
2.754 -0.032085 -161.91
2.76 -0.032038 -161.96
2.766 -0.031992 -162.01
2.772 -0.031945 -162.06
2.778 -0.031899 -162.11
2.784 -0.031853 -162.16
2.79 -0.031807 -162.22
2.796 -0.031762 -162.27
2.802 -0.031716 -162.32
2.808 -0.031671 -162.37
2.814 -0.031626 -162.42
2.82 -0.031581 -162.47
2.826 -0.031537 -162.52
2.832 -0.031493 -162.57
2.838 -0.031449 -162.62
2.844 -0.031405 -162.67
2.85 -0.031361 -162.72
2.856 -0.031317 -162.77
2.862 -0.031274 -162.81
2.868 -0.031231 -162.86
2.874 -0.031188 -162.91
2.88 -0.031146 -162.96
2.886 -0.031103 -163.01
2.892 -0.031061 -163.06
2.898 -0.031019 -163.10
2.904 -0.030977 -163.15
2.91 -0.030935 -163.20
2.916 -0.030894 -163.25
2.922 -0.030852 -163.30
2.928 -0.030811 -163.34
2.934 -0.03077 -163.39
2.94 -0.03073 -163.44
2.946 -0.030689 -163.48
2.952 -0.030649 -163.53
2.958 -0.030608 -163.58
2.964 -0.030568 -163.62
2.97 -0.030529 -163.67
2.976 -0.030489 -163.71
2.982 -0.03045 -163.76
2.988 -0.03041 -163.81
2.994 -0.030371 -163.85
3 -0.030332 -163.90
3.006 -0.030294 -163.94
3.012 -0.030255 -163.99
3.018 -0.030217 -164.03
3.024 -0.030179 -164.08
3.03 -0.030141 -164.12
3.036 -0.030103 -164.17
3.042 -0.030065 -164.21
3.048 -0.030028 -164.25
3.054 -0.02999 -164.30
3.06 -0.029953 -164.34
3.066 -0.029916 -164.39
3.072 -0.02988 -164.43
3.078 -0.029843 -164.47
3.084 -0.029807 -164.52
3.09 -0.02977 -164.56
3.096 -0.029734 -164.60
3.102 -0.029698 -164.65
3.108 -0.029663 -164.69
3.114 -0.029627 -164.73
3.12 -0.029591 -164.78
3.126 -0.029556 -164.82
3.132 -0.029521 -164.86
3.138 -0.029486 -164.90
3.144 -0.029451 -164.94
3.15 -0.029417 -164.99
3.156 -0.029382 -165.03
3.162 -0.029348 -165.07
3.168 -0.029314 -165.11
3.174 -0.02928 -165.15
3.18 -0.029246 -165.19
3.186 -0.029212 -165.24
3.192 -0.029179 -165.28
3.198 -0.029145 -165.32
3.204 -0.029112 -165.36
3.21 -0.029079 -165.40
3.216 -0.029046 -165.44
3.222 -0.029014 -165.48
3.228 -0.028981 -165.52
3.234 -0.028948 -165.56
3.24 -0.028916 -165.60
3.246 -0.028884 -165.64
3.252 -0.028852 -165.68
3.258 -0.02882 -165.72
3.264 -0.028789 -165.76
3.27 -0.028757 -165.80
3.276 -0.028726 -165.84
3.282 -0.028694 -165.88
3.288 -0.028663 -165.92
3.294 -0.028632 -165.96
3.3 -0.028601 -166.00
3.306 -0.028571 -166.04
3.312 -0.02854 -166.08
3.318 -0.02851 -166.11
3.324 -0.02848 -166.15
3.33 -0.028449 -166.19
3.336 -0.028419 -166.23
3.342 -0.02839 -166.27
3.348 -0.02836 -166.31
3.354 -0.02833 -166.35
3.36 -0.028301 -166.38
3.366 -0.028272 -166.42
3.372 -0.028243 -166.46
3.378 -0.028214 -166.50
3.384 -0.028185 -166.53
3.39 -0.028156 -166.57
3.396 -0.028127 -166.61
3.402 -0.028099 -166.65
3.408 -0.028071 -166.68
3.414 -0.028043 -166.72
3.42 -0.028014 -166.76
3.426 -0.027987 -166.80
3.432 -0.027959 -166.83
3.438 -0.027931 -166.87
3.444 -0.027904 -166.91
3.45 -0.027876 -166.94
3.456 -0.027849 -166.98
3.462 -0.027822 -167.01
3.468 -0.027795 -167.05
3.474 -0.027768 -167.09
3.48 -0.027741 -167.12
3.486 -0.027715 -167.16
3.492 -0.027688 -167.20
3.498 -0.027662 -167.23
3.504 -0.027635 -167.27
3.51 -0.027609 -167.30
3.516 -0.027583 -167.34
3.522 -0.027557 -167.37
3.528 -0.027532 -167.41
3.534 -0.027506 -167.44
3.54 -0.027481 -167.48
3.546 -0.027455 -167.51
3.552 -0.02743 -167.55
3.558 -0.027405 -167.58
3.564 -0.02738 -167.62
3.57 -0.027355 -167.65
3.576 -0.02733 -167.69
3.582 -0.027305 -167.72
3.588 -0.027281 -167.76
3.594 -0.027257 -167.79
3.6 -0.027232 -167.83
3.606 -0.027208 -167.86
3.612 -0.027184 -167.89
3.618 -0.02716 -167.93
3.624 -0.027136 -167.96
3.63 -0.027113 -168.00
3.636 -0.027089 -168.03
3.642 -0.027065 -168.06
3.648 -0.027042 -168.10
3.654 -0.027019 -168.13
3.66 -0.026996 -168.17
3.666 -0.026973 -168.20
3.672 -0.02695 -168.23
3.678 -0.026927 -168.27
3.684 -0.026904 -168.30
3.69 -0.026882 -168.33
3.696 -0.026859 -168.36
3.702 -0.026837 -168.40
3.708 -0.026815 -168.43
3.714 -0.026793 -168.46
3.72 -0.026771 -168.50
3.726 -0.026749 -168.53
3.732 -0.026727 -168.56
3.738 -0.026705 -168.59
3.744 -0.026684 -168.63
3.75 -0.026662 -168.66
3.756 -0.026641 -168.69
3.762 -0.02662 -168.72
3.768 -0.026599 -168.76
3.774 -0.026577 -168.79
3.78 -0.026557 -168.82
3.786 -0.026536 -168.85
3.792 -0.026515 -168.88
3.798 -0.026494 -168.92
3.804 -0.026474 -168.95
3.81 -0.026454 -168.98
3.816 -0.026433 -169.01
3.822 -0.026413 -169.04
3.828 -0.026393 -169.07
3.834 -0.026373 -169.10
3.84 -0.026353 -169.14
3.846 -0.026333 -169.17
3.852 -0.026314 -169.20
3.858 -0.026294 -169.23
3.864 -0.026275 -169.26
3.87 -0.026255 -169.29
3.876 -0.026236 -169.32
3.882 -0.026217 -169.35
3.888 -0.026198 -169.38
3.894 -0.026179 -169.42
3.9 -0.02616 -169.45
3.906 -0.026141 -169.48
3.912 -0.026123 -169.51
3.918 -0.026104 -169.54
3.924 -0.026086 -169.57
3.93 -0.026067 -169.60
3.936 -0.026049 -169.63
3.942 -0.026031 -169.66
3.948 -0.026013 -169.69
3.954 -0.025995 -169.72
3.96 -0.025977 -169.75
3.966 -0.025959 -169.78
3.972 -0.025941 -169.81
3.978 -0.025924 -169.84
3.984 -0.025906 -169.87
3.99 -0.025889 -169.90
3.996 -0.025872 -169.93
4.002 -0.025854 -169.96
4.008 -0.025837 -169.99
4.014 -0.02582 -170.02
4.02 -0.025803 -170.05
4.026 -0.025787 -170.08
4.032 -0.02577 -170.10
4.038 -0.025753 -170.13
4.044 -0.025737 -170.16
4.05 -0.02572 -170.19
4.056 -0.025704 -170.22
4.062 -0.025688 -170.25
4.068 -0.025671 -170.28
4.074 -0.025655 -170.31
4.08 -0.025639 -170.34
4.086 -0.025623 -170.37
4.092 -0.025608 -170.39
4.098 -0.025592 -170.42
4.104 -0.025576 -170.45
4.11 -0.025561 -170.48
4.116 -0.025545 -170.51
4.122 -0.02553 -170.54
4.128 -0.025515 -170.57
4.134 -0.0255 -170.59
4.14 -0.025484 -170.62
4.146 -0.025469 -170.65
4.152 -0.025455 -170.68
4.158 -0.02544 -170.71
4.164 -0.025425 -170.74
4.17 -0.02541 -170.76
4.176 -0.025396 -170.79
4.182 -0.025381 -170.82
4.188 -0.025367 -170.85
4.194 -0.025353 -170.88
4.2 -0.025339 -170.90
4.206 -0.025324 -170.93
4.212 -0.02531 -170.96
4.218 -0.025296 -170.99
4.224 -0.025283 -171.01
4.23 -0.025269 -171.04
4.236 -0.025255 -171.07
4.242 -0.025242 -171.10
4.248 -0.025228 -171.12
4.254 -0.025215 -171.15
4.26 -0.025201 -171.18
4.266 -0.025188 -171.21
4.272 -0.025175 -171.23
4.278 -0.025162 -171.26
4.284 -0.025149 -171.29
4.29 -0.025136 -171.31
4.296 -0.025123 -171.34
4.302 -0.02511 -171.37
4.308 -0.025098 -171.40
4.314 -0.025085 -171.42
4.32 -0.025073 -171.45
4.326 -0.02506 -171.48
4.332 -0.025048 -171.50
4.338 -0.025036 -171.53
4.344 -0.025023 -171.56
4.35 -0.025011 -171.58
4.356 -0.024999 -171.61
4.362 -0.024987 -171.64
4.368 -0.024976 -171.66
4.374 -0.024964 -171.69
4.38 -0.024952 -171.72
4.386 -0.02494 -171.74
4.392 -0.024929 -171.77
4.398 -0.024918 -171.79
4.404 -0.024906 -171.82
4.41 -0.024895 -171.85
4.416 -0.024884 -171.87
4.422 -0.024873 -171.90
4.428 -0.024862 -171.92
4.434 -0.024851 -171.95
4.44 -0.02484 -171.98
4.446 -0.024829 -172.00
4.452 -0.024818 -172.03
4.458 -0.024808 -172.05
4.464 -0.024797 -172.08
4.47 -0.024787 -172.11
4.476 -0.024776 -172.13
4.482 -0.024766 -172.16
4.488 -0.024756 -172.18
4.494 -0.024746 -172.21
4.5 -0.024735 -172.23
4.506 -0.024725 -172.26
4.512 -0.024715 -172.29
4.518 -0.024706 -172.31
4.524 -0.024696 -172.34
4.53 -0.024686 -172.36
4.536 -0.024677 -172.39
4.542 -0.024667 -172.41
4.548 -0.024658 -172.44
4.554 -0.024648 -172.46
4.56 -0.024639 -172.49
4.566 -0.02463 -172.51
4.572 -0.024621 -172.54
4.578 -0.024611 -172.56
4.584 -0.024602 -172.59
4.59 -0.024594 -172.61
4.596 -0.024585 -172.64
4.602 -0.024576 -172.66
4.608 -0.024567 -172.69
4.614 -0.024559 -172.71
4.62 -0.02455 -172.74
4.626 -0.024542 -172.76
4.632 -0.024533 -172.79
4.638 -0.024525 -172.81
4.644 -0.024517 -172.84
4.65 -0.024508 -172.86
4.656 -0.0245 -172.89
4.662 -0.024492 -172.91
4.668 -0.024484 -172.93
4.674 -0.024477 -172.96
4.68 -0.024469 -172.98
4.686 -0.024461 -173.01
4.692 -0.024453 -173.03
4.698 -0.024446 -173.06
4.704 -0.024438 -173.08
4.71 -0.024431 -173.11
4.716 -0.024424 -173.13
4.722 -0.024416 -173.15
4.728 -0.024409 -173.18
4.734 -0.024402 -173.20
4.74 -0.024395 -173.23
4.746 -0.024388 -173.25
4.752 -0.024381 -173.27
4.758 -0.024374 -173.30
4.764 -0.024368 -173.32
4.77 -0.024361 -173.35
4.776 -0.024354 -173.37
4.782 -0.024348 -173.39
4.788 -0.024341 -173.42
4.794 -0.024335 -173.44
4.8 -0.024329 -173.47
4.806 -0.024322 -173.49
4.812 -0.024316 -173.51
4.818 -0.02431 -173.54
4.824 -0.024304 -173.56
4.83 -0.024298 -173.58
4.836 -0.024292 -173.61
4.842 -0.024286 -173.63
4.848 -0.024281 -173.66
4.854 -0.024275 -173.68
4.86 -0.024269 -173.70
4.866 -0.024264 -173.73
4.872 -0.024258 -173.75
4.878 -0.024253 -173.77
4.884 -0.024248 -173.80
4.89 -0.024242 -173.82
4.896 -0.024237 -173.84
4.902 -0.024232 -173.87
4.908 -0.024227 -173.89
4.914 -0.024222 -173.91
4.92 -0.024217 -173.94
4.926 -0.024212 -173.96
4.932 -0.024208 -173.98
4.938 -0.024203 -174.01
4.944 -0.024198 -174.03
4.95 -0.024194 -174.05
4.956 -0.02419 -174.07
4.962 -0.024185 -174.10
4.968 -0.024181 -174.12
4.974 -0.024177 -174.14
4.98 -0.024172 -174.17
4.986 -0.024168 -174.19
4.992 -0.024164 -174.21
4.998 -0.02416 -174.24
5.004 -0.024156 -174.26
5.01 -0.024153 -174.28
5.016 -0.024149 -174.30
5.022 -0.024145 -174.33
5.028 -0.024142 -174.35
5.034 -0.024138 -174.37
5.04 -0.024135 -174.39
5.046 -0.024131 -174.42
5.052 -0.024128 -174.44
5.058 -0.024125 -174.46
5.064 -0.024121 -174.49
5.07 -0.024118 -174.51
5.076 -0.024115 -174.53
5.082 -0.024112 -174.55
5.088 -0.024109 -174.58
5.094 -0.024107 -174.60
5.1 -0.024104 -174.62
5.106 -0.024101 -174.64
5.112 -0.024098 -174.66
5.118 -0.024096 -174.69
5.124 -0.024093 -174.71
5.13 -0.024091 -174.73
5.136 -0.024089 -174.75
5.142 -0.024086 -174.78
5.148 -0.024084 -174.80
5.154 -0.024082 -174.82
5.16 -0.02408 -174.84
5.166 -0.024078 -174.87
5.172 -0.024076 -174.89
5.178 -0.024074 -174.91
5.184 -0.024072 -174.93
5.19 -0.024071 -174.95
5.196 -0.024069 -174.98
5.202 -0.024067 -175.00
5.208 -0.024066 -175.02
5.214 -0.024064 -175.04
5.22 -0.024063 -175.06
5.226 -0.024062 -175.09
5.232 -0.02406 -175.11
5.238 -0.024059 -175.13
5.244 -0.024058 -175.15
5.25 -0.024057 -175.17
5.256 -0.024056 -175.20
5.262 -0.024055 -175.22
5.268 -0.024054 -175.24
5.274 -0.024054 -175.26
5.28 -0.024053 -175.28
5.286 -0.024052 -175.30
5.292 -0.024052 -175.33
5.298 -0.024051 -175.35
5.304 -0.024051 -175.37
5.31 -0.024051 -175.39
5.316 -0.02405 -175.41
5.322 -0.02405 -175.43
5.328 -0.02405 -175.46
5.334 -0.02405 -175.48
5.34 -0.02405 -175.50
5.346 -0.02405 -175.52
5.352 -0.02405 -175.54
5.358 -0.02405 -175.56
5.364 -0.024051 -175.59
5.37 -0.024051 -175.61
5.376 -0.024051 -175.63
5.382 -0.024052 -175.65
5.388 -0.024052 -175.67
5.394 -0.024053 -175.69
5.4 -0.024054 -175.71
5.406 -0.024055 -175.74
5.412 -0.024055 -175.76
5.418 -0.024056 -175.78
5.424 -0.024057 -175.80
5.43 -0.024058 -175.82
5.436 -0.024059 -175.84
5.442 -0.024061 -175.86
5.448 -0.024062 -175.88
5.454 -0.024063 -175.91
5.46 -0.024065 -175.93
5.466 -0.024066 -175.95
5.472 -0.024068 -175.97
5.478 -0.024069 -175.99
5.484 -0.024071 -176.01
5.49 -0.024073 -176.03
5.496 -0.024074 -176.05
5.502 -0.024076 -176.07
5.508 -0.024078 -176.10
5.514 -0.02408 -176.12
5.52 -0.024082 -176.14
5.526 -0.024084 -176.16
5.532 -0.024087 -176.18
5.538 -0.024089 -176.20
5.544 -0.024091 -176.22
5.55 -0.024094 -176.24
5.556 -0.024096 -176.26
5.562 -0.024099 -176.28
5.568 -0.024102 -176.31
5.574 -0.024104 -176.33
5.58 -0.024107 -176.35
5.586 -0.02411 -176.37
5.592 -0.024113 -176.39
5.598 -0.024116 -176.41
5.604 -0.024119 -176.43
5.61 -0.024122 -176.45
5.616 -0.024125 -176.47
5.622 -0.024128 -176.49
5.628 -0.024132 -176.51
5.634 -0.024135 -176.53
5.64 -0.024139 -176.56
5.646 -0.024142 -176.58
5.652 -0.024146 -176.60
5.658 -0.02415 -176.62
5.664 -0.024153 -176.64
5.67 -0.024157 -176.66
5.676 -0.024161 -176.68
5.682 -0.024165 -176.70
5.688 -0.024169 -176.72
5.694 -0.024173 -176.74
5.7 -0.024177 -176.76
5.706 -0.024182 -176.78
5.712 -0.024186 -176.80
5.718 -0.02419 -176.82
5.724 -0.024195 -176.84
5.73 -0.024199 -176.86
5.736 -0.024204 -176.89
5.742 -0.024209 -176.91
5.748 -0.024213 -176.93
5.754 -0.024218 -176.95
5.76 -0.024223 -176.97
5.766 -0.024228 -176.99
5.772 -0.024233 -177.01
5.778 -0.024238 -177.03
5.784 -0.024244 -177.05
5.79 -0.024249 -177.07
5.796 -0.024254 -177.09
5.802 -0.02426 -177.11
5.808 -0.024265 -177.13
5.814 -0.024271 -177.15
5.82 -0.024276 -177.17
5.826 -0.024282 -177.19
5.832 -0.024288 -177.21
5.838 -0.024294 -177.23
5.844 -0.024299 -177.25
5.85 -0.024305 -177.27
5.856 -0.024311 -177.29
5.862 -0.024318 -177.31
5.868 -0.024324 -177.33
5.874 -0.02433 -177.35
5.88 -0.024336 -177.37
5.886 -0.024343 -177.39
5.892 -0.024349 -177.41
5.898 -0.024356 -177.43
5.904 -0.024363 -177.45
5.91 -0.024369 -177.47
5.916 -0.024376 -177.50
5.922 -0.024383 -177.52
5.928 -0.02439 -177.54
5.934 -0.024397 -177.56
5.94 -0.024404 -177.58
5.946 -0.024411 -177.60
5.952 -0.024418 -177.62
5.958 -0.024426 -177.64
5.964 -0.024433 -177.66
5.97 -0.02444 -177.68
5.976 -0.024448 -177.70
5.982 -0.024456 -177.72
5.988 -0.024463 -177.74
5.994 -0.024471 -177.76
6 -0.024479 -177.78
