! yapnr Order 0 O0-M: O0-M A08 M0.7 30 (variant, family M0.7)
! stackup OSHPARK-4L-EM528, nominal parameters; geometry of the OSHPARK-4L-FR408HR design
! model: 2D quasi-static RLGC (Djordjevic-Sarkar, Huray roughness, Wheeler loss); generated by python -m yapnr.rf.coupons expected --stackup OSHPARK-4L-FR408HR --upload M
! reference planes 10 mm from each end; 50 ohm (from the M line's Zc)
# GHz S DB R 50
0.03 -43.568 74.89 -0.014327 -1.89 -0.014327 -1.89 -43.568 74.89
0.06 -38.216 76.39 -0.020894 -3.73 -0.020894 -3.73 -38.216 76.39
0.09 -35.001 76.16 -0.026525 -5.56 -0.026525 -5.56 -35.001 76.16
0.12 -32.692 75.33 -0.031786 -7.39 -0.031786 -7.39 -32.692 75.33
0.15 -30.889 74.21 -0.036892 -9.21 -0.036892 -9.21 -30.889 74.21
0.18 -29.412 72.91 -0.04195 -11.03 -0.04195 -11.03 -29.412 72.91
0.21 -28.162 71.51 -0.047021 -12.84 -0.047021 -12.84 -28.162 71.51
0.24 -27.081 70.03 -0.052141 -14.66 -0.052141 -14.66 -27.081 70.03
0.27 -26.13 68.50 -0.05733 -16.47 -0.05733 -16.47 -26.13 68.50
0.3 -25.283 66.93 -0.062601 -18.28 -0.062601 -18.28 -25.283 66.93
0.33 -24.521 65.33 -0.06796 -20.09 -0.06796 -20.09 -24.521 65.33
0.36 -23.83 63.71 -0.07341 -21.89 -0.07341 -21.89 -23.83 63.71
0.39 -23.199 62.07 -0.078949 -23.70 -0.078949 -23.70 -23.199 62.07
0.42 -22.619 60.41 -0.084574 -25.50 -0.084574 -25.50 -22.619 60.41
0.45 -22.085 58.74 -0.090278 -27.30 -0.090278 -27.30 -22.085 58.74
0.48 -21.591 57.07 -0.096056 -29.10 -0.096056 -29.10 -21.591 57.07
0.51 -21.132 55.38 -0.1019 -30.90 -0.1019 -30.90 -21.132 55.38
0.54 -20.705 53.69 -0.10779 -32.70 -0.10779 -32.70 -20.705 53.69
0.57 -20.306 51.99 -0.11373 -34.49 -0.11373 -34.49 -20.306 51.99
0.6 -19.934 50.28 -0.11971 -36.28 -0.11971 -36.28 -19.934 50.28
0.63 -19.585 48.58 -0.1257 -38.07 -0.1257 -38.07 -19.585 48.58
0.66 -19.259 46.87 -0.13171 -39.86 -0.13171 -39.86 -19.259 46.87
0.69 -18.953 45.16 -0.13771 -41.65 -0.13771 -41.65 -18.953 45.16
0.72 -18.666 43.44 -0.1437 -43.43 -0.1437 -43.43 -18.666 43.44
0.75 -18.397 41.72 -0.14966 -45.21 -0.14966 -45.21 -18.397 41.72
0.78 -18.144 40.01 -0.15557 -47.00 -0.15557 -47.00 -18.144 40.01
0.81 -17.907 38.29 -0.16143 -48.78 -0.16143 -48.78 -17.907 38.29
0.84 -17.684 36.57 -0.16723 -50.55 -0.16723 -50.55 -17.684 36.57
0.87 -17.475 34.85 -0.17294 -52.33 -0.17294 -52.33 -17.475 34.85
0.9 -17.28 33.13 -0.17856 -54.11 -0.17856 -54.11 -17.28 33.13
0.93 -17.097 31.41 -0.18408 -55.88 -0.18408 -55.88 -17.097 31.41
0.96 -16.927 29.69 -0.18948 -57.65 -0.18948 -57.65 -16.927 29.69
0.99 -16.768 27.97 -0.19474 -59.42 -0.19474 -59.42 -16.768 27.97
1.02 -16.62 26.25 -0.19987 -61.19 -0.19987 -61.19 -16.62 26.25
1.05 -16.482 24.53 -0.20485 -62.96 -0.20485 -62.96 -16.482 24.53
1.08 -16.355 22.81 -0.20967 -64.72 -0.20967 -64.72 -16.355 22.81
1.11 -16.239 21.09 -0.21431 -66.49 -0.21431 -66.49 -16.239 21.09
1.14 -16.131 19.38 -0.21878 -68.25 -0.21878 -68.25 -16.131 19.38
1.17 -16.034 17.66 -0.22305 -70.02 -0.22305 -70.02 -16.034 17.66
1.2 -15.945 15.94 -0.22713 -71.78 -0.22713 -71.78 -15.945 15.94
1.23 -15.866 14.22 -0.231 -73.54 -0.231 -73.54 -15.866 14.22
1.26 -15.795 12.51 -0.23467 -75.30 -0.23467 -75.30 -15.795 12.51
1.29 -15.733 10.79 -0.23811 -77.06 -0.23811 -77.06 -15.733 10.79
1.32 -15.68 9.07 -0.24134 -78.82 -0.24134 -78.82 -15.68 9.07
1.35 -15.635 7.36 -0.24434 -80.58 -0.24434 -80.58 -15.635 7.36
1.38 -15.599 5.64 -0.24711 -82.33 -0.24711 -82.33 -15.599 5.64
1.41 -15.57 3.93 -0.24965 -84.09 -0.24965 -84.09 -15.57 3.93
1.44 -15.55 2.21 -0.25195 -85.85 -0.25195 -85.85 -15.55 2.21
1.47 -15.538 0.50 -0.25402 -87.61 -0.25402 -87.61 -15.538 0.50
1.5 -15.534 -1.21 -0.25585 -89.36 -0.25585 -89.36 -15.534 -1.21
1.53 -15.539 -2.93 -0.25745 -91.12 -0.25745 -91.12 -15.539 -2.93
1.56 -15.551 -4.64 -0.25882 -92.88 -0.25882 -92.88 -15.551 -4.64
1.59 -15.572 -6.35 -0.25995 -94.63 -0.25995 -94.63 -15.572 -6.35
1.62 -15.6 -8.07 -0.26086 -96.39 -0.26086 -96.39 -15.6 -8.07
1.65 -15.637 -9.78 -0.26154 -98.15 -0.26154 -98.15 -15.637 -9.78
1.68 -15.682 -11.49 -0.262 -99.91 -0.262 -99.91 -15.682 -11.49
1.71 -15.736 -13.20 -0.26225 -101.67 -0.26225 -101.67 -15.736 -13.20
1.74 -15.798 -14.92 -0.26229 -103.43 -0.26229 -103.43 -15.798 -14.92
1.77 -15.869 -16.63 -0.26213 -105.19 -0.26213 -105.19 -15.869 -16.63
1.8 -15.949 -18.34 -0.26178 -106.95 -0.26178 -106.95 -15.949 -18.34
1.83 -16.037 -20.05 -0.26124 -108.71 -0.26124 -108.71 -16.037 -20.05
1.86 -16.135 -21.76 -0.26053 -110.47 -0.26053 -110.47 -16.135 -21.76
1.89 -16.242 -23.47 -0.25965 -112.24 -0.25965 -112.24 -16.242 -23.47
1.92 -16.359 -25.18 -0.25861 -114.00 -0.25861 -114.00 -16.359 -25.18
1.95 -16.486 -26.89 -0.25743 -115.77 -0.25743 -115.77 -16.486 -26.89
1.98 -16.622 -28.60 -0.25612 -117.54 -0.25612 -117.54 -16.622 -28.60
2.01 -16.77 -30.31 -0.25468 -119.31 -0.25468 -119.31 -16.77 -30.31
2.04 -16.929 -32.02 -0.25314 -121.08 -0.25314 -121.08 -16.929 -32.02
2.07 -17.098 -33.72 -0.2515 -122.85 -0.2515 -122.85 -17.098 -33.72
2.1 -17.28 -35.43 -0.24977 -124.62 -0.24977 -124.62 -17.28 -35.43
2.13 -17.474 -37.13 -0.24798 -126.39 -0.24798 -126.39 -17.474 -37.13
2.16 -17.682 -38.83 -0.24613 -128.17 -0.24613 -128.17 -17.682 -38.83
2.19 -17.902 -40.53 -0.24424 -129.95 -0.24424 -129.95 -17.902 -40.53
2.22 -18.138 -42.22 -0.24232 -131.73 -0.24232 -131.73 -18.138 -42.22
2.25 -18.388 -43.91 -0.24038 -133.51 -0.24038 -133.51 -18.388 -43.91
2.28 -18.654 -45.60 -0.23845 -135.29 -0.23845 -135.29 -18.654 -45.60
2.31 -18.938 -47.29 -0.23653 -137.07 -0.23653 -137.07 -18.938 -47.29
2.34 -19.24 -48.96 -0.23464 -138.85 -0.23464 -138.85 -19.24 -48.96
2.37 -19.562 -50.64 -0.2328 -140.64 -0.2328 -140.64 -19.562 -50.64
2.4 -19.905 -52.30 -0.23101 -142.43 -0.23101 -142.43 -19.905 -52.30
2.43 -20.27 -53.95 -0.22929 -144.22 -0.22929 -144.22 -20.27 -53.95
2.46 -20.661 -55.60 -0.22766 -146.01 -0.22766 -146.01 -20.661 -55.60
2.49 -21.079 -57.23 -0.22613 -147.80 -0.22613 -147.80 -21.079 -57.23
2.52 -21.528 -58.85 -0.22471 -149.59 -0.22471 -149.59 -21.528 -58.85
2.55 -22.009 -60.44 -0.22341 -151.39 -0.22341 -151.39 -22.009 -60.44
2.58 -22.528 -62.02 -0.22224 -153.18 -0.22224 -153.18 -22.528 -62.02
2.61 -23.089 -63.56 -0.22123 -154.98 -0.22123 -154.98 -23.089 -63.56
2.64 -23.698 -65.08 -0.22037 -156.78 -0.22037 -156.78 -23.698 -65.08
2.67 -24.362 -66.55 -0.21968 -158.57 -0.21968 -158.57 -24.362 -66.55
2.7 -25.089 -67.96 -0.21917 -160.37 -0.21917 -160.37 -25.089 -67.96
2.73 -25.892 -69.30 -0.21884 -162.17 -0.21884 -162.17 -25.892 -69.30
2.76 -26.786 -70.54 -0.21871 -163.98 -0.21871 -163.98 -26.786 -70.54
2.79 -27.79 -71.65 -0.21878 -165.78 -0.21878 -165.78 -27.79 -71.65
2.82 -28.934 -72.57 -0.21906 -167.58 -0.21906 -167.58 -28.934 -72.57
2.85 -30.259 -73.20 -0.21955 -169.38 -0.21955 -169.38 -30.259 -73.20
2.88 -31.826 -73.36 -0.22027 -171.19 -0.22027 -171.19 -31.826 -73.36
2.91 -33.736 -72.72 -0.2212 -172.99 -0.2212 -172.99 -33.736 -72.72
2.94 -36.166 -70.50 -0.22236 -174.79 -0.22236 -174.79 -36.166 -70.50
2.97 -39.439 -64.54 -0.22375 -176.60 -0.22375 -176.60 -39.439 -64.54
3 -44.043 -46.81 -0.22538 -178.40 -0.22538 -178.40 -44.043 -46.81
3.03 -47.224 6.35 -0.22723 179.79 -0.22723 179.79 -47.224 6.35
3.06 -42.809 49.78 -0.22931 177.99 -0.22931 177.99 -42.809 49.78
3.09 -38.555 63.14 -0.23161 176.18 -0.23161 176.18 -38.555 63.14
3.12 -35.532 67.84 -0.23415 174.38 -0.23415 174.38 -35.532 67.84
3.15 -33.254 69.56 -0.2369 172.58 -0.2369 172.58 -33.254 69.56
3.18 -31.443 69.96 -0.23988 170.78 -0.23988 170.78 -31.443 69.96
3.21 -29.946 69.67 -0.24306 168.97 -0.24306 168.97 -29.946 69.67
3.24 -28.675 68.96 -0.24646 167.17 -0.24646 167.17 -28.675 68.96
3.27 -27.572 68.00 -0.25005 165.37 -0.25005 165.37 -27.572 68.00
3.3 -26.601 66.85 -0.25383 163.57 -0.25383 163.57 -26.601 66.85
3.33 -25.735 65.59 -0.2578 161.77 -0.2578 161.77 -25.735 65.59
3.36 -24.956 64.23 -0.26195 159.97 -0.26195 159.97 -24.956 64.23
3.39 -24.249 62.81 -0.26626 158.18 -0.26626 158.18 -24.249 62.81
3.42 -23.603 61.34 -0.27072 156.38 -0.27072 156.38 -23.603 61.34
3.45 -23.011 59.82 -0.27533 154.59 -0.27533 154.59 -23.011 59.82
3.48 -22.465 58.28 -0.28007 152.79 -0.28007 152.79 -22.465 58.28
3.51 -21.96 56.70 -0.28493 151.00 -0.28493 151.00 -21.96 56.70
3.54 -21.491 55.11 -0.2899 149.21 -0.2899 149.21 -21.491 55.11
3.57 -21.054 53.50 -0.29497 147.42 -0.29497 147.42 -21.054 53.50
3.6 -20.647 51.87 -0.30012 145.63 -0.30012 145.63 -20.647 51.87
3.63 -20.266 50.24 -0.30533 143.85 -0.30533 143.85 -20.266 50.24
3.66 -19.91 48.59 -0.3106 142.06 -0.3106 142.06 -19.91 48.59
3.69 -19.577 46.93 -0.31592 140.28 -0.31592 140.28 -19.577 46.93
3.72 -19.264 45.27 -0.32125 138.50 -0.32125 138.50 -19.264 45.27
3.75 -18.971 43.60 -0.32661 136.71 -0.32661 136.71 -18.971 43.60
3.78 -18.695 41.93 -0.33196 134.94 -0.33196 134.94 -18.695 41.93
3.81 -18.437 40.25 -0.33729 133.16 -0.33729 133.16 -18.437 40.25
3.84 -18.194 38.57 -0.3426 131.38 -0.3426 131.38 -18.194 38.57
3.87 -17.967 36.89 -0.34786 129.61 -0.34786 129.61 -17.967 36.89
3.9 -17.753 35.21 -0.35307 127.83 -0.35307 127.83 -17.753 35.21
3.93 -17.553 33.52 -0.35821 126.06 -0.35821 126.06 -17.553 33.52
3.96 -17.366 31.83 -0.36326 124.29 -0.36326 124.29 -17.366 31.83
3.99 -17.191 30.14 -0.36822 122.52 -0.36822 122.52 -17.191 30.14
4.02 -17.028 28.45 -0.37307 120.76 -0.37307 120.76 -17.028 28.45
4.05 -16.876 26.76 -0.3778 118.99 -0.3778 118.99 -16.876 26.76
4.08 -16.735 25.06 -0.3824 117.22 -0.3824 117.22 -16.735 25.06
4.11 -16.604 23.37 -0.38686 115.46 -0.38686 115.46 -16.604 23.37
4.14 -16.484 21.68 -0.39116 113.70 -0.39116 113.70 -16.484 21.68
4.17 -16.373 19.98 -0.39531 111.93 -0.39531 111.93 -16.373 19.98
4.2 -16.272 18.29 -0.39928 110.17 -0.39928 110.17 -16.272 18.29
4.23 -16.18 16.60 -0.40307 108.41 -0.40307 108.41 -16.18 16.60
4.26 -16.098 14.90 -0.40667 106.65 -0.40667 106.65 -16.098 14.90
4.29 -16.024 13.21 -0.41008 104.90 -0.41008 104.90 -16.024 13.21
4.32 -15.96 11.52 -0.41329 103.14 -0.41329 103.14 -15.96 11.52
4.35 -15.903 9.83 -0.4163 101.38 -0.4163 101.38 -15.903 9.83
4.38 -15.856 8.14 -0.41909 99.62 -0.41909 99.62 -15.856 8.14
4.41 -15.817 6.44 -0.42166 97.87 -0.42166 97.87 -15.817 6.44
4.44 -15.786 4.75 -0.42402 96.11 -0.42402 96.11 -15.786 4.75
4.47 -15.763 3.06 -0.42616 94.36 -0.42616 94.36 -15.763 3.06
4.5 -15.748 1.37 -0.42807 92.60 -0.42807 92.60 -15.748 1.37
4.53 -15.742 -0.32 -0.42976 90.85 -0.42976 90.85 -15.742 -0.32
4.56 -15.744 -2.01 -0.43122 89.09 -0.43122 89.09 -15.744 -2.01
4.59 -15.754 -3.69 -0.43247 87.33 -0.43247 87.33 -15.754 -3.69
4.62 -15.772 -5.38 -0.43349 85.58 -0.43349 85.58 -15.772 -5.38
4.65 -15.798 -7.07 -0.43429 83.82 -0.43429 83.82 -15.798 -7.07
4.68 -15.833 -8.76 -0.43488 82.07 -0.43488 82.07 -15.833 -8.76
4.71 -15.875 -10.44 -0.43525 80.31 -0.43525 80.31 -15.875 -10.44
4.74 -15.927 -12.13 -0.43542 78.55 -0.43542 78.55 -15.927 -12.13
4.77 -15.986 -13.81 -0.43539 76.79 -0.43539 76.79 -15.986 -13.81
4.8 -16.055 -15.49 -0.43516 75.03 -0.43516 75.03 -16.055 -15.49
4.83 -16.132 -17.17 -0.43474 73.27 -0.43474 73.27 -16.132 -17.17
4.86 -16.218 -18.86 -0.43415 71.51 -0.43415 71.51 -16.218 -18.86
4.89 -16.314 -20.53 -0.43338 69.75 -0.43338 69.75 -16.314 -20.53
4.92 -16.418 -22.21 -0.43245 67.99 -0.43245 67.99 -16.418 -22.21
4.95 -16.532 -23.89 -0.43136 66.23 -0.43136 66.23 -16.532 -23.89
4.98 -16.657 -25.56 -0.43014 64.46 -0.43014 64.46 -16.657 -25.56
5.01 -16.791 -27.24 -0.42878 62.69 -0.42878 62.69 -16.791 -27.24
5.04 -16.936 -28.90 -0.42729 60.93 -0.42729 60.93 -16.936 -28.90
5.07 -17.092 -30.57 -0.4257 59.16 -0.4257 59.16 -17.092 -30.57
5.1 -17.259 -32.24 -0.42402 57.39 -0.42402 57.39 -17.259 -32.24
5.13 -17.438 -33.90 -0.42225 55.62 -0.42225 55.62 -17.438 -33.90
5.16 -17.629 -35.55 -0.4204 53.84 -0.4204 53.84 -17.629 -35.55
5.19 -17.833 -37.20 -0.4185 52.07 -0.4185 52.07 -17.833 -37.20
5.22 -18.05 -38.85 -0.41655 50.30 -0.41655 50.30 -18.05 -38.85
5.25 -18.282 -40.49 -0.41457 48.52 -0.41457 48.52 -18.282 -40.49
5.28 -18.529 -42.13 -0.41258 46.74 -0.41258 46.74 -18.529 -42.13
5.31 -18.791 -43.75 -0.41058 44.96 -0.41058 44.96 -18.791 -43.75
5.34 -19.071 -45.37 -0.40859 43.18 -0.40859 43.18 -19.071 -45.37
5.37 -19.369 -46.98 -0.40662 41.40 -0.40662 41.40 -19.369 -46.98
5.4 -19.685 -48.57 -0.40469 39.61 -0.40469 39.61 -19.685 -48.57
5.43 -20.023 -50.15 -0.40281 37.83 -0.40281 37.83 -20.023 -50.15
5.46 -20.383 -51.72 -0.401 36.04 -0.401 36.04 -20.383 -51.72
5.49 -20.768 -53.26 -0.39926 34.25 -0.39926 34.25 -20.768 -53.26
5.52 -21.179 -54.79 -0.39761 32.46 -0.39761 32.46 -21.179 -54.79
5.55 -21.62 -56.28 -0.39607 30.67 -0.39607 30.67 -21.62 -56.28
5.58 -22.093 -57.75 -0.39464 28.88 -0.39464 28.88 -22.093 -57.75
5.61 -22.602 -59.17 -0.39334 27.08 -0.39334 27.08 -22.602 -59.17
5.64 -23.152 -60.55 -0.39218 25.29 -0.39218 25.29 -23.152 -60.55
5.67 -23.747 -61.87 -0.39117 23.49 -0.39117 23.49 -23.747 -61.87
5.7 -24.395 -63.12 -0.39031 21.69 -0.39031 21.69 -24.395 -63.12
5.73 -25.104 -64.28 -0.38963 19.90 -0.38963 19.90 -25.104 -64.28
5.76 -25.884 -65.32 -0.38912 18.10 -0.38912 18.10 -25.884 -65.32
5.79 -26.748 -66.20 -0.3888 16.30 -0.3888 16.30 -26.748 -66.20
5.82 -27.714 -66.86 -0.38867 14.50 -0.38867 14.50 -27.714 -66.86
5.85 -28.807 -67.22 -0.38874 12.70 -0.38874 12.70 -28.807 -67.22
5.88 -30.058 -67.14 -0.38902 10.89 -0.38902 10.89 -30.058 -67.14
5.91 -31.515 -66.36 -0.38951 9.09 -0.38951 9.09 -31.515 -66.36
5.94 -33.247 -64.44 -0.39021 7.29 -0.39021 7.29 -33.247 -64.44
5.97 -35.349 -60.46 -0.39114 5.49 -0.39114 5.49 -35.349 -60.46
6 -37.93 -52.30 -0.39228 3.68 -0.39228 3.68 -37.93 -52.30
