! yapnr Order 0 O0-M: O0-M A09 M1.4 30 (variant, family M1.4)
! stackup OSHPARK-4L-EM528, nominal parameters; geometry of the OSHPARK-4L-FR408HR design
! model: 2D quasi-static RLGC (Djordjevic-Sarkar, Huray roughness, Wheeler loss); generated by python -m yapnr.rf.coupons expected --stackup OSHPARK-4L-FR408HR --upload M
! reference planes 10 mm from each end; 50 ohm (from the M line's Zc)
# GHz S DB R 50
0.03 -43.28 -84.46 -0.0095237 -1.96 -0.0095237 -1.96 -43.28 -84.46
0.06 -37.021 -88.94 -0.014532 -3.88 -0.014532 -3.88 -37.021 -88.94
0.09 -33.404 -91.91 -0.019256 -5.79 -0.019256 -5.79 -33.404 -91.91
0.12 -30.86 -94.43 -0.024063 -7.71 -0.024063 -7.71 -30.86 -94.43
0.15 -28.9 -96.74 -0.029091 -9.61 -0.029091 -9.61 -28.9 -96.74
0.18 -27.31 -98.94 -0.034402 -11.52 -0.034402 -11.52 -27.31 -98.94
0.21 -25.976 -101.07 -0.040031 -13.42 -0.040031 -13.42 -25.976 -101.07
0.24 -24.828 -103.15 -0.045992 -15.32 -0.045992 -15.32 -24.828 -103.15
0.27 -23.825 -105.19 -0.052288 -17.22 -0.052288 -17.22 -23.825 -105.19
0.3 -22.935 -107.20 -0.058917 -19.11 -0.058917 -19.11 -22.935 -107.20
0.33 -22.137 -109.20 -0.065871 -21.01 -0.065871 -21.01 -22.137 -109.20
0.36 -21.417 -111.17 -0.073136 -22.90 -0.073136 -22.90 -21.417 -111.17
0.39 -20.761 -113.14 -0.080699 -24.78 -0.080699 -24.78 -20.761 -113.14
0.42 -20.162 -115.09 -0.08854 -26.67 -0.08854 -26.67 -20.162 -115.09
0.45 -19.611 -117.02 -0.096639 -28.55 -0.096639 -28.55 -19.611 -117.02
0.48 -19.102 -118.95 -0.10497 -30.43 -0.10497 -30.43 -19.102 -118.95
0.51 -18.632 -120.87 -0.11352 -32.30 -0.11352 -32.30 -18.632 -120.87
0.54 -18.195 -122.79 -0.12226 -34.18 -0.12226 -34.18 -18.195 -122.79
0.57 -17.79 -124.69 -0.13115 -36.04 -0.13115 -36.04 -17.79 -124.69
0.6 -17.411 -126.59 -0.14018 -37.91 -0.14018 -37.91 -17.411 -126.59
0.63 -17.059 -128.48 -0.14932 -39.77 -0.14932 -39.77 -17.059 -128.48
0.66 -16.729 -130.36 -0.15853 -41.63 -0.15853 -41.63 -16.729 -130.36
0.69 -16.422 -132.24 -0.1678 -43.49 -0.1678 -43.49 -16.422 -132.24
0.72 -16.134 -134.12 -0.17708 -45.34 -0.17708 -45.34 -16.134 -134.12
0.75 -15.865 -135.98 -0.18636 -47.19 -0.18636 -47.19 -15.865 -135.98
0.78 -15.613 -137.85 -0.1956 -49.04 -0.1956 -49.04 -15.613 -137.85
0.81 -15.378 -139.70 -0.20477 -50.88 -0.20477 -50.88 -15.378 -139.70
0.84 -15.158 -141.56 -0.21385 -52.72 -0.21385 -52.72 -15.158 -141.56
0.87 -14.953 -143.40 -0.22281 -54.56 -0.22281 -54.56 -14.953 -143.40
0.9 -14.761 -145.25 -0.23161 -56.39 -0.23161 -56.39 -14.761 -145.25
0.93 -14.583 -147.08 -0.24024 -58.22 -0.24024 -58.22 -14.583 -147.08
0.96 -14.418 -148.92 -0.24867 -60.05 -0.24867 -60.05 -14.418 -148.92
0.99 -14.264 -150.75 -0.25688 -61.88 -0.25688 -61.88 -14.264 -150.75
1.02 -14.123 -152.57 -0.26483 -63.70 -0.26483 -63.70 -14.123 -152.57
1.05 -13.992 -154.40 -0.27251 -65.52 -0.27251 -65.52 -13.992 -154.40
1.08 -13.873 -156.22 -0.27989 -67.34 -0.27989 -67.34 -13.873 -156.22
1.11 -13.763 -158.03 -0.28696 -69.15 -0.28696 -69.15 -13.763 -158.03
1.14 -13.664 -159.84 -0.29369 -70.97 -0.29369 -70.97 -13.664 -159.84
1.17 -13.575 -161.65 -0.30007 -72.78 -0.30007 -72.78 -13.575 -161.65
1.2 -13.496 -163.46 -0.30609 -74.59 -0.30609 -74.59 -13.496 -163.46
1.23 -13.426 -165.26 -0.31171 -76.40 -0.31171 -76.40 -13.426 -165.26
1.26 -13.365 -167.06 -0.31694 -78.20 -0.31694 -78.20 -13.365 -167.06
1.29 -13.313 -168.86 -0.32177 -80.01 -0.32177 -80.01 -13.313 -168.86
1.32 -13.27 -170.65 -0.32617 -81.81 -0.32617 -81.81 -13.27 -170.65
1.35 -13.236 -172.45 -0.33014 -83.62 -0.33014 -83.62 -13.236 -172.45
1.38 -13.211 -174.24 -0.33369 -85.42 -0.33369 -85.42 -13.211 -174.24
1.41 -13.195 -176.03 -0.33679 -87.22 -0.33679 -87.22 -13.195 -176.03
1.44 -13.187 -177.82 -0.33944 -89.02 -0.33944 -89.02 -13.187 -177.82
1.47 -13.188 -179.60 -0.34165 -90.82 -0.34165 -90.82 -13.188 -179.60
1.5 -13.197 178.61 -0.34342 -92.62 -0.34342 -92.62 -13.197 178.61
1.53 -13.215 176.83 -0.34474 -94.42 -0.34474 -94.42 -13.215 176.83
1.56 -13.242 175.04 -0.34562 -96.22 -0.34562 -96.22 -13.242 175.04
1.59 -13.277 173.26 -0.34606 -98.03 -0.34606 -98.03 -13.277 173.26
1.62 -13.321 171.48 -0.34607 -99.83 -0.34607 -99.83 -13.321 171.48
1.65 -13.374 169.70 -0.34566 -101.63 -0.34566 -101.63 -13.374 169.70
1.68 -13.437 167.92 -0.34484 -103.44 -0.34484 -103.44 -13.437 167.92
1.71 -13.508 166.14 -0.34361 -105.24 -0.34361 -105.24 -13.508 166.14
1.74 -13.588 164.35 -0.342 -107.05 -0.342 -107.05 -13.588 164.35
1.77 -13.679 162.58 -0.34001 -108.86 -0.34001 -108.86 -13.679 162.58
1.8 -13.778 160.80 -0.33767 -110.67 -0.33767 -110.67 -13.778 160.80
1.83 -13.888 159.02 -0.33498 -112.48 -0.33498 -112.48 -13.888 159.02
1.86 -14.009 157.24 -0.33197 -114.29 -0.33197 -114.29 -14.009 157.24
1.89 -14.14 155.46 -0.32866 -116.11 -0.32866 -116.11 -14.14 155.46
1.92 -14.281 153.68 -0.32507 -117.93 -0.32507 -117.93 -14.281 153.68
1.95 -14.435 151.90 -0.32121 -119.75 -0.32121 -119.75 -14.435 151.90
1.98 -14.6 150.12 -0.31712 -121.57 -0.31712 -121.57 -14.6 150.12
2.01 -14.777 148.34 -0.31282 -123.40 -0.31282 -123.40 -14.777 148.34
2.04 -14.968 146.57 -0.30833 -125.22 -0.30833 -125.22 -14.968 146.57
2.07 -15.172 144.79 -0.30368 -127.05 -0.30368 -127.05 -15.172 144.79
2.1 -15.39 143.02 -0.2989 -128.89 -0.2989 -128.89 -15.39 143.02
2.13 -15.623 141.25 -0.29401 -130.72 -0.29401 -130.72 -15.623 141.25
2.16 -15.873 139.48 -0.28903 -132.56 -0.28903 -132.56 -15.873 139.48
2.19 -16.139 137.71 -0.28401 -134.40 -0.28401 -134.40 -16.139 137.71
2.22 -16.423 135.94 -0.27896 -136.25 -0.27896 -136.25 -16.423 135.94
2.25 -16.726 134.18 -0.27392 -138.10 -0.27392 -138.10 -16.726 134.18
2.28 -17.051 132.43 -0.26892 -139.95 -0.26892 -139.95 -17.051 132.43
2.31 -17.397 130.68 -0.26398 -141.80 -0.26398 -141.80 -17.397 130.68
2.34 -17.768 128.94 -0.25912 -143.66 -0.25912 -143.66 -17.768 128.94
2.37 -18.165 127.21 -0.25439 -145.52 -0.25439 -145.52 -18.165 127.21
2.4 -18.592 125.49 -0.24981 -147.38 -0.24981 -147.38 -18.592 125.49
2.43 -19.051 123.78 -0.2454 -149.24 -0.2454 -149.24 -19.051 123.78
2.46 -19.545 122.10 -0.24119 -151.11 -0.24119 -151.11 -19.545 122.10
2.49 -20.079 120.43 -0.23721 -152.98 -0.23721 -152.98 -20.079 120.43
2.52 -20.659 118.79 -0.23348 -154.85 -0.23348 -154.85 -20.659 118.79
2.55 -21.291 117.19 -0.23003 -156.73 -0.23003 -156.73 -21.291 117.19
2.58 -21.982 115.63 -0.22687 -158.60 -0.22687 -158.60 -21.982 115.63
2.61 -22.744 114.12 -0.22404 -160.48 -0.22404 -160.48 -22.744 114.12
2.64 -23.59 112.70 -0.22154 -162.36 -0.22154 -162.36 -23.59 112.70
2.67 -24.537 111.38 -0.2194 -164.24 -0.2194 -164.24 -24.537 111.38
2.7 -25.61 110.21 -0.21763 -166.13 -0.21763 -166.13 -25.61 110.21
2.73 -26.844 109.25 -0.21626 -168.01 -0.21626 -168.01 -26.844 109.25
2.76 -28.29 108.63 -0.21529 -169.90 -0.21529 -169.90 -28.29 108.63
2.79 -30.031 108.58 -0.21473 -171.79 -0.21473 -171.79 -30.031 108.58
2.82 -32.204 109.58 -0.2146 -173.67 -0.2146 -173.67 -32.204 109.58
2.85 -35.068 112.85 -0.2149 -175.56 -0.2149 -175.56 -35.068 112.85
2.88 -39.128 122.48 -0.21564 -177.45 -0.21564 -177.45 -39.128 122.48
2.91 -44.486 156.79 -0.21682 -179.34 -0.21682 -179.34 -44.486 156.79
2.94 -42.869 -139.82 -0.21845 178.77 -0.21845 178.77 -42.869 -139.82
2.97 -37.69 -117.18 -0.22052 176.88 -0.22052 176.88 -37.69 -117.18
3 -34.082 -110.40 -0.22304 174.99 -0.22304 174.99 -34.082 -110.40
3.03 -31.477 -108.06 -0.226 173.10 -0.226 173.10 -31.477 -108.06
3.06 -29.462 -107.47 -0.22939 171.21 -0.22939 171.21 -29.462 -107.47
3.09 -27.827 -107.73 -0.2332 169.32 -0.2332 169.32 -27.827 -107.73
3.12 -26.457 -108.47 -0.23743 167.44 -0.23743 167.44 -26.457 -108.47
3.15 -25.281 -109.50 -0.24207 165.55 -0.24207 165.55 -25.281 -109.50
3.18 -24.254 -110.72 -0.24709 163.67 -0.24709 163.67 -24.254 -110.72
3.21 -23.344 -112.07 -0.2525 161.78 -0.2525 161.78 -23.344 -112.07
3.24 -22.529 -113.52 -0.25826 159.90 -0.25826 159.90 -22.529 -113.52
3.27 -21.793 -115.03 -0.26436 158.02 -0.26436 158.02 -21.793 -115.03
3.3 -21.124 -116.60 -0.27079 156.15 -0.27079 156.15 -21.124 -116.60
3.33 -20.513 -118.21 -0.27751 154.27 -0.27751 154.27 -20.513 -118.21
3.36 -19.951 -119.85 -0.28452 152.40 -0.28452 152.40 -19.951 -119.85
3.39 -19.432 -121.52 -0.29178 150.53 -0.29178 150.53 -19.432 -121.52
3.42 -18.952 -123.20 -0.29927 148.66 -0.29927 148.66 -18.952 -123.20
3.45 -18.507 -124.90 -0.30696 146.80 -0.30696 146.80 -18.507 -124.90
3.48 -18.093 -126.62 -0.31484 144.93 -0.31484 144.93 -18.093 -126.62
3.51 -17.707 -128.34 -0.32287 143.08 -0.32287 143.08 -17.707 -128.34
3.54 -17.347 -130.07 -0.33102 141.22 -0.33102 141.22 -17.347 -130.07
3.57 -17.011 -131.81 -0.33928 139.36 -0.33928 139.36 -17.011 -131.81
3.6 -16.696 -133.55 -0.3476 137.51 -0.3476 137.51 -16.696 -133.55
3.63 -16.402 -135.30 -0.35597 135.66 -0.35597 135.66 -16.402 -135.30
3.66 -16.127 -137.05 -0.36435 133.82 -0.36435 133.82 -16.127 -137.05
3.69 -15.869 -138.80 -0.37271 131.98 -0.37271 131.98 -15.869 -138.80
3.72 -15.628 -140.56 -0.38104 130.14 -0.38104 130.14 -15.628 -140.56
3.75 -15.403 -142.32 -0.3893 128.30 -0.3893 128.30 -15.403 -142.32
3.78 -15.192 -144.07 -0.39746 126.46 -0.39746 126.46 -15.192 -144.07
3.81 -14.995 -145.83 -0.4055 124.63 -0.4055 124.63 -14.995 -145.83
3.84 -14.812 -147.59 -0.4134 122.80 -0.4134 122.80 -14.812 -147.59
3.87 -14.641 -149.35 -0.42112 120.98 -0.42112 120.98 -14.641 -149.35
3.9 -14.483 -151.10 -0.42864 119.15 -0.42864 119.15 -14.483 -151.10
3.93 -14.336 -152.86 -0.43594 117.33 -0.43594 117.33 -14.336 -152.86
3.96 -14.201 -154.61 -0.443 115.51 -0.443 115.51 -14.201 -154.61
3.99 -14.077 -156.37 -0.4498 113.69 -0.4498 113.69 -14.077 -156.37
4.02 -13.963 -158.12 -0.45631 111.88 -0.45631 111.88 -13.963 -158.12
4.05 -13.859 -159.88 -0.46251 110.07 -0.46251 110.07 -13.859 -159.88
4.08 -13.765 -161.63 -0.4684 108.25 -0.4684 108.25 -13.765 -161.63
4.11 -13.681 -163.38 -0.47395 106.44 -0.47395 106.44 -13.681 -163.38
4.14 -13.607 -165.13 -0.47914 104.64 -0.47914 104.64 -13.607 -165.13
4.17 -13.541 -166.88 -0.48397 102.83 -0.48397 102.83 -13.541 -166.88
4.2 -13.485 -168.62 -0.48842 101.02 -0.48842 101.02 -13.485 -168.62
4.23 -13.438 -170.37 -0.49248 99.22 -0.49248 99.22 -13.438 -170.37
4.26 -13.399 -172.12 -0.49615 97.42 -0.49615 97.42 -13.399 -172.12
4.29 -13.37 -173.86 -0.4994 95.61 -0.4994 95.61 -13.37 -173.86
4.32 -13.349 -175.60 -0.50225 93.81 -0.50225 93.81 -13.349 -175.60
4.35 -13.336 -177.35 -0.50468 92.01 -0.50468 92.01 -13.336 -177.35
4.38 -13.333 -179.09 -0.50669 90.21 -0.50669 90.21 -13.333 -179.09
4.41 -13.338 179.17 -0.50828 88.41 -0.50828 88.41 -13.338 179.17
4.44 -13.351 177.43 -0.50945 86.60 -0.50945 86.60 -13.351 177.43
4.47 -13.373 175.69 -0.5102 84.80 -0.5102 84.80 -13.373 175.69
4.5 -13.404 173.95 -0.51054 83.00 -0.51054 83.00 -13.404 173.95
4.53 -13.443 172.21 -0.51047 81.20 -0.51047 81.20 -13.443 172.21
4.56 -13.491 170.47 -0.51 79.39 -0.51 79.39 -13.491 170.47
4.59 -13.549 168.73 -0.50914 77.59 -0.50914 77.59 -13.549 168.73
4.62 -13.615 167.00 -0.50789 75.78 -0.50789 75.78 -13.615 167.00
4.65 -13.69 165.26 -0.50627 73.97 -0.50627 73.97 -13.69 165.26
4.68 -13.775 163.52 -0.50429 72.17 -0.50429 72.17 -13.775 163.52
4.71 -13.87 161.79 -0.50197 70.36 -0.50197 70.36 -13.87 161.79
4.74 -13.974 160.06 -0.49931 68.54 -0.49931 68.54 -13.974 160.06
4.77 -14.089 158.32 -0.49635 66.73 -0.49635 66.73 -14.089 158.32
4.8 -14.213 156.59 -0.49309 64.91 -0.49309 64.91 -14.213 156.59
4.83 -14.349 154.86 -0.48956 63.10 -0.48956 63.10 -14.349 154.86
4.86 -14.496 153.13 -0.48577 61.27 -0.48577 61.27 -14.496 153.13
4.89 -14.654 151.40 -0.48176 59.45 -0.48176 59.45 -14.654 151.40
4.92 -14.825 149.68 -0.47753 57.63 -0.47753 57.63 -14.825 149.68
4.95 -15.008 147.95 -0.47312 55.80 -0.47312 55.80 -15.008 147.95
4.98 -15.204 146.23 -0.46854 53.97 -0.46854 53.97 -15.204 146.23
5.01 -15.414 144.52 -0.46383 52.14 -0.46383 52.14 -15.414 144.52
5.04 -15.639 142.80 -0.45901 50.30 -0.45901 50.30 -15.639 142.80
5.07 -15.879 141.10 -0.45411 48.46 -0.45411 48.46 -15.879 141.10
5.1 -16.135 139.39 -0.44915 46.62 -0.44915 46.62 -16.135 139.39
5.13 -16.408 137.70 -0.44415 44.78 -0.44415 44.78 -16.408 137.70
5.16 -16.7 136.01 -0.43916 42.93 -0.43916 42.93 -16.7 136.01
5.19 -17.012 134.34 -0.43419 41.08 -0.43419 41.08 -17.012 134.34
5.22 -17.345 132.67 -0.42927 39.23 -0.42927 39.23 -17.345 132.67
5.25 -17.701 131.02 -0.42443 37.37 -0.42443 37.37 -17.701 131.02
5.28 -18.082 129.39 -0.4197 35.51 -0.4197 35.51 -18.082 129.39
5.31 -18.491 127.77 -0.4151 33.65 -0.4151 33.65 -18.491 127.77
5.34 -18.929 126.18 -0.41066 31.79 -0.41066 31.79 -18.929 126.18
5.37 -19.401 124.62 -0.4064 29.93 -0.4064 29.93 -19.401 124.62
5.4 -19.91 123.09 -0.40235 28.06 -0.40235 28.06 -19.91 123.09
5.43 -20.461 121.61 -0.39854 26.19 -0.39854 26.19 -20.461 121.61
5.46 -21.059 120.17 -0.39499 24.31 -0.39499 24.31 -21.059 120.17
5.49 -21.711 118.81 -0.39171 22.44 -0.39171 22.44 -21.711 118.81
5.52 -22.426 117.54 -0.38873 20.56 -0.38873 20.56 -22.426 117.54
5.55 -23.214 116.37 -0.38607 18.68 -0.38607 18.68 -23.214 116.37
5.58 -24.09 115.36 -0.38375 16.80 -0.38375 16.80 -24.09 115.36
5.61 -25.073 114.56 -0.38179 14.92 -0.38179 14.92 -25.073 114.56
5.64 -26.188 114.05 -0.38019 13.03 -0.38019 13.03 -26.188 114.05
5.67 -27.471 113.97 -0.37898 11.15 -0.37898 11.15 -27.471 113.97
5.7 -28.975 114.59 -0.37817 9.26 -0.37817 9.26 -28.975 114.59
5.73 -30.776 116.36 -0.37776 7.38 -0.37776 7.38 -30.776 116.36
5.76 -32.991 120.30 -0.37776 5.49 -0.37776 5.49 -32.991 120.30
5.79 -35.759 128.78 -0.37819 3.60 -0.37819 3.60 -35.759 128.78
5.82 -38.958 147.87 -0.37904 1.71 -0.37904 1.71 -38.958 147.87
5.85 -40.572 -175.49 -0.38032 -0.18 -0.38032 -0.18 -40.572 -175.49
5.88 -38.321 -142.02 -0.38203 -2.07 -0.38203 -2.07 -38.321 -142.02
5.91 -35.152 -125.86 -0.38417 -3.96 -0.38417 -3.96 -35.152 -125.86
5.94 -32.508 -118.62 -0.38673 -5.85 -0.38673 -5.85 -32.508 -118.62
5.97 -30.392 -115.25 -0.38972 -7.74 -0.38972 -7.74 -30.392 -115.25
6 -28.662 -113.77 -0.39312 -9.62 -0.39312 -9.62 -28.662 -113.77
