! yapnr rf coupon A: A02 P L2.5 (line, family P)
! stackup JLC04161H-7628, nominal parameters; reference planes 10 mm from each end; 50 ohm (renormalized from the line's Zc)
! model: 2D quasi-static RLGC (Djordjevic-Sarkar, Huray roughness, Wheeler loss); generated by python -m yapnr.rf.coupons expected
# GHz S DB R 50
0.1 -75.58 34.25 -0.00254 -0.55 -0.00254 -0.55 -75.58 34.25
0.2 -73.67 42.13 -0.004019 -1.10 -0.004019 -1.10 -73.67 42.13
0.3 -72.21 51.44 -0.00534 -1.64 -0.00534 -1.64 -72.21 51.44
0.4 -70.75 60.27 -0.00658 -2.18 -0.00658 -2.18 -70.75 60.27
0.5 -69.25 67.75 -0.007768 -2.72 -0.007768 -2.72 -69.25 67.75
0.6 -67.76 73.70 -0.008922 -3.25 -0.008922 -3.25 -67.76 73.70
0.7 -66.34 78.30 -0.01005 -3.79 -0.01005 -3.79 -66.34 78.30
0.8 -65.01 81.81 -0.01115 -4.33 -0.01115 -4.33 -65.01 81.81
0.9 -63.77 84.48 -0.01224 -4.86 -0.01224 -4.86 -63.77 84.48
1 -62.62 86.50 -0.01332 -5.40 -0.01332 -5.40 -62.62 86.50
1.1 -61.56 88.04 -0.01438 -5.93 -0.01438 -5.93 -61.56 88.04
1.2 -60.57 89.20 -0.01543 -6.47 -0.01543 -6.47 -60.57 89.20
1.3 -59.66 90.06 -0.01647 -7.00 -0.01647 -7.00 -59.66 90.06
1.4 -58.8 90.70 -0.0175 -7.54 -0.0175 -7.54 -58.8 90.70
1.5 -58.01 91.16 -0.01853 -8.07 -0.01853 -8.07 -58.01 91.16
1.6 -57.26 91.46 -0.01955 -8.60 -0.01955 -8.60 -57.26 91.46
1.7 -56.55 91.65 -0.02057 -9.14 -0.02057 -9.14 -56.55 91.65
1.8 -55.89 91.74 -0.02157 -9.67 -0.02157 -9.67 -55.89 91.74
1.9 -55.26 91.74 -0.02258 -10.20 -0.02258 -10.20 -55.26 91.74
2 -54.67 91.68 -0.02358 -10.74 -0.02358 -10.74 -54.67 91.68
2.1 -54.1 91.57 -0.02457 -11.27 -0.02457 -11.27 -54.1 91.57
2.2 -53.56 91.40 -0.02556 -11.80 -0.02556 -11.80 -53.56 91.40
2.3 -53.05 91.19 -0.02655 -12.33 -0.02655 -12.33 -53.05 91.19
2.4 -52.56 90.95 -0.02753 -12.87 -0.02753 -12.87 -52.56 90.95
2.5 -52.09 90.67 -0.02851 -13.40 -0.02851 -13.40 -52.09 90.67
2.6 -51.64 90.37 -0.02949 -13.93 -0.02949 -13.93 -51.64 90.37
2.7 -51.21 90.05 -0.03046 -14.46 -0.03046 -14.46 -51.21 90.05
2.8 -50.8 89.70 -0.03143 -15.00 -0.03143 -15.00 -50.8 89.70
2.9 -50.4 89.34 -0.0324 -15.53 -0.0324 -15.53 -50.4 89.34
3 -50.01 88.96 -0.03336 -16.06 -0.03336 -16.06 -50.01 88.96
3.1 -49.64 88.57 -0.03433 -16.59 -0.03433 -16.59 -49.64 88.57
3.2 -49.28 88.16 -0.03529 -17.12 -0.03529 -17.12 -49.28 88.16
3.3 -48.94 87.75 -0.03625 -17.66 -0.03625 -17.66 -48.94 87.75
3.4 -48.6 87.32 -0.0372 -18.19 -0.0372 -18.19 -48.6 87.32
3.5 -48.28 86.89 -0.03816 -18.72 -0.03816 -18.72 -48.28 86.89
3.6 -47.96 86.45 -0.03911 -19.25 -0.03911 -19.25 -47.96 86.45
3.7 -47.66 86.00 -0.04006 -19.78 -0.04006 -19.78 -47.66 86.00
3.8 -47.36 85.54 -0.04101 -20.31 -0.04101 -20.31 -47.36 85.54
3.9 -47.07 85.08 -0.04195 -20.85 -0.04195 -20.85 -47.07 85.08
4 -46.79 84.61 -0.0429 -21.38 -0.0429 -21.38 -46.79 84.61
4.1 -46.52 84.14 -0.04384 -21.91 -0.04384 -21.91 -46.52 84.14
4.2 -46.26 83.66 -0.04478 -22.44 -0.04478 -22.44 -46.26 83.66
4.3 -46 83.18 -0.04572 -22.97 -0.04572 -22.97 -46 83.18
4.4 -45.75 82.69 -0.04666 -23.50 -0.04666 -23.50 -45.75 82.69
4.5 -45.51 82.20 -0.0476 -24.03 -0.0476 -24.03 -45.51 82.20
4.6 -45.27 81.71 -0.04854 -24.56 -0.04854 -24.56 -45.27 81.71
4.7 -45.04 81.22 -0.04947 -25.09 -0.04947 -25.09 -45.04 81.22
4.8 -44.81 80.72 -0.05041 -25.63 -0.05041 -25.63 -44.81 80.72
4.9 -44.59 80.22 -0.05134 -26.16 -0.05134 -26.16 -44.59 80.22
5 -44.38 79.72 -0.05227 -26.69 -0.05227 -26.69 -44.38 79.72
5.1 -44.17 79.22 -0.0532 -27.22 -0.0532 -27.22 -44.17 79.22
5.2 -43.96 78.71 -0.05413 -27.75 -0.05413 -27.75 -43.96 78.71
5.3 -43.76 78.20 -0.05506 -28.28 -0.05506 -28.28 -43.76 78.20
5.4 -43.56 77.69 -0.05598 -28.81 -0.05598 -28.81 -43.56 77.69
5.5 -43.37 77.18 -0.05691 -29.34 -0.05691 -29.34 -43.37 77.18
5.6 -43.18 76.67 -0.05783 -29.87 -0.05783 -29.87 -43.18 76.67
5.7 -43 76.16 -0.05876 -30.40 -0.05876 -30.40 -43 76.16
5.8 -42.82 75.64 -0.05968 -30.93 -0.05968 -30.93 -42.82 75.64
5.9 -42.64 75.13 -0.0606 -31.47 -0.0606 -31.47 -42.64 75.13
6 -42.47 74.61 -0.06152 -32.00 -0.06152 -32.00 -42.47 74.61
6.1 -42.3 74.09 -0.06244 -32.53 -0.06244 -32.53 -42.3 74.09
6.2 -42.13 73.57 -0.06336 -33.06 -0.06336 -33.06 -42.13 73.57
6.3 -41.97 73.05 -0.06428 -33.59 -0.06428 -33.59 -41.97 73.05
6.4 -41.81 72.53 -0.06519 -34.12 -0.06519 -34.12 -41.81 72.53
6.5 -41.65 72.01 -0.06611 -34.65 -0.06611 -34.65 -41.65 72.01
6.6 -41.5 71.49 -0.06703 -35.18 -0.06703 -35.18 -41.5 71.49
6.7 -41.35 70.97 -0.06794 -35.71 -0.06794 -35.71 -41.35 70.97
6.8 -41.2 70.45 -0.06886 -36.24 -0.06886 -36.24 -41.2 70.45
6.9 -41.06 69.92 -0.06977 -36.77 -0.06977 -36.77 -41.06 69.92
7 -40.92 69.40 -0.07068 -37.30 -0.07068 -37.30 -40.92 69.40
7.1 -40.78 68.87 -0.07159 -37.83 -0.07159 -37.83 -40.78 68.87
7.2 -40.64 68.35 -0.07251 -38.36 -0.07251 -38.36 -40.64 68.35
7.3 -40.51 67.82 -0.07342 -38.89 -0.07342 -38.89 -40.51 67.82
7.4 -40.37 67.30 -0.07433 -39.43 -0.07433 -39.43 -40.37 67.30
7.5 -40.24 66.77 -0.07524 -39.96 -0.07524 -39.96 -40.24 66.77
7.6 -40.12 66.24 -0.07614 -40.49 -0.07614 -40.49 -40.12 66.24
7.7 -39.99 65.72 -0.07705 -41.02 -0.07705 -41.02 -39.99 65.72
7.8 -39.87 65.19 -0.07796 -41.55 -0.07796 -41.55 -39.87 65.19
7.9 -39.75 64.66 -0.07887 -42.08 -0.07887 -42.08 -39.75 64.66
8 -39.63 64.13 -0.07977 -42.61 -0.07977 -42.61 -39.63 64.13
8.1 -39.52 63.60 -0.08068 -43.14 -0.08068 -43.14 -39.52 63.60
8.2 -39.4 63.08 -0.08158 -43.67 -0.08158 -43.67 -39.4 63.08
8.3 -39.29 62.55 -0.08249 -44.20 -0.08249 -44.20 -39.29 62.55
8.4 -39.18 62.02 -0.08339 -44.73 -0.08339 -44.73 -39.18 62.02
8.5 -39.07 61.49 -0.08429 -45.26 -0.08429 -45.26 -39.07 61.49
8.6 -38.97 60.96 -0.0852 -45.79 -0.0852 -45.79 -38.97 60.96
8.7 -38.86 60.43 -0.0861 -46.32 -0.0861 -46.32 -38.86 60.43
8.8 -38.76 59.90 -0.087 -46.85 -0.087 -46.85 -38.76 59.90
8.9 -38.66 59.37 -0.0879 -47.39 -0.0879 -47.39 -38.66 59.37
9 -38.56 58.84 -0.0888 -47.92 -0.0888 -47.92 -38.56 58.84
9.1 -38.46 58.31 -0.0897 -48.45 -0.0897 -48.45 -38.46 58.31
9.2 -38.37 57.78 -0.0906 -48.98 -0.0906 -48.98 -38.37 57.78
9.3 -38.27 57.25 -0.0915 -49.51 -0.0915 -49.51 -38.27 57.25
9.4 -38.18 56.72 -0.0924 -50.04 -0.0924 -50.04 -38.18 56.72
9.5 -38.09 56.19 -0.0933 -50.57 -0.0933 -50.57 -38.09 56.19
9.6 -38 55.66 -0.0942 -51.10 -0.0942 -51.10 -38 55.66
9.7 -37.91 55.13 -0.09509 -51.63 -0.09509 -51.63 -37.91 55.13
9.8 -37.82 54.60 -0.09599 -52.16 -0.09599 -52.16 -37.82 54.60
9.9 -37.74 54.07 -0.09689 -52.69 -0.09689 -52.69 -37.74 54.07
10 -37.66 53.53 -0.09778 -53.22 -0.09778 -53.22 -37.66 53.53
10.1 -37.57 53.00 -0.09868 -53.75 -0.09868 -53.75 -37.57 53.00
10.2 -37.49 52.47 -0.09957 -54.29 -0.09957 -54.29 -37.49 52.47
10.3 -37.41 51.94 -0.1005 -54.82 -0.1005 -54.82 -37.41 51.94
10.4 -37.34 51.41 -0.1014 -55.35 -0.1014 -55.35 -37.34 51.41
10.5 -37.26 50.88 -0.1023 -55.88 -0.1023 -55.88 -37.26 50.88
10.6 -37.19 50.35 -0.1031 -56.41 -0.1031 -56.41 -37.19 50.35
10.7 -37.11 49.82 -0.104 -56.94 -0.104 -56.94 -37.11 49.82
10.8 -37.04 49.29 -0.1049 -57.47 -0.1049 -57.47 -37.04 49.29
10.9 -36.97 48.75 -0.1058 -58.00 -0.1058 -58.00 -36.97 48.75
11 -36.9 48.22 -0.1067 -58.53 -0.1067 -58.53 -36.9 48.22
11.1 -36.83 47.69 -0.1076 -59.06 -0.1076 -59.06 -36.83 47.69
11.2 -36.76 47.16 -0.1085 -59.59 -0.1085 -59.59 -36.76 47.16
11.3 -36.7 46.63 -0.1094 -60.13 -0.1094 -60.13 -36.7 46.63
11.4 -36.63 46.10 -0.1103 -60.66 -0.1103 -60.66 -36.63 46.10
11.5 -36.57 45.57 -0.1112 -61.19 -0.1112 -61.19 -36.57 45.57
11.6 -36.51 45.03 -0.1121 -61.72 -0.1121 -61.72 -36.51 45.03
11.7 -36.44 44.50 -0.1129 -62.25 -0.1129 -62.25 -36.44 44.50
11.8 -36.38 43.97 -0.1138 -62.78 -0.1138 -62.78 -36.38 43.97
11.9 -36.32 43.44 -0.1147 -63.31 -0.1147 -63.31 -36.32 43.44
12 -36.27 42.91 -0.1156 -63.84 -0.1156 -63.84 -36.27 42.91
12.1 -36.21 42.38 -0.1165 -64.37 -0.1165 -64.37 -36.21 42.38
12.2 -36.15 41.85 -0.1174 -64.91 -0.1174 -64.91 -36.15 41.85
12.3 -36.1 41.31 -0.1183 -65.44 -0.1183 -65.44 -36.1 41.31
12.4 -36.05 40.78 -0.1191 -65.97 -0.1191 -65.97 -36.05 40.78
12.5 -35.99 40.25 -0.12 -66.50 -0.12 -66.50 -35.99 40.25
12.6 -35.94 39.72 -0.1209 -67.03 -0.1209 -67.03 -35.94 39.72
12.7 -35.89 39.19 -0.1218 -67.56 -0.1218 -67.56 -35.89 39.19
12.8 -35.84 38.66 -0.1227 -68.09 -0.1227 -68.09 -35.84 38.66
12.9 -35.79 38.13 -0.1236 -68.63 -0.1236 -68.63 -35.79 38.13
13 -35.75 37.60 -0.1244 -69.16 -0.1244 -69.16 -35.75 37.60
13.1 -35.7 37.06 -0.1253 -69.69 -0.1253 -69.69 -35.7 37.06
13.2 -35.66 36.53 -0.1262 -70.22 -0.1262 -70.22 -35.66 36.53
13.3 -35.61 36.00 -0.1271 -70.75 -0.1271 -70.75 -35.61 36.00
13.4 -35.57 35.47 -0.128 -71.28 -0.128 -71.28 -35.57 35.47
13.5 -35.53 34.94 -0.1288 -71.81 -0.1288 -71.81 -35.53 34.94
13.6 -35.48 34.41 -0.1297 -72.35 -0.1297 -72.35 -35.48 34.41
13.7 -35.44 33.88 -0.1306 -72.88 -0.1306 -72.88 -35.44 33.88
13.8 -35.4 33.35 -0.1315 -73.41 -0.1315 -73.41 -35.4 33.35
13.9 -35.37 32.82 -0.1324 -73.94 -0.1324 -73.94 -35.37 32.82
14 -35.33 32.28 -0.1332 -74.47 -0.1332 -74.47 -35.33 32.28
14.1 -35.29 31.75 -0.1341 -75.00 -0.1341 -75.00 -35.29 31.75
14.2 -35.26 31.22 -0.135 -75.54 -0.135 -75.54 -35.26 31.22
14.3 -35.22 30.69 -0.1359 -76.07 -0.1359 -76.07 -35.22 30.69
14.4 -35.19 30.16 -0.1367 -76.60 -0.1367 -76.60 -35.19 30.16
14.5 -35.15 29.63 -0.1376 -77.13 -0.1376 -77.13 -35.15 29.63
14.6 -35.12 29.10 -0.1385 -77.66 -0.1385 -77.66 -35.12 29.10
14.7 -35.09 28.57 -0.1394 -78.19 -0.1394 -78.19 -35.09 28.57
14.8 -35.06 28.04 -0.1402 -78.73 -0.1402 -78.73 -35.06 28.04
14.9 -35.03 27.51 -0.1411 -79.26 -0.1411 -79.26 -35.03 27.51
15 -35 26.98 -0.142 -79.79 -0.142 -79.79 -35 26.98
15.1 -34.98 26.45 -0.1429 -80.32 -0.1429 -80.32 -34.98 26.45
15.2 -34.95 25.92 -0.1437 -80.85 -0.1437 -80.85 -34.95 25.92
15.3 -34.92 25.39 -0.1446 -81.39 -0.1446 -81.39 -34.92 25.39
15.4 -34.9 24.86 -0.1455 -81.92 -0.1455 -81.92 -34.9 24.86
15.5 -34.87 24.33 -0.1464 -82.45 -0.1464 -82.45 -34.87 24.33
15.6 -34.85 23.80 -0.1472 -82.98 -0.1472 -82.98 -34.85 23.80
15.7 -34.83 23.27 -0.1481 -83.51 -0.1481 -83.51 -34.83 23.27
15.8 -34.81 22.74 -0.149 -84.05 -0.149 -84.05 -34.81 22.74
15.9 -34.79 22.21 -0.1498 -84.58 -0.1498 -84.58 -34.79 22.21
16 -34.77 21.68 -0.1507 -85.11 -0.1507 -85.11 -34.77 21.68
16.1 -34.75 21.15 -0.1516 -85.64 -0.1516 -85.64 -34.75 21.15
16.2 -34.73 20.62 -0.1524 -86.18 -0.1524 -86.18 -34.73 20.62
16.3 -34.71 20.09 -0.1533 -86.71 -0.1533 -86.71 -34.71 20.09
16.4 -34.7 19.56 -0.1542 -87.24 -0.1542 -87.24 -34.7 19.56
16.5 -34.68 19.03 -0.155 -87.77 -0.155 -87.77 -34.68 19.03
16.6 -34.67 18.50 -0.1559 -88.31 -0.1559 -88.31 -34.67 18.50
16.7 -34.65 17.97 -0.1568 -88.84 -0.1568 -88.84 -34.65 17.97
16.8 -34.64 17.44 -0.1576 -89.37 -0.1576 -89.37 -34.64 17.44
16.9 -34.63 16.91 -0.1585 -89.90 -0.1585 -89.90 -34.63 16.91
17 -34.62 16.38 -0.1593 -90.44 -0.1593 -90.44 -34.62 16.38
17.1 -34.61 15.86 -0.1602 -90.97 -0.1602 -90.97 -34.61 15.86
17.2 -34.6 15.33 -0.1611 -91.50 -0.1611 -91.50 -34.6 15.33
17.3 -34.59 14.80 -0.1619 -92.03 -0.1619 -92.03 -34.59 14.80
17.4 -34.58 14.27 -0.1628 -92.57 -0.1628 -92.57 -34.58 14.27
17.5 -34.57 13.74 -0.1637 -93.10 -0.1637 -93.10 -34.57 13.74
17.6 -34.57 13.21 -0.1645 -93.63 -0.1645 -93.63 -34.57 13.21
17.7 -34.56 12.68 -0.1654 -94.16 -0.1654 -94.16 -34.56 12.68
17.8 -34.56 12.16 -0.1662 -94.70 -0.1662 -94.70 -34.56 12.16
17.9 -34.55 11.63 -0.1671 -95.23 -0.1671 -95.23 -34.55 11.63
18 -34.55 11.10 -0.1679 -95.76 -0.1679 -95.76 -34.55 11.10
