! yapnr rf coupon A A03: P L6.5 (line, family P)
! stackup JLC04161H-7628, nominal parameters; reference planes 10 mm from each end; 50 ohm (renormalized from the line's Zc)
! model: 2D quasi-static RLGC (Djordjevic-Sarkar, Huray roughness, Wheeler loss); generated by python -m yapnr.rf.coupons expected
# GHz S DB R 50
0.1 -67.29 33.36 -0.006603 -1.44 -0.006603 -1.44 -67.29 33.36
0.2 -65.38 40.38 -0.01045 -2.85 -0.01045 -2.85 -65.38 40.38
0.3 -63.93 48.82 -0.01388 -4.26 -0.01388 -4.26 -63.93 48.82
0.4 -62.47 56.79 -0.01711 -5.66 -0.01711 -5.66 -62.47 56.79
0.5 -60.98 63.41 -0.0202 -7.06 -0.0202 -7.06 -60.98 63.41
0.6 -59.5 68.51 -0.0232 -8.46 -0.0232 -8.46 -59.5 68.51
0.7 -58.09 72.25 -0.02613 -9.85 -0.02613 -9.85 -58.09 72.25
0.8 -56.77 74.90 -0.029 -11.25 -0.029 -11.25 -56.77 74.90
0.9 -55.55 76.71 -0.03184 -12.64 -0.03184 -12.64 -55.55 76.71
1 -54.42 77.88 -0.03463 -14.03 -0.03463 -14.03 -54.42 77.88
1.1 -53.37 78.57 -0.03739 -15.42 -0.03739 -15.42 -53.37 78.57
1.2 -52.4 78.87 -0.04013 -16.81 -0.04013 -16.81 -52.4 78.87
1.3 -51.51 78.89 -0.04284 -18.20 -0.04284 -18.20 -51.51 78.89
1.4 -50.68 78.67 -0.04554 -19.59 -0.04554 -19.59 -50.68 78.67
1.5 -49.9 78.28 -0.04821 -20.98 -0.04821 -20.98 -49.9 78.28
1.6 -49.18 77.73 -0.05087 -22.37 -0.05087 -22.37 -49.18 77.73
1.7 -48.5 77.07 -0.05351 -23.76 -0.05351 -23.76 -48.5 77.07
1.8 -47.86 76.31 -0.05614 -25.14 -0.05614 -25.14 -47.86 76.31
1.9 -47.27 75.47 -0.05875 -26.53 -0.05875 -26.53 -47.27 75.47
2 -46.7 74.56 -0.06136 -27.91 -0.06136 -27.91 -46.7 74.56
2.1 -46.17 73.60 -0.06395 -29.30 -0.06395 -29.30 -46.17 73.60
2.2 -45.66 72.58 -0.06654 -30.69 -0.06654 -30.69 -45.66 72.58
2.3 -45.19 71.53 -0.06911 -32.07 -0.06911 -32.07 -45.19 71.53
2.4 -44.73 70.44 -0.07168 -33.46 -0.07168 -33.46 -44.73 70.44
2.5 -44.3 69.32 -0.07424 -34.84 -0.07424 -34.84 -44.3 69.32
2.6 -43.89 68.17 -0.07679 -36.22 -0.07679 -36.22 -43.89 68.17
2.7 -43.5 67.00 -0.07933 -37.61 -0.07933 -37.61 -43.5 67.00
2.8 -43.13 65.82 -0.08187 -38.99 -0.08187 -38.99 -43.13 65.82
2.9 -42.77 64.61 -0.0844 -40.37 -0.0844 -40.37 -42.77 64.61
3 -42.43 63.39 -0.08692 -41.76 -0.08692 -41.76 -42.43 63.39
3.1 -42.11 62.15 -0.08944 -43.14 -0.08944 -43.14 -42.11 62.15
3.2 -41.8 60.91 -0.09195 -44.52 -0.09195 -44.52 -41.8 60.91
3.3 -41.51 59.65 -0.09446 -45.91 -0.09446 -45.91 -41.51 59.65
3.4 -41.22 58.38 -0.09696 -47.29 -0.09696 -47.29 -41.22 58.38
3.5 -40.95 57.11 -0.09946 -48.67 -0.09946 -48.67 -40.95 57.11
3.6 -40.69 55.82 -0.102 -50.05 -0.102 -50.05 -40.69 55.82
3.7 -40.45 54.53 -0.1044 -51.43 -0.1044 -51.43 -40.45 54.53
3.8 -40.21 53.23 -0.1069 -52.82 -0.1069 -52.82 -40.21 53.23
3.9 -39.99 51.93 -0.1094 -54.20 -0.1094 -54.20 -39.99 51.93
4 -39.77 50.63 -0.1119 -55.58 -0.1119 -55.58 -39.77 50.63
4.1 -39.56 49.31 -0.1144 -56.96 -0.1144 -56.96 -39.56 49.31
4.2 -39.36 48.00 -0.1168 -58.34 -0.1168 -58.34 -39.36 48.00
4.3 -39.18 46.68 -0.1193 -59.72 -0.1193 -59.72 -39.18 46.68
4.4 -39 45.36 -0.1217 -61.10 -0.1217 -61.10 -39 45.36
4.5 -38.82 44.03 -0.1242 -62.48 -0.1242 -62.48 -38.82 44.03
4.6 -38.66 42.70 -0.1267 -63.86 -0.1267 -63.86 -38.66 42.70
4.7 -38.5 41.37 -0.1291 -65.24 -0.1291 -65.24 -38.5 41.37
4.8 -38.36 40.04 -0.1316 -66.62 -0.1316 -66.62 -38.36 40.04
4.9 -38.21 38.71 -0.134 -68.01 -0.134 -68.01 -38.21 38.71
5 -38.08 37.37 -0.1364 -69.39 -0.1364 -69.39 -38.08 37.37
5.1 -37.95 36.03 -0.1389 -70.77 -0.1389 -70.77 -37.95 36.03
5.2 -37.83 34.69 -0.1413 -72.15 -0.1413 -72.15 -37.83 34.69
5.3 -37.72 33.35 -0.1437 -73.53 -0.1437 -73.53 -37.72 33.35
5.4 -37.62 32.01 -0.1462 -74.91 -0.1462 -74.91 -37.62 32.01
5.5 -37.52 30.67 -0.1486 -76.29 -0.1486 -76.29 -37.52 30.67
5.6 -37.42 29.33 -0.151 -77.67 -0.151 -77.67 -37.42 29.33
5.7 -37.33 27.98 -0.1534 -79.05 -0.1534 -79.05 -37.33 27.98
5.8 -37.25 26.64 -0.1558 -80.43 -0.1558 -80.43 -37.25 26.64
5.9 -37.18 25.29 -0.1582 -81.81 -0.1582 -81.81 -37.18 25.29
6 -37.11 23.94 -0.1606 -83.19 -0.1606 -83.19 -37.11 23.94
6.1 -37.05 22.60 -0.163 -84.56 -0.163 -84.56 -37.05 22.60
6.2 -36.99 21.25 -0.1654 -85.94 -0.1654 -85.94 -36.99 21.25
6.3 -36.94 19.91 -0.1678 -87.32 -0.1678 -87.32 -36.94 19.91
6.4 -36.89 18.56 -0.1702 -88.70 -0.1702 -88.70 -36.89 18.56
6.5 -36.85 17.21 -0.1726 -90.08 -0.1726 -90.08 -36.85 17.21
6.6 -36.82 15.87 -0.175 -91.46 -0.175 -91.46 -36.82 15.87
6.7 -36.79 14.52 -0.1774 -92.84 -0.1774 -92.84 -36.79 14.52
6.8 -36.77 13.17 -0.1798 -94.22 -0.1798 -94.22 -36.77 13.17
6.9 -36.75 11.83 -0.1822 -95.60 -0.1822 -95.60 -36.75 11.83
7 -36.74 10.48 -0.1845 -96.98 -0.1845 -96.98 -36.74 10.48
7.1 -36.74 9.13 -0.1869 -98.36 -0.1869 -98.36 -36.74 9.13
7.2 -36.74 7.79 -0.1893 -99.74 -0.1893 -99.74 -36.74 7.79
7.3 -36.74 6.45 -0.1916 -101.12 -0.1916 -101.12 -36.74 6.45
7.4 -36.76 5.10 -0.194 -102.50 -0.194 -102.50 -36.76 5.10
7.5 -36.77 3.76 -0.1963 -103.88 -0.1963 -103.88 -36.77 3.76
7.6 -36.8 2.42 -0.1987 -105.26 -0.1987 -105.26 -36.8 2.42
7.7 -36.83 1.08 -0.201 -106.64 -0.201 -106.64 -36.83 1.08
7.8 -36.86 -0.26 -0.2034 -108.02 -0.2034 -108.02 -36.86 -0.26
7.9 -36.91 -1.60 -0.2057 -109.39 -0.2057 -109.39 -36.91 -1.60
8 -36.95 -2.94 -0.2081 -110.77 -0.2081 -110.77 -36.95 -2.94
8.1 -37.01 -4.28 -0.2104 -112.15 -0.2104 -112.15 -37.01 -4.28
8.2 -37.07 -5.61 -0.2127 -113.53 -0.2127 -113.53 -37.07 -5.61
8.3 -37.13 -6.95 -0.2151 -114.91 -0.2151 -114.91 -37.13 -6.95
8.4 -37.21 -8.28 -0.2174 -116.29 -0.2174 -116.29 -37.21 -8.28
8.5 -37.29 -9.61 -0.2197 -117.67 -0.2197 -117.67 -37.29 -9.61
8.6 -37.37 -10.94 -0.222 -119.05 -0.222 -119.05 -37.37 -10.94
8.7 -37.47 -12.27 -0.2243 -120.43 -0.2243 -120.43 -37.47 -12.27
8.8 -37.57 -13.59 -0.2267 -121.81 -0.2267 -121.81 -37.57 -13.59
8.9 -37.68 -14.92 -0.229 -123.19 -0.229 -123.19 -37.68 -14.92
9 -37.79 -16.24 -0.2313 -124.57 -0.2313 -124.57 -37.79 -16.24
9.1 -37.92 -17.55 -0.2336 -125.95 -0.2336 -125.95 -37.92 -17.55
9.2 -38.05 -18.87 -0.2359 -127.33 -0.2359 -127.33 -38.05 -18.87
9.3 -38.19 -20.18 -0.2382 -128.71 -0.2382 -128.71 -38.19 -20.18
9.4 -38.34 -21.49 -0.2405 -130.09 -0.2405 -130.09 -38.34 -21.49
9.5 -38.49 -22.79 -0.2428 -131.47 -0.2428 -131.47 -38.49 -22.79
9.6 -38.66 -24.09 -0.245 -132.85 -0.245 -132.85 -38.66 -24.09
9.7 -38.84 -25.39 -0.2473 -134.23 -0.2473 -134.23 -38.84 -25.39
9.8 -39.02 -26.68 -0.2496 -135.61 -0.2496 -135.61 -39.02 -26.68
9.9 -39.22 -27.97 -0.2519 -136.99 -0.2519 -136.99 -39.22 -27.97
10 -39.43 -29.25 -0.2542 -138.37 -0.2542 -138.37 -39.43 -29.25
10.1 -39.65 -30.52 -0.2565 -139.75 -0.2565 -139.75 -39.65 -30.52
10.2 -39.88 -31.79 -0.2587 -141.13 -0.2587 -141.13 -39.88 -31.79
10.3 -40.13 -33.05 -0.261 -142.51 -0.261 -142.51 -40.13 -33.05
10.4 -40.38 -34.30 -0.2633 -143.89 -0.2633 -143.89 -40.38 -34.30
10.5 -40.66 -35.54 -0.2655 -145.27 -0.2655 -145.27 -40.66 -35.54
10.6 -40.95 -36.76 -0.2678 -146.65 -0.2678 -146.65 -40.95 -36.76
10.7 -41.25 -37.98 -0.2701 -148.03 -0.2701 -148.03 -41.25 -37.98
10.8 -41.58 -39.18 -0.2723 -149.41 -0.2723 -149.41 -41.58 -39.18
10.9 -41.92 -40.37 -0.2746 -150.79 -0.2746 -150.79 -41.92 -40.37
11 -42.28 -41.54 -0.2768 -152.17 -0.2768 -152.17 -42.28 -41.54
11.1 -42.67 -42.68 -0.2791 -153.55 -0.2791 -153.55 -42.67 -42.68
11.2 -43.08 -43.80 -0.2813 -154.93 -0.2813 -154.93 -43.08 -43.80
11.3 -43.52 -44.89 -0.2836 -156.31 -0.2836 -156.31 -43.52 -44.89
11.4 -44 -45.95 -0.2858 -157.69 -0.2858 -157.69 -44 -45.95
11.5 -44.5 -46.97 -0.2881 -159.07 -0.2881 -159.07 -44.5 -46.97
11.6 -45.05 -47.93 -0.2903 -160.45 -0.2903 -160.45 -45.05 -47.93
11.7 -45.64 -48.84 -0.2926 -161.83 -0.2926 -161.83 -45.64 -48.84
11.8 -46.28 -49.66 -0.2948 -163.21 -0.2948 -163.21 -46.28 -49.66
11.9 -46.97 -50.40 -0.2971 -164.59 -0.2971 -164.59 -46.97 -50.40
12 -47.74 -51.00 -0.2993 -165.98 -0.2993 -165.98 -47.74 -51.00
12.1 -48.59 -51.45 -0.3016 -167.36 -0.3016 -167.36 -48.59 -51.45
12.2 -49.53 -51.67 -0.3038 -168.74 -0.3038 -168.74 -49.53 -51.67
12.3 -50.6 -51.59 -0.306 -170.12 -0.306 -170.12 -50.6 -51.59
12.4 -51.81 -51.05 -0.3083 -171.50 -0.3083 -171.50 -51.81 -51.05
12.5 -53.22 -49.82 -0.3105 -172.88 -0.3105 -172.88 -53.22 -49.82
12.6 -54.89 -47.47 -0.3128 -174.26 -0.3128 -174.26 -54.89 -47.47
12.7 -56.9 -43.12 -0.315 -175.64 -0.315 -175.64 -56.9 -43.12
12.8 -59.34 -34.86 -0.3172 -177.03 -0.3172 -177.03 -59.34 -34.86
12.9 -62.1 -18.43 -0.3195 -178.41 -0.3195 -178.41 -62.1 -18.43
13 -63.94 11.61 -0.3217 -179.79 -0.3217 -179.79 -63.94 11.61
13.1 -62.77 44.63 -0.3239 178.83 -0.3239 178.83 -62.77 44.63
13.2 -60.02 64.41 -0.3262 177.45 -0.3262 177.45 -60.02 64.41
13.3 -57.43 74.32 -0.3284 176.06 -0.3284 176.06 -57.43 74.32
13.4 -55.28 79.48 -0.3307 174.68 -0.3307 174.68 -55.28 79.48
13.5 -53.5 82.27 -0.3329 173.30 -0.3329 173.30 -53.5 82.27
13.6 -52 83.74 -0.3351 171.92 -0.3351 171.92 -52 83.74
13.7 -50.7 84.44 -0.3374 170.54 -0.3374 170.54 -50.7 84.44
13.8 -49.57 84.63 -0.3396 169.15 -0.3396 169.15 -49.57 84.63
13.9 -48.56 84.49 -0.3419 167.77 -0.3419 167.77 -48.56 84.49
14 -47.66 84.10 -0.3441 166.39 -0.3441 166.39 -47.66 84.10
14.1 -46.85 83.53 -0.3463 165.01 -0.3463 165.01 -46.85 83.53
14.2 -46.1 82.83 -0.3486 163.62 -0.3486 163.62 -46.1 82.83
14.3 -45.42 82.03 -0.3508 162.24 -0.3508 162.24 -45.42 82.03
14.4 -44.78 81.15 -0.3531 160.86 -0.3531 160.86 -44.78 81.15
14.5 -44.2 80.21 -0.3553 159.47 -0.3553 159.47 -44.2 80.21
14.6 -43.65 79.21 -0.3575 158.09 -0.3575 158.09 -43.65 79.21
14.7 -43.14 78.17 -0.3598 156.71 -0.3598 156.71 -43.14 78.17
14.8 -42.66 77.09 -0.362 155.32 -0.362 155.32 -42.66 77.09
14.9 -42.21 75.98 -0.3643 153.94 -0.3643 153.94 -42.21 75.98
15 -41.78 74.85 -0.3665 152.56 -0.3665 152.56 -41.78 74.85
15.1 -41.38 73.70 -0.3688 151.17 -0.3688 151.17 -41.38 73.70
15.2 -41 72.52 -0.371 149.79 -0.371 149.79 -41 72.52
15.3 -40.64 71.33 -0.3732 148.41 -0.3732 148.41 -40.64 71.33
15.4 -40.3 70.13 -0.3755 147.02 -0.3755 147.02 -40.3 70.13
15.5 -39.97 68.91 -0.3777 145.64 -0.3777 145.64 -39.97 68.91
15.6 -39.67 67.68 -0.38 144.26 -0.38 144.26 -39.67 67.68
15.7 -39.37 66.44 -0.3822 142.87 -0.3822 142.87 -39.37 66.44
15.8 -39.09 65.19 -0.3845 141.49 -0.3845 141.49 -39.09 65.19
15.9 -38.82 63.94 -0.3867 140.10 -0.3867 140.10 -38.82 63.94
16 -38.57 62.68 -0.389 138.72 -0.389 138.72 -38.57 62.68
16.1 -38.32 61.41 -0.3912 137.34 -0.3912 137.34 -38.32 61.41
16.2 -38.09 60.13 -0.3935 135.95 -0.3935 135.95 -38.09 60.13
16.3 -37.87 58.86 -0.3957 134.57 -0.3957 134.57 -37.87 58.86
16.4 -37.66 57.57 -0.398 133.18 -0.398 133.18 -37.66 57.57
16.5 -37.46 56.29 -0.4002 131.80 -0.4002 131.80 -37.46 56.29
16.6 -37.26 54.99 -0.4025 130.41 -0.4025 130.41 -37.26 54.99
16.7 -37.08 53.70 -0.4047 129.03 -0.4047 129.03 -37.08 53.70
16.8 -36.9 52.40 -0.407 127.64 -0.407 127.64 -36.9 52.40
16.9 -36.74 51.10 -0.4092 126.26 -0.4092 126.26 -36.74 51.10
17 -36.58 49.80 -0.4115 124.87 -0.4115 124.87 -36.58 49.80
17.1 -36.42 48.49 -0.4137 123.49 -0.4137 123.49 -36.42 48.49
17.2 -36.28 47.19 -0.416 122.10 -0.416 122.10 -36.28 47.19
17.3 -36.14 45.88 -0.4182 120.72 -0.4182 120.72 -36.14 45.88
17.4 -36.01 44.57 -0.4204 119.33 -0.4204 119.33 -36.01 44.57
17.5 -35.88 43.25 -0.4227 117.95 -0.4227 117.95 -35.88 43.25
17.6 -35.77 41.94 -0.4249 116.56 -0.4249 116.56 -35.77 41.94
17.7 -35.66 40.63 -0.4272 115.18 -0.4272 115.18 -35.66 40.63
17.8 -35.55 39.31 -0.4294 113.79 -0.4294 113.79 -35.55 39.31
17.9 -35.45 37.99 -0.4317 112.41 -0.4317 112.41 -35.45 37.99
18 -35.36 36.68 -0.4339 111.02 -0.4339 111.02 -35.36 36.68
