! yapnr rf coupon A: A04 P L16 (line, family P)
! stackup JLC04161H-7628, nominal parameters; reference planes 10 mm from each end; 50 ohm (renormalized from the line's Zc)
! model: 2D quasi-static RLGC (Djordjevic-Sarkar, Huray roughness, Wheeler loss); generated by python -m yapnr.rf.coupons expected
# GHz S DB R 50
0.1 -59.48 31.26 -0.01625 -3.55 -0.01625 -3.55 -59.48 31.26
0.2 -57.59 36.21 -0.02572 -7.02 -0.02572 -7.02 -57.59 36.21
0.3 -56.16 42.60 -0.03418 -10.48 -0.03418 -10.48 -56.16 42.60
0.4 -54.74 48.53 -0.04211 -13.93 -0.04211 -13.93 -54.74 48.53
0.5 -53.29 53.12 -0.04973 -17.38 -0.04973 -17.38 -53.29 53.12
0.6 -51.87 56.18 -0.05712 -20.82 -0.05712 -20.82 -51.87 56.18
0.7 -50.53 57.90 -0.06434 -24.25 -0.06434 -24.25 -50.53 57.90
0.8 -49.28 58.53 -0.07142 -27.69 -0.07142 -27.69 -49.28 58.53
0.9 -48.13 58.32 -0.0784 -31.11 -0.0784 -31.11 -48.13 58.32
1 -47.09 57.47 -0.08529 -34.54 -0.08529 -34.54 -47.09 57.47
1.1 -46.14 56.14 -0.09211 -37.96 -0.09211 -37.96 -46.14 56.14
1.2 -45.28 54.44 -0.09886 -41.39 -0.09886 -41.39 -45.28 54.44
1.3 -44.51 52.44 -0.1056 -44.81 -0.1056 -44.81 -44.51 52.44
1.4 -43.8 50.22 -0.1122 -48.23 -0.1122 -48.23 -43.8 50.22
1.5 -43.16 47.82 -0.1188 -51.64 -0.1188 -51.64 -43.16 47.82
1.6 -42.59 45.28 -0.1254 -55.06 -0.1254 -55.06 -42.59 45.28
1.7 -42.07 42.62 -0.1319 -58.47 -0.1319 -58.47 -42.07 42.62
1.8 -41.6 39.87 -0.1384 -61.89 -0.1384 -61.89 -41.6 39.87
1.9 -41.18 37.04 -0.1449 -65.30 -0.1449 -65.30 -41.18 37.04
2 -40.81 34.14 -0.1513 -68.71 -0.1513 -68.71 -40.81 34.14
2.1 -40.48 31.19 -0.1577 -72.12 -0.1577 -72.12 -40.48 31.19
2.2 -40.2 28.20 -0.1641 -75.53 -0.1641 -75.53 -40.2 28.20
2.3 -39.95 25.17 -0.1704 -78.94 -0.1704 -78.94 -39.95 25.17
2.4 -39.74 22.10 -0.1768 -82.35 -0.1768 -82.35 -39.74 22.10
2.5 -39.57 19.02 -0.1831 -85.76 -0.1831 -85.76 -39.57 19.02
2.6 -39.43 15.91 -0.1894 -89.16 -0.1894 -89.16 -39.43 15.91
2.7 -39.33 12.78 -0.1956 -92.57 -0.1956 -92.57 -39.33 12.78
2.8 -39.27 9.64 -0.2019 -95.97 -0.2019 -95.97 -39.27 9.64
2.9 -39.24 6.49 -0.2081 -99.38 -0.2081 -99.38 -39.24 6.49
3 -39.25 3.33 -0.2143 -102.78 -0.2143 -102.78 -39.25 3.33
3.1 -39.29 0.16 -0.2205 -106.19 -0.2205 -106.19 -39.29 0.16
3.2 -39.37 -3.01 -0.2266 -109.59 -0.2266 -109.59 -39.37 -3.01
3.3 -39.48 -6.18 -0.2328 -112.99 -0.2328 -112.99 -39.48 -6.18
3.4 -39.64 -9.36 -0.2389 -116.39 -0.2389 -116.39 -39.64 -9.36
3.5 -39.84 -12.52 -0.245 -119.80 -0.245 -119.80 -39.84 -12.52
3.6 -40.08 -15.68 -0.2511 -123.20 -0.2511 -123.20 -40.08 -15.68
3.7 -40.37 -18.83 -0.2572 -126.60 -0.2572 -126.60 -40.37 -18.83
3.8 -40.7 -21.96 -0.2632 -130.00 -0.2632 -130.00 -40.7 -21.96
3.9 -41.09 -25.07 -0.2693 -133.40 -0.2693 -133.40 -41.09 -25.07
4 -41.54 -28.16 -0.2753 -136.80 -0.2753 -136.80 -41.54 -28.16
4.1 -42.06 -31.21 -0.2813 -140.20 -0.2813 -140.20 -42.06 -31.21
4.2 -42.66 -34.22 -0.2873 -143.60 -0.2873 -143.60 -42.66 -34.22
4.3 -43.34 -37.17 -0.2933 -147.00 -0.2933 -147.00 -43.34 -37.17
4.4 -44.12 -40.03 -0.2993 -150.40 -0.2993 -150.40 -44.12 -40.03
4.5 -45.04 -42.77 -0.3052 -153.79 -0.3052 -153.79 -45.04 -42.77
4.6 -46.1 -45.35 -0.3112 -157.19 -0.3112 -157.19 -46.1 -45.35
4.7 -47.37 -47.67 -0.3171 -160.59 -0.3171 -160.59 -47.37 -47.67
4.8 -48.91 -49.57 -0.3231 -163.99 -0.3231 -163.99 -48.91 -49.57
4.9 -50.84 -50.72 -0.329 -167.39 -0.329 -167.39 -50.84 -50.72
5 -53.37 -50.33 -0.3349 -170.79 -0.3349 -170.79 -53.37 -50.33
5.1 -56.94 -46.02 -0.3408 -174.18 -0.3408 -174.18 -56.94 -46.02
5.2 -62.33 -27.09 -0.3467 -177.58 -0.3467 -177.58 -62.33 -27.09
5.3 -64.69 38.99 -0.3526 179.02 -0.3526 179.02 -64.69 38.99
5.4 -58.76 74.47 -0.3585 175.63 -0.3585 175.63 -58.76 74.47
5.5 -54.46 82.34 -0.3644 172.23 -0.3644 172.23 -54.46 82.34
5.6 -51.49 83.86 -0.3703 168.83 -0.3703 168.83 -51.49 83.86
5.7 -49.26 83.20 -0.3762 165.43 -0.3762 165.43 -49.26 83.20
5.8 -47.49 81.55 -0.382 162.04 -0.382 162.04 -47.49 81.55
5.9 -46.03 79.37 -0.3879 158.64 -0.3879 158.64 -46.03 79.37
6 -44.79 76.89 -0.3938 155.24 -0.3938 155.24 -44.79 76.89
6.1 -43.73 74.20 -0.3997 151.85 -0.3997 151.85 -43.73 74.20
6.2 -42.8 71.38 -0.4056 148.45 -0.4056 148.45 -42.8 71.38
6.3 -41.99 68.46 -0.4114 145.05 -0.4114 145.05 -41.99 68.46
6.4 -41.26 65.47 -0.4173 141.66 -0.4173 141.66 -41.26 65.47
6.5 -40.62 62.43 -0.4232 138.26 -0.4232 138.26 -40.62 62.43
6.6 -40.04 59.35 -0.429 134.87 -0.429 134.87 -40.04 59.35
6.7 -39.53 56.24 -0.4349 131.47 -0.4349 131.47 -39.53 56.24
6.8 -39.07 53.11 -0.4408 128.07 -0.4408 128.07 -39.07 53.11
6.9 -38.66 49.95 -0.4466 124.68 -0.4466 124.68 -38.66 49.95
7 -38.3 46.78 -0.4525 121.28 -0.4525 121.28 -38.3 46.78
7.1 -37.97 43.60 -0.4583 117.89 -0.4583 117.89 -37.97 43.60
7.2 -37.69 40.41 -0.4642 114.49 -0.4642 114.49 -37.69 40.41
7.3 -37.45 37.22 -0.47 111.09 -0.47 111.09 -37.45 37.22
7.4 -37.24 34.02 -0.4759 107.70 -0.4759 107.70 -37.24 34.02
7.5 -37.06 30.81 -0.4817 104.30 -0.4817 104.30 -37.06 30.81
7.6 -36.92 27.61 -0.4875 100.91 -0.4875 100.91 -36.92 27.61
7.7 -36.81 24.40 -0.4933 97.51 -0.4933 97.51 -36.81 24.40
7.8 -36.73 21.20 -0.4991 94.12 -0.4991 94.12 -36.73 21.20
7.9 -36.69 17.99 -0.5049 90.72 -0.5049 90.72 -36.69 17.99
8 -36.67 14.80 -0.5107 87.33 -0.5107 87.33 -36.67 14.80
8.1 -36.68 11.60 -0.5165 83.93 -0.5165 83.93 -36.68 11.60
8.2 -36.73 8.42 -0.5222 80.54 -0.5222 80.54 -36.73 8.42
8.3 -36.81 5.24 -0.528 77.14 -0.528 77.14 -36.81 5.24
8.4 -36.92 2.07 -0.5337 73.74 -0.5337 73.74 -36.92 2.07
8.5 -37.06 -1.08 -0.5395 70.35 -0.5395 70.35 -37.06 -1.08
8.6 -37.24 -4.22 -0.5452 66.95 -0.5452 66.95 -37.24 -4.22
8.7 -37.45 -7.35 -0.5509 63.56 -0.5509 63.56 -37.45 -7.35
8.8 -37.7 -10.45 -0.5566 60.16 -0.5566 60.16 -37.7 -10.45
8.9 -37.99 -13.52 -0.5622 56.77 -0.5622 56.77 -37.99 -13.52
9 -38.33 -16.57 -0.5679 53.37 -0.5679 53.37 -38.33 -16.57
9.1 -38.71 -19.58 -0.5736 49.97 -0.5736 49.97 -38.71 -19.58
9.2 -39.15 -22.54 -0.5792 46.58 -0.5792 46.58 -39.15 -22.54
9.3 -39.64 -25.45 -0.5849 43.18 -0.5849 43.18 -39.64 -25.45
9.4 -40.2 -28.29 -0.5905 39.79 -0.5905 39.79 -40.2 -28.29
9.5 -40.82 -31.04 -0.5961 36.39 -0.5961 36.39 -40.82 -31.04
9.6 -41.54 -33.67 -0.6017 32.99 -0.6017 32.99 -41.54 -33.67
9.7 -42.35 -36.15 -0.6074 29.60 -0.6074 29.60 -42.35 -36.15
9.8 -43.28 -38.41 -0.613 26.20 -0.613 26.20 -43.28 -38.41
9.9 -44.36 -40.36 -0.6186 22.80 -0.6186 22.80 -44.36 -40.36
10 -45.63 -41.85 -0.6242 19.41 -0.6242 19.41 -45.63 -41.85
10.1 -47.14 -42.60 -0.6298 16.01 -0.6298 16.01 -47.14 -42.60
10.2 -48.98 -42.09 -0.6354 12.61 -0.6354 12.61 -48.98 -42.09
10.3 -51.28 -39.15 -0.6409 9.21 -0.6409 9.21 -51.28 -39.15
10.4 -54.19 -30.86 -0.6465 5.82 -0.6465 5.82 -54.19 -30.86
10.5 -57.46 -9.78 -0.6521 2.42 -0.6521 2.42 -57.46 -9.78
10.6 -58.35 28.97 -0.6577 -0.98 -0.6577 -0.98 -58.35 28.97
10.7 -55.47 57.94 -0.6633 -4.38 -0.6633 -4.38 -55.47 57.94
10.8 -52.28 70.04 -0.6689 -7.78 -0.6689 -7.78 -52.28 70.04
10.9 -49.71 74.59 -0.6745 -11.17 -0.6745 -11.17 -49.71 74.59
11 -47.68 75.88 -0.6801 -14.57 -0.6801 -14.57 -47.68 75.88
11.1 -46.01 75.55 -0.6858 -17.97 -0.6858 -17.97 -46.01 75.55
11.2 -44.63 74.33 -0.6914 -21.37 -0.6914 -21.37 -44.63 74.33
11.3 -43.45 72.55 -0.697 -24.77 -0.697 -24.77 -43.45 72.55
11.4 -42.43 70.42 -0.7026 -28.17 -0.7026 -28.17 -42.43 70.42
11.5 -41.54 68.04 -0.7083 -31.57 -0.7083 -31.57 -41.54 68.04
11.6 -40.75 65.50 -0.7139 -34.97 -0.7139 -34.97 -40.75 65.50
11.7 -40.06 62.82 -0.7195 -38.36 -0.7195 -38.36 -40.06 62.82
11.8 -39.44 60.04 -0.7252 -41.76 -0.7252 -41.76 -39.44 60.04
11.9 -38.89 57.20 -0.7308 -45.16 -0.7308 -45.16 -38.89 57.20
12 -38.4 54.29 -0.7364 -48.56 -0.7364 -48.56 -38.4 54.29
12.1 -37.96 51.34 -0.7421 -51.96 -0.7421 -51.96 -37.96 51.34
12.2 -37.57 48.36 -0.7477 -55.36 -0.7477 -55.36 -37.57 48.36
12.3 -37.23 45.34 -0.7534 -58.76 -0.7534 -58.76 -37.23 45.34
12.4 -36.93 42.30 -0.759 -62.16 -0.759 -62.16 -36.93 42.30
12.5 -36.66 39.25 -0.7646 -65.56 -0.7646 -65.56 -36.66 39.25
12.6 -36.44 36.18 -0.7703 -68.96 -0.7703 -68.96 -36.44 36.18
12.7 -36.24 33.10 -0.7759 -72.36 -0.7759 -72.36 -36.24 33.10
12.8 -36.08 30.01 -0.7815 -75.76 -0.7815 -75.76 -36.08 30.01
12.9 -35.96 26.91 -0.7871 -79.16 -0.7871 -79.16 -35.96 26.91
13 -35.86 23.82 -0.7927 -82.57 -0.7927 -82.57 -35.86 23.82
13.1 -35.8 20.72 -0.7983 -85.97 -0.7983 -85.97 -35.8 20.72
13.2 -35.77 17.62 -0.8039 -89.37 -0.8039 -89.37 -35.77 17.62
13.3 -35.77 14.53 -0.8095 -92.77 -0.8095 -92.77 -35.77 14.53
13.4 -35.8 11.45 -0.8151 -96.17 -0.8151 -96.17 -35.8 11.45
13.5 -35.85 8.37 -0.8206 -99.57 -0.8206 -99.57 -35.85 8.37
13.6 -35.95 5.30 -0.8262 -102.97 -0.8262 -102.97 -35.95 5.30
13.7 -36.07 2.25 -0.8317 -106.37 -0.8317 -106.37 -36.07 2.25
13.8 -36.22 -0.79 -0.8373 -109.78 -0.8373 -109.78 -36.22 -0.79
13.9 -36.41 -3.80 -0.8428 -113.18 -0.8428 -113.18 -36.41 -3.80
14 -36.64 -6.80 -0.8483 -116.58 -0.8483 -116.58 -36.64 -6.80
14.1 -36.9 -9.76 -0.8538 -119.98 -0.8538 -119.98 -36.9 -9.76
14.2 -37.21 -12.69 -0.8593 -123.38 -0.8593 -123.38 -37.21 -12.69
14.3 -37.55 -15.57 -0.8647 -126.79 -0.8647 -126.79 -37.55 -15.57
14.4 -37.95 -18.40 -0.8702 -130.19 -0.8702 -130.19 -37.95 -18.40
14.5 -38.39 -21.17 -0.8757 -133.59 -0.8757 -133.59 -38.39 -21.17
14.6 -38.89 -23.86 -0.8811 -137.00 -0.8811 -137.00 -38.89 -23.86
14.7 -39.46 -26.44 -0.8866 -140.40 -0.8866 -140.40 -39.46 -26.44
14.8 -40.09 -28.90 -0.892 -143.81 -0.892 -143.81 -40.09 -28.90
14.9 -40.81 -31.19 -0.8974 -147.21 -0.8974 -147.21 -40.81 -31.19
15 -41.62 -33.26 -0.9029 -150.61 -0.9029 -150.61 -41.62 -33.26
15.1 -42.55 -35.03 -0.9083 -154.02 -0.9083 -154.02 -42.55 -35.03
15.2 -43.61 -36.36 -0.9137 -157.42 -0.9137 -157.42 -43.61 -36.36
15.3 -44.84 -37.05 -0.9191 -160.83 -0.9191 -160.83 -44.84 -37.05
15.4 -46.29 -36.74 -0.9246 -164.24 -0.9246 -164.24 -46.29 -36.74
15.5 -48 -34.79 -0.93 -167.64 -0.93 -167.64 -48 -34.79
15.6 -50.03 -29.90 -0.9354 -171.05 -0.9354 -171.05 -50.03 -29.90
15.7 -52.32 -19.55 -0.9408 -174.45 -0.9408 -174.45 -52.32 -19.55
15.8 -54.32 0.02 -0.9463 -177.86 -0.9463 -177.86 -54.32 0.02
15.9 -54.57 27.07 -0.9517 178.73 -0.9517 178.73 -54.57 27.07
16 -52.79 48.88 -0.9571 175.33 -0.9571 175.33 -52.79 48.88
16.1 -50.47 60.92 -0.9626 171.92 -0.9626 171.92 -50.47 60.92
16.2 -48.36 66.73 -0.968 168.51 -0.968 168.51 -48.36 66.73
16.3 -46.56 69.19 -0.9735 165.10 -0.9735 165.10 -46.56 69.19
16.4 -45.04 69.80 -0.9789 161.69 -0.9789 161.69 -45.04 69.80
16.5 -43.75 69.31 -0.9844 158.29 -0.9844 158.29 -43.75 69.31
16.6 -42.64 68.11 -0.9899 154.88 -0.9899 154.88 -42.64 68.11
16.7 -41.67 66.45 -0.9954 151.47 -0.9954 151.47 -41.67 66.45
16.8 -40.81 64.46 -1.001 148.06 -1.001 148.06 -40.81 64.46
16.9 -40.06 62.23 -1.006 144.65 -1.006 144.65 -40.06 62.23
17 -39.39 59.83 -1.012 141.24 -1.012 141.24 -39.39 59.83
17.1 -38.79 57.30 -1.017 137.83 -1.017 137.83 -38.79 57.30
17.2 -38.26 54.67 -1.023 134.42 -1.023 134.42 -38.26 54.67
17.3 -37.79 51.96 -1.028 131.01 -1.028 131.01 -37.79 51.96
17.4 -37.37 49.18 -1.034 127.60 -1.034 127.60 -37.37 49.18
17.5 -37 46.35 -1.039 124.19 -1.039 124.19 -37 46.35
17.6 -36.67 43.48 -1.045 120.78 -1.045 120.78 -36.67 43.48
17.7 -36.38 40.58 -1.05 117.37 -1.05 117.37 -36.38 40.58
17.8 -36.12 37.65 -1.056 113.96 -1.056 113.96 -36.12 37.65
17.9 -35.91 34.70 -1.061 110.55 -1.061 110.55 -35.91 34.70
18 -35.73 31.73 -1.067 107.14 -1.067 107.14 -35.73 31.73
