! yapnr rf coupon A A06: P L100 (line, family P)
! stackup JLC04161H-7628, nominal parameters; reference planes 10 mm from each end; 50 ohm (renormalized from the line's Zc)
! model: 2D quasi-static RLGC (Djordjevic-Sarkar, Huray roughness, Wheeler loss); generated by python -m yapnr.rf.coupons expected
# GHz S DB R 50
0.1 -43.86 12.73 -0.1015 -22.16 -0.1015 -22.16 -43.86 12.73
0.2 -42.65 -0.38 -0.1606 -43.89 -0.1606 -43.89 -42.65 -0.38
0.3 -42.36 -11.85 -0.2134 -65.52 -0.2134 -65.52 -42.36 -11.85
0.4 -42.61 -23.59 -0.263 -87.09 -0.263 -87.09 -42.61 -23.59
0.5 -43.52 -36.38 -0.3106 -108.61 -0.3106 -108.61 -43.52 -36.38
0.6 -45.51 -50.14 -0.3567 -130.11 -0.3567 -130.11 -45.51 -50.14
0.7 -49.55 -63.61 -0.4018 -151.58 -0.4018 -151.58 -49.55 -63.61
0.8 -60.6 -63.16 -0.446 -173.03 -0.446 -173.03 -60.6 -63.16
0.9 -54.64 63.51 -0.4896 165.54 -0.4896 165.54 -54.64 63.51
1 -47.2 52.11 -0.5327 144.12 -0.5327 144.12 -47.2 52.11
1.1 -43.88 35.17 -0.5753 122.72 -0.5753 122.72 -43.88 35.17
1.2 -42.36 17.08 -0.6175 101.34 -0.6175 101.34 -42.36 17.08
1.3 -42.13 -1.32 -0.6593 79.96 -0.6593 79.96 -42.13 -1.32
1.4 -43.18 -19.48 -0.7007 58.59 -0.7007 58.59 -43.18 -19.48
1.5 -45.95 -36.28 -0.7418 37.24 -0.7418 37.24 -45.95 -36.28
1.6 -52.33 -45.67 -0.7826 15.89 -0.7826 15.89 -52.33 -45.67
1.7 -58.81 51.48 -0.8232 -5.46 -0.8232 -5.46 -58.81 51.48
1.8 -47.95 64.35 -0.8636 -26.79 -0.8636 -26.79 -47.95 64.35
1.9 -43.59 49.35 -0.904 -48.12 -0.904 -48.12 -43.59 49.35
2 -41.51 31.48 -0.9441 -69.44 -0.9441 -69.44 -41.51 31.48
2.1 -40.83 12.98 -0.9841 -90.75 -0.9841 -90.75 -40.83 12.98
2.2 -41.37 -5.33 -1.024 -112.06 -1.024 -112.06 -41.37 -5.33
2.3 -43.33 -22.48 -1.063 -133.37 -1.063 -133.37 -43.33 -22.48
2.4 -47.6 -35.13 -1.103 -154.67 -1.103 -154.67 -47.6 -35.13
2.5 -57.02 -9.47 -1.142 -175.96 -1.142 -175.96 -57.02 -9.47
2.6 -50.15 64.32 -1.181 162.74 -1.181 162.74 -50.15 64.32
2.7 -44.24 56.81 -1.22 141.46 -1.22 141.46 -44.24 56.81
2.8 -41.42 40.86 -1.259 120.17 -1.259 120.17 -41.42 40.86
2.9 -40.22 23.20 -1.298 98.89 -1.298 98.89 -40.22 23.20
3 -40.25 5.32 -1.337 77.62 -1.337 77.62 -40.25 5.32
3.1 -41.53 -11.77 -1.375 56.34 -1.375 56.34 -41.53 -11.77
3.2 -44.51 -25.94 -1.413 35.08 -1.413 35.08 -44.51 -25.94
3.3 -50.69 -26.07 -1.452 13.81 -1.452 13.81 -50.69 -26.07
3.4 -53.26 46.42 -1.49 -7.46 -1.49 -7.46 -53.26 46.42
3.5 -45.71 60.00 -1.528 -28.72 -1.528 -28.72 -45.71 60.00
3.6 -41.93 47.94 -1.566 -49.98 -1.566 -49.98 -41.93 47.94
3.7 -40.12 31.73 -1.605 -71.24 -1.605 -71.24 -40.12 31.73
3.8 -39.63 14.56 -1.643 -92.49 -1.643 -92.49 -39.63 14.56
3.9 -40.31 -2.29 -1.681 -113.74 -1.681 -113.74 -40.31 -2.29
4 -42.38 -17.24 -1.718 -134.99 -1.718 -134.99 -42.38 -17.24
4.1 -46.58 -25.11 -1.756 -156.24 -1.756 -156.24 -46.58 -25.11
4.2 -53.1 7.17 -1.793 -177.49 -1.793 -177.49 -53.1 7.17
4.3 -47.9 56.64 -1.831 161.26 -1.831 161.26 -47.9 56.64
4.4 -42.96 52.74 -1.869 140.02 -1.869 140.02 -42.96 52.74
4.5 -40.44 38.95 -1.906 118.78 -1.906 118.78 -40.44 38.95
4.6 -39.4 22.85 -1.944 97.54 -1.944 97.54 -39.4 22.85
4.7 -39.53 6.44 -1.981 76.30 -1.981 76.30 -39.53 6.44
4.8 -40.88 -8.84 -2.019 55.06 -2.019 55.06 -40.88 -8.84
4.9 -43.84 -19.99 -2.056 33.83 -2.056 33.83 -43.84 -19.99
5 -49.18 -13.70 -2.093 12.59 -2.093 12.59 -49.18 -13.70
5.1 -50.21 40.78 -2.13 -8.64 -2.13 -8.64 -50.21 40.78
5.2 -44.5 54.21 -2.167 -29.88 -2.167 -29.88 -44.5 54.21
5.3 -41.15 44.72 -2.204 -51.11 -2.204 -51.11 -41.15 44.72
5.4 -39.51 30.24 -2.241 -72.34 -2.241 -72.34 -39.51 30.24
5.5 -39.12 14.54 -2.278 -93.57 -2.278 -93.57 -39.12 14.54
5.6 -39.86 -0.73 -2.315 -114.80 -2.315 -114.80 -39.86 -0.73
5.7 -41.91 -13.49 -2.352 -136.03 -2.352 -136.03 -41.91 -13.49
5.8 -45.81 -17.41 -2.388 -157.26 -2.388 -157.26 -45.81 -17.41
5.9 -50.29 13.21 -2.425 -178.49 -2.425 -178.49 -50.29 13.21
6 -46.42 49.93 -2.462 160.29 -2.462 160.29 -46.42 49.93
6.1 -42.23 48.44 -2.498 139.06 -2.498 139.06 -42.23 48.44
6.2 -39.95 36.58 -2.535 117.83 -2.535 117.83 -39.95 36.58
6.3 -39.01 21.98 -2.572 96.61 -2.572 96.61 -39.01 21.98
6.4 -39.21 7.02 -2.608 75.38 -2.608 75.38 -39.21 7.02
6.5 -40.56 -6.51 -2.645 54.16 -2.645 54.16 -40.56 -6.51
6.6 -43.37 -14.98 -2.681 32.94 -2.681 32.94 -43.37 -14.98
6.7 -47.79 -5.37 -2.717 11.71 -2.717 11.71 -47.79 -5.37
6.8 -48.14 36.44 -2.754 -9.51 -2.754 -9.51 -48.14 36.44
6.9 -43.66 48.99 -2.79 -30.74 -2.79 -30.74 -43.66 48.99
7 -40.69 41.53 -2.826 -51.96 -2.826 -51.96 -40.69 41.53
7.1 -39.2 28.64 -2.863 -73.19 -2.863 -73.19 -39.2 28.64
7.2 -38.87 14.33 -2.899 -94.41 -2.899 -94.41 -38.87 14.33
7.3 -39.63 0.56 -2.935 -115.63 -2.935 -115.63 -39.63 0.56
7.4 -41.62 -10.18 -2.971 -136.85 -2.971 -136.85 -41.62 -10.18
7.5 -45.11 -11.16 -3.007 -158.07 -3.007 -158.07 -45.11 -11.16
7.6 -48.26 15.93 -3.043 -179.30 -3.043 -179.30 -48.26 15.93
7.7 -45.29 44.52 -3.079 159.48 -3.079 159.48 -45.29 44.52
7.8 -41.73 44.49 -3.115 138.25 -3.115 138.25 -41.73 44.49
7.9 -39.66 34.29 -3.151 117.03 -3.151 117.03 -39.66 34.29
8 -38.82 21.07 -3.187 95.81 -3.187 95.81 -38.82 21.07
8.1 -39.05 7.48 -3.223 74.59 -3.223 74.59 -39.05 7.48
8.2 -40.38 -4.40 -3.259 53.36 -3.259 53.36 -40.38 -4.40
8.3 -43 -10.60 -3.295 32.14 -3.295 32.14 -43 -10.60
8.4 -46.58 0.41 -3.33 10.92 -3.33 10.92 -46.58 0.41
8.5 -46.6 33.22 -3.366 -10.31 -3.366 -10.31 -46.6 33.22
8.6 -43.01 44.48 -3.402 -31.54 -3.402 -31.54 -43.01 44.48
8.7 -40.37 38.57 -3.438 -52.76 -3.438 -52.76 -40.37 38.57
8.8 -39.02 27.08 -3.473 -73.99 -3.473 -73.99 -39.02 27.08
8.9 -38.76 14.08 -3.509 -95.21 -3.509 -95.21 -38.76 14.08
9 -39.52 1.73 -3.545 -116.44 -3.545 -116.44 -39.52 1.73
9.1 -41.42 -7.19 -3.58 -137.66 -3.58 -137.66 -41.42 -7.19
9.2 -44.48 -6.05 -3.616 -158.89 -3.616 -158.89 -44.48 -6.05
9.3 -46.73 17.45 -3.651 179.88 -3.651 179.88 -46.73 17.45
9.4 -44.36 40.21 -3.687 158.66 -3.687 158.66 -44.36 40.21
9.5 -41.33 40.95 -3.722 137.43 -3.722 137.43 -41.33 40.95
9.6 -39.47 32.12 -3.758 116.20 -3.758 116.20 -39.47 32.12
9.7 -38.72 20.18 -3.793 94.97 -3.793 94.97 -38.72 20.18
9.8 -38.98 7.88 -3.829 73.74 -3.829 73.74 -38.98 7.88
9.9 -40.27 -2.48 -3.864 52.51 -3.864 52.51 -40.27 -2.48
10 -42.67 -6.76 -3.899 31.28 -3.899 31.28 -42.67 -6.76
10.1 -45.56 4.61 -3.935 10.05 -3.935 10.05 -45.56 4.61
10.2 -45.38 30.85 -3.97 -11.18 -3.97 -11.18 -45.38 30.85
10.3 -42.45 40.64 -4.005 -32.42 -4.005 -32.42 -42.45 40.64
10.4 -40.13 35.84 -4.04 -53.65 -4.04 -53.65 -40.13 35.84
10.5 -38.92 25.59 -4.076 -74.89 -4.076 -74.89 -38.92 25.59
10.6 -38.71 13.79 -4.111 -96.12 -4.111 -96.12 -38.71 13.79
10.7 -39.47 2.78 -4.146 -117.35 -4.146 -117.35 -39.47 2.78
10.8 -41.26 -4.50 -4.181 -138.59 -4.181 -138.59 -41.26 -4.50
10.9 -43.92 -1.83 -4.216 -159.83 -4.216 -159.83 -43.92 -1.83
11 -45.52 18.46 -4.251 178.93 -4.251 178.93 -45.52 18.46
11.1 -43.57 36.79 -4.286 157.70 -4.286 157.70 -43.57 36.79
11.2 -40.98 37.79 -4.322 136.46 -4.322 136.46 -40.98 37.79
11.3 -39.32 30.07 -4.357 115.21 -4.357 115.21 -39.32 30.07
11.4 -38.67 19.28 -4.392 93.97 -4.392 93.97 -38.67 19.28
11.5 -38.96 8.19 -4.427 72.73 -4.427 72.73 -38.96 8.19
11.6 -40.21 -0.75 -4.462 51.49 -4.462 51.49 -40.21 -0.75
11.7 -42.39 -3.39 -4.497 30.25 -4.497 30.25 -42.39 -3.39
11.8 -44.7 7.83 -4.532 9.00 -4.532 9.00 -44.7 7.83
11.9 -44.39 29.12 -4.566 -12.24 -4.566 -12.24 -44.39 29.12
12 -41.95 37.38 -4.601 -33.49 -4.601 -33.49 -41.95 37.38
12.1 -39.92 33.33 -4.636 -54.74 -4.636 -54.74 -39.92 33.33
12.2 -38.85 24.14 -4.671 -75.98 -4.671 -75.98 -38.85 24.14
12.3 -38.7 13.46 -4.706 -97.23 -4.706 -97.23 -38.7 13.46
12.4 -39.46 3.72 -4.741 -118.48 -4.741 -118.48 -39.46 3.72
12.5 -41.14 -2.07 -4.776 -139.73 -4.776 -139.73 -41.14 -2.07
12.6 -43.43 1.70 -4.81 -160.98 -4.81 -160.98 -43.43 1.70
12.7 -44.54 19.25 -4.845 177.76 -4.845 177.76 -44.54 19.25
12.8 -42.88 34.06 -4.88 156.51 -4.88 156.51 -42.88 34.06
12.9 -40.67 34.99 -4.915 135.25 -4.915 135.25 -40.67 34.99
13 -39.21 28.14 -4.949 114.00 -4.949 114.00 -39.21 28.14
13.1 -38.65 18.37 -4.984 92.74 -4.984 92.74 -38.65 18.37
13.2 -38.98 8.43 -5.019 71.48 -5.019 71.48 -38.98 8.43
13.3 -40.17 0.83 -5.053 50.23 -5.053 50.23 -40.17 0.83
13.4 -42.14 -0.42 -5.088 28.97 -5.088 28.97 -42.14 -0.42
13.5 -43.97 10.40 -5.122 7.71 -5.122 7.71 -43.97 10.40
13.6 -43.55 27.83 -5.157 -13.56 -5.157 -13.56 -43.55 27.83
13.7 -41.49 34.61 -5.192 -34.82 -5.192 -34.82 -41.49 34.61
13.8 -39.73 31.03 -5.226 -56.09 -5.226 -56.09 -39.73 31.03
13.9 -38.79 22.73 -5.261 -77.35 -5.261 -77.35 -38.79 22.73
14 -38.71 13.09 -5.295 -98.62 -5.295 -98.62 -38.71 13.09
14.1 -39.48 4.55 -5.33 -119.89 -5.33 -119.89 -39.48 4.55
14.2 -41.04 0.13 -5.364 -141.15 -5.364 -141.15 -41.04 0.13
14.3 -42.98 4.71 -5.399 -162.42 -5.399 -162.42 -42.98 4.71
14.4 -43.72 19.91 -5.433 176.30 -5.433 176.30 -43.72 19.91
14.5 -42.27 31.86 -5.467 155.03 -5.467 155.03 -42.27 31.86
14.6 -40.37 32.50 -5.502 133.76 -5.502 133.76 -40.37 32.50
14.7 -39.1 26.32 -5.536 112.48 -5.536 112.48 -39.1 26.32
14.8 -38.65 17.47 -5.571 91.20 -5.571 91.20 -38.65 17.47
14.9 -39.01 8.60 -5.605 69.93 -5.605 69.93 -39.01 8.60
15 -40.16 2.27 -5.64 48.65 -5.64 48.65 -40.16 2.27
15.1 -41.92 2.24 -5.674 27.37 -5.674 27.37 -41.92 2.24
15.2 -43.34 12.53 -5.708 6.09 -5.708 6.09 -43.34 12.53
15.3 -42.84 26.85 -5.742 -15.19 -5.742 -15.19 -42.84 26.85
15.4 -41.07 32.24 -5.777 -36.48 -5.777 -36.48 -41.07 32.24
15.5 -39.55 28.91 -5.811 -57.77 -5.811 -57.77 -39.55 28.91
15.6 -38.76 21.37 -5.845 -79.05 -5.845 -79.05 -38.76 21.37
15.7 -38.74 12.69 -5.88 -100.34 -5.88 -100.34 -38.74 12.69
15.8 -39.51 5.29 -5.914 -121.63 -5.914 -121.63 -39.51 5.29
15.9 -40.95 2.15 -5.948 -142.92 -5.948 -142.92 -40.95 2.15
16 -42.59 7.32 -5.982 -164.21 -5.982 -164.21 -42.59 7.32
16.1 -43.03 20.49 -6.016 174.50 -6.016 174.50 -43.03 20.49
16.2 -41.73 30.05 -6.05 153.20 -6.05 153.20 -41.73 30.05
16.3 -40.1 30.27 -6.085 131.91 -6.085 131.91 -40.1 30.27
16.4 -39.01 24.59 -6.119 110.61 -6.119 110.61 -39.01 24.59
16.5 -38.66 16.57 -6.153 89.31 -6.153 89.31 -38.66 16.57
16.6 -39.05 8.73 -6.187 68.01 -6.187 68.01 -39.05 8.73
16.7 -40.16 3.61 -6.221 46.71 -6.221 46.71 -40.16 3.61
16.8 -41.71 4.64 -6.255 25.41 -6.255 25.41 -41.71 4.64
16.9 -42.78 14.31 -6.289 4.10 -6.289 4.10 -42.78 14.31
17 -42.22 26.08 -6.323 -17.20 -6.323 -17.20 -42.22 26.08
17.1 -40.69 30.18 -6.357 -38.51 -6.357 -38.51 -40.69 30.18
17.2 -39.38 26.96 -6.391 -59.82 -6.391 -59.82 -39.38 26.96
17.3 -38.72 20.06 -6.426 -81.13 -6.426 -81.13 -38.72 20.06
17.4 -38.78 12.27 -6.46 -102.44 -6.46 -102.44 -38.78 12.27
17.5 -39.55 5.98 -6.494 -123.75 -6.494 -123.75 -39.55 5.98
17.6 -40.88 4.03 -6.527 -145.07 -6.527 -145.07 -40.88 4.03
17.7 -42.22 9.60 -6.561 -166.38 -6.561 -166.38 -42.22 9.60
17.8 -42.42 20.98 -6.595 172.30 -6.595 172.30 -42.42 20.98
17.9 -41.25 28.52 -6.629 150.98 -6.629 150.98 -41.25 28.52
18 -39.84 28.27 -6.663 129.66 -6.663 129.66 -39.84 28.27
