! yapnr rf coupon A: A08 P VER28 (verify, family P)
! stackup JLC04161H-7628, nominal parameters; reference planes 10 mm from each end; 50 ohm (renormalized from the line's Zc)
! model: 2D quasi-static RLGC (Djordjevic-Sarkar, Huray roughness, Wheeler loss); generated by python -m yapnr.rf.coupons expected
# GHz S DB R 50
0.1 -54.64 28.61 -0.02844 -6.20 -0.02844 -6.20 -54.64 28.61
0.2 -52.79 30.96 -0.04501 -12.29 -0.04501 -12.29 -52.79 30.96
0.3 -51.43 34.77 -0.05981 -18.35 -0.05981 -18.35 -51.43 34.77
0.4 -50.09 38.13 -0.0737 -24.38 -0.0737 -24.38 -50.09 38.13
0.5 -48.75 40.16 -0.08703 -30.41 -0.08703 -30.41 -48.75 40.16
0.6 -47.46 40.67 -0.09997 -36.43 -0.09997 -36.43 -47.46 40.67
0.7 -46.26 39.84 -0.1126 -42.44 -0.1126 -42.44 -46.26 39.84
0.8 -45.19 37.93 -0.125 -48.45 -0.125 -48.45 -45.19 37.93
0.9 -44.25 35.19 -0.1372 -54.45 -0.1372 -54.45 -44.25 35.19
1 -43.43 31.83 -0.1493 -60.45 -0.1493 -60.45 -43.43 31.83
1.1 -42.75 27.98 -0.1613 -66.44 -0.1613 -66.44 -42.75 27.98
1.2 -42.18 23.77 -0.1731 -72.43 -0.1731 -72.43 -42.18 23.77
1.3 -41.72 19.29 -0.1848 -78.41 -0.1848 -78.41 -41.72 19.29
1.4 -41.38 14.59 -0.1964 -84.39 -0.1964 -84.39 -41.38 14.59
1.5 -41.14 9.72 -0.208 -90.37 -0.208 -90.37 -41.14 9.72
1.6 -41.01 4.73 -0.2194 -96.35 -0.2194 -96.35 -41.01 4.73
1.7 -40.98 -0.37 -0.2308 -102.33 -0.2308 -102.33 -40.98 -0.37
1.8 -41.06 -5.53 -0.2422 -108.30 -0.2422 -108.30 -41.06 -5.53
1.9 -41.26 -10.74 -0.2534 -114.27 -0.2534 -114.27 -41.26 -10.74
2 -41.58 -15.99 -0.2646 -120.24 -0.2646 -120.24 -41.58 -15.99
2.1 -42.03 -21.23 -0.2758 -126.21 -0.2758 -126.21 -42.03 -21.23
2.2 -42.64 -26.46 -0.2869 -132.18 -0.2869 -132.18 -42.64 -26.46
2.3 -43.42 -31.63 -0.2979 -138.14 -0.2979 -138.14 -43.42 -31.63
2.4 -44.42 -36.69 -0.3089 -144.11 -0.3089 -144.11 -44.42 -36.69
2.5 -45.7 -41.55 -0.3199 -150.07 -0.3199 -150.07 -45.7 -41.55
2.6 -47.36 -46.05 -0.3308 -156.03 -0.3308 -156.03 -47.36 -46.05
2.7 -49.6 -49.81 -0.3417 -161.99 -0.3417 -161.99 -49.6 -49.81
2.8 -52.82 -51.72 -0.3525 -167.95 -0.3525 -167.95 -52.82 -51.72
2.9 -58.14 -46.88 -0.3633 -173.91 -0.3633 -173.91 -58.14 -46.88
3 -66.49 12.83 -0.3741 -179.87 -0.3741 -179.87 -66.49 12.83
3.1 -58.22 76.63 -0.3849 174.18 -0.3849 174.18 -58.22 76.63
3.2 -52.61 81.95 -0.3957 168.22 -0.3957 168.22 -52.61 81.95
3.3 -49.17 80.10 -0.4064 162.26 -0.4064 162.26 -49.17 80.10
3.4 -46.73 76.33 -0.4172 156.31 -0.4172 156.31 -46.73 76.33
3.5 -44.87 71.76 -0.4279 150.36 -0.4279 150.36 -44.87 71.76
3.6 -43.39 66.81 -0.4386 144.40 -0.4386 144.40 -43.39 66.81
3.7 -42.2 61.63 -0.4493 138.45 -0.4493 138.45 -42.2 61.63
3.8 -41.22 56.31 -0.46 132.50 -0.46 132.50 -41.22 56.31
3.9 -40.41 50.90 -0.4706 126.55 -0.4706 126.55 -40.41 50.90
4 -39.75 45.43 -0.4813 120.60 -0.4813 120.60 -39.75 45.43
4.1 -39.22 39.93 -0.4919 114.65 -0.4919 114.65 -39.22 39.93
4.2 -38.81 34.39 -0.5025 108.70 -0.5025 108.70 -38.81 34.39
4.3 -38.5 28.85 -0.5131 102.75 -0.5131 102.75 -38.5 28.85
4.4 -38.29 23.29 -0.5237 96.80 -0.5237 96.80 -38.29 23.29
4.5 -38.18 17.74 -0.5342 90.86 -0.5342 90.86 -38.18 17.74
4.6 -38.16 12.21 -0.5448 84.91 -0.5448 84.91 -38.16 12.21
4.7 -38.24 6.69 -0.5553 78.96 -0.5553 78.96 -38.24 6.69
4.8 -38.41 1.19 -0.5657 73.02 -0.5657 73.02 -38.41 1.19
4.9 -38.69 -4.26 -0.5761 67.07 -0.5761 67.07 -38.69 -4.26
5 -39.08 -9.65 -0.5865 61.12 -0.5865 61.12 -39.08 -9.65
5.1 -39.6 -14.97 -0.5969 55.18 -0.5969 55.18 -39.6 -14.97
5.2 -40.25 -20.19 -0.6072 49.23 -0.6072 49.23 -40.25 -20.19
5.3 -41.06 -25.25 -0.6175 43.29 -0.6175 43.29 -41.06 -25.25
5.4 -42.07 -30.08 -0.6278 37.35 -0.6278 37.35 -42.07 -30.08
5.5 -43.33 -34.56 -0.6381 31.40 -0.6381 31.40 -43.33 -34.56
5.6 -44.92 -38.44 -0.6484 25.46 -0.6484 25.46 -44.92 -38.44
5.7 -46.99 -41.21 -0.6586 19.51 -0.6586 19.51 -46.99 -41.21
5.8 -49.79 -41.54 -0.6688 13.57 -0.6688 13.57 -49.79 -41.54
5.9 -53.86 -34.90 -0.679 7.62 -0.679 7.62 -53.86 -34.90
6 -59.02 -1.39 -0.6893 1.68 -0.6893 1.68 -59.02 -1.39
6.1 -56.74 55.85 -0.6995 -4.26 -0.6995 -4.26 -56.74 55.85
6.2 -51.71 72.70 -0.7097 -10.21 -0.7097 -10.21 -51.71 72.70
6.3 -48.23 75.19 -0.7199 -16.15 -0.7199 -16.15 -48.23 75.19
6.4 -45.73 73.52 -0.7302 -22.09 -0.7302 -22.09 -45.73 73.52
6.5 -43.84 70.18 -0.7404 -28.04 -0.7404 -28.04 -43.84 70.18
6.6 -42.35 66.03 -0.7506 -33.98 -0.7506 -33.98 -42.35 66.03
6.7 -41.14 61.42 -0.7609 -39.92 -0.7609 -39.92 -41.14 61.42
6.8 -40.15 56.53 -0.7711 -45.87 -0.7711 -45.87 -40.15 56.53
6.9 -39.35 51.46 -0.7814 -51.81 -0.7814 -51.81 -39.35 51.46
7 -38.69 46.28 -0.7916 -57.75 -0.7916 -57.75 -38.69 46.28
7.1 -38.17 41.01 -0.8018 -63.70 -0.8018 -63.70 -38.17 41.01
7.2 -37.75 35.70 -0.8121 -69.64 -0.8121 -69.64 -37.75 35.70
7.3 -37.45 30.35 -0.8223 -75.58 -0.8223 -75.58 -37.45 30.35
7.4 -37.24 24.98 -0.8325 -81.52 -0.8325 -81.52 -37.24 24.98
7.5 -37.13 19.61 -0.8426 -87.46 -0.8426 -87.46 -37.13 19.61
7.6 -37.12 14.24 -0.8528 -93.41 -0.8528 -93.41 -37.12 14.24
7.7 -37.19 8.90 -0.8629 -99.35 -0.8629 -99.35 -37.19 8.90
7.8 -37.36 3.59 -0.873 -105.29 -0.873 -105.29 -37.36 3.59
7.9 -37.64 -1.67 -0.8831 -111.23 -0.8831 -111.23 -37.64 -1.67
8 -38.02 -6.85 -0.8931 -117.17 -0.8931 -117.17 -38.02 -6.85
8.1 -38.51 -11.94 -0.9031 -123.12 -0.9031 -123.12 -38.51 -11.94
8.2 -39.13 -16.89 -0.9131 -129.06 -0.9131 -129.06 -39.13 -16.89
8.3 -39.91 -21.65 -0.9231 -135.00 -0.9231 -135.00 -39.91 -21.65
8.4 -40.87 -26.13 -0.933 -140.94 -0.933 -140.94 -40.87 -26.13
8.5 -42.04 -30.18 -0.943 -146.89 -0.943 -146.89 -42.04 -30.18
8.6 -43.51 -33.52 -0.9529 -152.83 -0.9529 -152.83 -43.51 -33.52
8.7 -45.36 -35.62 -0.9628 -158.77 -0.9628 -158.77 -45.36 -35.62
8.8 -47.76 -35.23 -0.9727 -164.71 -0.9727 -164.71 -47.76 -35.23
8.9 -50.96 -28.97 -0.9826 -170.66 -0.9826 -170.66 -50.96 -28.97
9 -54.66 -6.88 -0.9925 -176.60 -0.9925 -176.60 -54.66 -6.88
9.1 -55 35.89 -1.002 177.45 -1.002 177.45 -55 35.89
9.2 -51.35 60.93 -1.012 171.51 -1.012 171.51 -51.35 60.93
9.3 -48.01 68.36 -1.022 165.57 -1.022 165.57 -48.01 68.36
9.4 -45.49 69.23 -1.032 159.62 -1.032 159.62 -45.49 69.23
9.5 -43.55 67.37 -1.042 153.68 -1.042 153.68 -43.55 67.37
9.6 -42.01 64.18 -1.052 147.73 -1.052 147.73 -42.01 64.18
9.7 -40.77 60.26 -1.062 141.79 -1.062 141.79 -40.77 60.26
9.8 -39.76 55.88 -1.072 135.84 -1.072 135.84 -39.76 55.88
9.9 -38.93 51.23 -1.082 129.90 -1.082 129.90 -38.93 51.23
10 -38.25 46.38 -1.092 123.95 -1.092 123.95 -38.25 46.38
10.1 -37.7 41.40 -1.102 118.01 -1.102 118.01 -37.7 41.40
10.2 -37.28 36.34 -1.112 112.06 -1.112 112.06 -37.28 36.34
10.3 -36.95 31.22 -1.122 106.12 -1.122 106.12 -36.95 31.22
10.4 -36.73 26.06 -1.132 100.17 -1.132 100.17 -36.73 26.06
10.5 -36.61 20.89 -1.142 94.23 -1.142 94.23 -36.61 20.89
10.6 -36.58 15.72 -1.152 88.28 -1.152 88.28 -36.58 15.72
10.7 -36.64 10.56 -1.162 82.34 -1.162 82.34 -36.64 10.56
10.8 -36.79 5.45 -1.172 76.39 -1.172 76.39 -36.79 5.45
10.9 -37.04 0.38 -1.181 70.45 -1.181 70.45 -37.04 0.38
11 -37.39 -4.60 -1.191 64.50 -1.191 64.50 -37.39 -4.60
11.1 -37.86 -9.47 -1.201 58.55 -1.201 58.55 -37.86 -9.47
11.2 -38.45 -14.18 -1.211 52.61 -1.211 52.61 -38.45 -14.18
11.3 -39.18 -18.67 -1.221 46.66 -1.221 46.66 -39.18 -18.67
11.4 -40.07 -22.84 -1.23 40.71 -1.23 40.71 -40.07 -22.84
11.5 -41.16 -26.54 -1.24 34.77 -1.24 34.77 -41.16 -26.54
11.6 -42.51 -29.48 -1.25 28.82 -1.25 28.82 -42.51 -29.48
11.7 -44.17 -31.14 -1.259 22.87 -1.259 22.87 -44.17 -31.14
11.8 -46.26 -30.45 -1.269 16.92 -1.269 16.92 -46.26 -30.45
11.9 -48.87 -24.89 -1.279 10.97 -1.279 10.97 -48.87 -24.89
12 -51.76 -8.69 -1.288 5.02 -1.288 5.02 -51.76 -8.69
12.1 -52.92 22.40 -1.298 -0.93 -1.298 -0.93 -52.92 22.40
12.2 -50.78 49.13 -1.308 -6.88 -1.308 -6.88 -50.78 49.13
12.3 -47.88 60.80 -1.318 -12.83 -1.318 -12.83 -47.88 60.80
12.4 -45.43 64.28 -1.327 -18.78 -1.327 -18.78 -45.43 64.28
12.5 -43.47 64.02 -1.337 -24.73 -1.337 -24.73 -43.47 64.02
12.6 -41.91 61.87 -1.347 -30.68 -1.347 -30.68 -41.91 61.87
12.7 -40.64 58.68 -1.357 -36.63 -1.357 -36.63 -40.64 58.68
12.8 -39.6 54.86 -1.366 -42.58 -1.366 -42.58 -39.6 54.86
12.9 -38.74 50.63 -1.376 -48.53 -1.376 -48.53 -38.74 50.63
13 -38.04 46.13 -1.386 -54.49 -1.386 -54.49 -38.04 46.13
13.1 -37.48 41.46 -1.396 -60.44 -1.396 -60.44 -37.48 41.46
13.2 -37.03 36.65 -1.406 -66.39 -1.406 -66.39 -37.03 36.65
13.3 -36.69 31.76 -1.416 -72.34 -1.416 -72.34 -36.69 31.76
13.4 -36.46 26.81 -1.425 -78.29 -1.425 -78.29 -36.46 26.81
13.5 -36.31 21.84 -1.435 -84.25 -1.435 -84.25 -36.31 21.84
13.6 -36.26 16.86 -1.445 -90.20 -1.445 -90.20 -36.26 16.86
13.7 -36.3 11.89 -1.455 -96.15 -1.455 -96.15 -36.3 11.89
13.8 -36.44 6.96 -1.464 -102.11 -1.464 -102.11 -36.44 6.96
13.9 -36.66 2.08 -1.474 -108.06 -1.474 -108.06 -36.66 2.08
14 -36.99 -2.71 -1.484 -114.01 -1.484 -114.01 -36.99 -2.71
14.1 -37.43 -7.37 -1.493 -119.97 -1.493 -119.97 -37.43 -7.37
14.2 -37.98 -11.87 -1.503 -125.92 -1.503 -125.92 -37.98 -11.87
14.3 -38.67 -16.12 -1.512 -131.88 -1.512 -131.88 -38.67 -16.12
14.4 -39.51 -20.02 -1.522 -137.83 -1.522 -137.83 -39.51 -20.02
14.5 -40.53 -23.42 -1.532 -143.79 -1.532 -143.79 -40.53 -23.42
14.6 -41.76 -26.04 -1.541 -149.75 -1.541 -149.75 -41.76 -26.04
14.7 -43.28 -27.38 -1.551 -155.70 -1.551 -155.70 -43.28 -27.38
14.8 -45.12 -26.52 -1.56 -161.66 -1.56 -161.66 -45.12 -26.52
14.9 -47.33 -21.52 -1.57 -167.62 -1.57 -167.62 -47.33 -21.52
15 -49.68 -8.69 -1.579 -173.58 -1.579 -173.58 -49.68 -8.69
15.1 -51 14.83 -1.589 -179.54 -1.589 -179.54 -51 14.83
15.2 -49.92 39.29 -1.598 174.50 -1.598 174.50 -49.92 39.29
15.3 -47.59 53.37 -1.608 168.54 -1.608 168.54 -47.59 53.37
15.4 -45.33 59.09 -1.617 162.58 -1.617 162.58 -45.33 59.09
15.5 -43.43 60.34 -1.627 156.62 -1.627 156.62 -43.43 60.34
15.6 -41.87 59.23 -1.637 150.66 -1.637 150.66 -41.87 59.23
15.7 -40.59 56.77 -1.646 144.70 -1.646 144.70 -40.59 56.77
15.8 -39.53 53.51 -1.656 138.74 -1.656 138.74 -39.53 53.51
15.9 -38.66 49.72 -1.666 132.78 -1.666 132.78 -38.66 49.72
16 -37.95 45.57 -1.675 126.82 -1.675 126.82 -37.95 45.57
16.1 -37.36 41.19 -1.685 120.85 -1.685 120.85 -37.36 41.19
16.2 -36.9 36.64 -1.695 114.89 -1.695 114.89 -36.9 36.64
16.3 -36.55 31.98 -1.704 108.93 -1.704 108.93 -36.55 31.98
16.4 -36.3 27.25 -1.714 102.97 -1.714 102.97 -36.3 27.25
16.5 -36.14 22.47 -1.724 97.00 -1.724 97.00 -36.14 22.47
16.6 -36.07 17.67 -1.733 91.04 -1.733 91.04 -36.07 17.67
16.7 -36.1 12.88 -1.743 85.08 -1.743 85.08 -36.1 12.88
16.8 -36.21 8.13 -1.752 79.11 -1.752 79.11 -36.21 8.13
16.9 -36.42 3.43 -1.762 73.15 -1.762 73.15 -36.42 3.43
17 -36.73 -1.17 -1.772 67.18 -1.772 67.18 -36.73 -1.17
17.1 -37.14 -5.64 -1.781 61.22 -1.781 61.22 -37.14 -5.64
17.2 -37.66 -9.93 -1.79 55.25 -1.79 55.25 -37.66 -9.93
17.3 -38.31 -13.95 -1.8 49.28 -1.8 49.28 -38.31 -13.95
17.4 -39.1 -17.61 -1.809 43.32 -1.809 43.32 -39.1 -17.61
17.5 -40.06 -20.74 -1.819 37.35 -1.819 37.35 -40.06 -20.74
17.6 -41.22 -23.07 -1.828 31.38 -1.828 31.38 -41.22 -23.07
17.7 -42.6 -24.13 -1.838 25.41 -1.838 25.41 -42.6 -24.13
17.8 -44.26 -23.11 -1.847 19.44 -1.847 19.44 -44.26 -23.11
17.9 -46.18 -18.47 -1.856 13.48 -1.856 13.48 -46.18 -18.47
18 -48.15 -7.66 -1.866 7.50 -1.866 7.50 -48.15 -7.66
