! yapnr rf coupon A: A09 P-MO (variant, family P-MO)
! stackup JLC04161H-7628, nominal parameters; reference planes 10 mm from each end; 50 ohm (renormalized from the line's Zc)
! model: 2D quasi-static RLGC (Djordjevic-Sarkar, Huray roughness, Wheeler loss); generated by python -m yapnr.rf.coupons expected
# GHz S DB R 50
0.1 -39.79 64.18 -0.04484 -8.46 -0.04484 -8.46 -39.79 64.18
0.2 -34.73 61.48 -0.07 -16.74 -0.07 -16.74 -34.73 61.48
0.3 -31.68 56.11 -0.09255 -24.98 -0.09255 -24.98 -31.68 56.11
0.4 -29.56 49.73 -0.1139 -33.19 -0.1139 -33.19 -29.56 49.73
0.5 -28 42.86 -0.1344 -41.38 -0.1344 -41.38 -28 42.86
0.6 -26.82 35.70 -0.1544 -49.56 -0.1544 -49.56 -26.82 35.70
0.7 -25.93 28.36 -0.1737 -57.72 -0.1737 -57.72 -25.93 28.36
0.8 -25.28 20.91 -0.1925 -65.87 -0.1925 -65.87 -25.28 20.91
0.9 -24.84 13.39 -0.2105 -74.01 -0.2105 -74.01 -24.84 13.39
1 -24.59 5.83 -0.2278 -82.15 -0.2278 -82.15 -24.59 5.83
1.1 -24.51 -1.77 -0.2443 -90.28 -0.2443 -90.28 -24.51 -1.77
1.2 -24.6 -9.37 -0.26 -98.40 -0.26 -98.40 -24.6 -9.37
1.3 -24.88 -16.96 -0.2751 -106.52 -0.2751 -106.52 -24.88 -16.96
1.4 -25.34 -24.52 -0.2895 -114.64 -0.2895 -114.64 -25.34 -24.52
1.5 -26.01 -32.04 -0.3034 -122.76 -0.3034 -122.76 -26.01 -32.04
1.6 -26.93 -39.45 -0.317 -130.88 -0.317 -130.88 -26.93 -39.45
1.7 -28.16 -46.71 -0.3304 -139.00 -0.3304 -139.00 -28.16 -46.71
1.8 -29.8 -53.68 -0.3437 -147.13 -0.3437 -147.13 -29.8 -53.68
1.9 -32.04 -60.06 -0.3572 -155.25 -0.3572 -155.25 -32.04 -60.06
2 -35.29 -65.01 -0.371 -163.37 -0.371 -163.37 -35.29 -65.01
2.1 -40.74 -64.62 -0.3852 -171.50 -0.3852 -171.50 -40.74 -64.62
2.2 -51.16 -7.35 -0.3999 -179.62 -0.3999 -179.62 -51.16 -7.35
2.3 -41.41 63.50 -0.4151 172.26 -0.4151 172.26 -41.41 63.50
2.4 -35.64 64.95 -0.4309 164.14 -0.4309 164.14 -35.64 64.95
2.5 -32.27 60.24 -0.4471 156.02 -0.4471 156.02 -32.27 60.24
2.6 -29.97 53.96 -0.4636 147.91 -0.4636 147.91 -29.97 53.96
2.7 -28.29 47.05 -0.4804 139.81 -0.4804 139.81 -28.29 47.05
2.8 -27.04 39.85 -0.4972 131.71 -0.4972 131.71 -27.04 39.85
2.9 -26.09 32.49 -0.5139 123.61 -0.5139 123.61 -26.09 32.49
3 -25.4 25.05 -0.5304 115.52 -0.5304 115.52 -25.4 25.05
3.1 -24.92 17.55 -0.5465 107.44 -0.5465 107.44 -24.92 17.55
3.2 -24.63 10.04 -0.562 99.35 -0.562 99.35 -24.63 10.04
3.3 -24.52 2.53 -0.577 91.27 -0.577 91.27 -24.52 2.53
3.4 -24.58 -4.96 -0.5913 83.19 -0.5913 83.19 -24.58 -4.96
3.5 -24.81 -12.41 -0.6049 75.11 -0.6049 75.11 -24.81 -12.41
3.6 -25.23 -19.78 -0.618 67.03 -0.618 67.03 -25.23 -19.78
3.7 -25.86 -27.05 -0.6307 58.95 -0.6307 58.95 -25.86 -27.05
3.8 -26.72 -34.15 -0.6429 50.87 -0.6429 50.87 -26.72 -34.15
3.9 -27.86 -40.99 -0.655 42.78 -0.655 42.78 -27.86 -40.99
4 -29.38 -47.37 -0.6671 34.69 -0.6671 34.69 -29.38 -47.37
4.1 -31.41 -52.87 -0.6794 26.60 -0.6794 26.60 -31.41 -52.87
4.2 -34.27 -56.42 -0.6919 18.50 -0.6919 18.50 -34.27 -56.42
4.3 -38.64 -54.03 -0.7048 10.40 -0.7048 10.40 -38.64 -54.03
4.4 -45.3 -21.87 -0.7183 2.30 -0.7183 2.30 -45.3 -21.87
4.5 -42.19 46.43 -0.7323 -5.80 -0.7323 -5.80 -42.19 46.43
4.6 -36.45 58.90 -0.7469 -13.89 -0.7469 -13.89 -36.45 58.90
4.7 -32.89 57.74 -0.762 -21.99 -0.762 -21.99 -32.89 57.74
4.8 -30.46 53.16 -0.7776 -30.08 -0.7776 -30.08 -30.46 53.16
4.9 -28.69 47.26 -0.7934 -38.17 -0.7934 -38.17 -28.69 47.26
5 -27.36 40.73 -0.8094 -46.26 -0.8094 -46.26 -27.36 40.73
5.1 -26.36 33.87 -0.8253 -54.34 -0.8253 -54.34 -26.36 33.87
5.2 -25.61 26.82 -0.8411 -62.42 -0.8411 -62.42 -25.61 26.82
5.3 -25.09 19.66 -0.8566 -70.49 -0.8566 -70.49 -25.09 19.66
5.4 -24.76 12.44 -0.8716 -78.56 -0.8716 -78.56 -24.76 12.44
5.5 -24.6 5.20 -0.886 -86.63 -0.886 -86.63 -24.6 5.20
5.6 -24.62 -2.03 -0.8999 -94.70 -0.8999 -94.70 -24.62 -2.03
5.7 -24.81 -9.21 -0.9131 -102.76 -0.9131 -102.76 -24.81 -9.21
5.8 -25.18 -16.31 -0.9258 -110.83 -0.9258 -110.83 -25.18 -16.31
5.9 -25.75 -23.29 -0.938 -118.90 -0.938 -118.90 -25.75 -23.29
6 -26.53 -30.06 -0.9498 -126.98 -0.9498 -126.98 -26.53 -30.06
6.1 -27.58 -36.50 -0.9614 -135.05 -0.9614 -135.05 -27.58 -36.50
6.2 -28.97 -42.40 -0.973 -143.14 -0.973 -143.14 -28.97 -42.40
6.3 -30.8 -47.31 -0.9846 -151.22 -0.9846 -151.22 -30.8 -47.31
6.4 -33.29 -50.15 -0.9965 -159.31 -0.9965 -159.31 -33.29 -50.15
6.5 -36.83 -47.69 -1.009 -167.40 -1.009 -167.40 -36.83 -47.69
6.6 -41.68 -27.06 -1.022 -175.49 -1.022 -175.49 -41.68 -27.06
6.7 -42.12 26.68 -1.035 176.42 -1.035 176.42 -42.12 26.68
6.8 -37.26 50.61 -1.049 168.32 -1.049 168.32 -37.26 50.61
6.9 -33.6 54.00 -1.063 160.23 -1.063 160.23 -33.6 54.00
7 -31.04 51.51 -1.078 152.14 -1.078 152.14 -31.04 51.51
7.1 -29.17 46.80 -1.093 144.06 -1.093 144.06 -29.17 46.80
7.2 -27.76 41.05 -1.109 135.97 -1.109 135.97 -27.76 41.05
7.3 -26.69 34.75 -1.124 127.89 -1.124 127.89 -26.69 34.75
7.4 -25.89 28.13 -1.14 119.82 -1.14 119.82 -25.89 28.13
7.5 -25.32 21.33 -1.155 111.75 -1.155 111.75 -25.32 21.33
7.6 -24.94 14.41 -1.169 103.68 -1.169 103.68 -24.94 14.41
7.7 -24.74 7.45 -1.184 95.61 -1.184 95.61 -24.74 7.45
7.8 -24.71 0.49 -1.197 87.54 -1.197 87.54 -24.71 0.49
7.9 -24.86 -6.44 -1.21 79.48 -1.21 79.48 -24.86 -6.44
8 -25.17 -13.29 -1.223 71.41 -1.223 71.41 -25.17 -13.29
8.1 -25.68 -19.99 -1.235 63.34 -1.235 63.34 -25.68 -19.99
8.2 -26.39 -26.47 -1.246 55.27 -1.246 55.27 -26.39 -26.47
8.3 -27.35 -32.59 -1.258 47.19 -1.258 47.19 -27.35 -32.59
8.4 -28.61 -38.13 -1.269 39.11 -1.269 39.11 -28.61 -38.13
8.5 -30.26 -42.64 -1.28 31.03 -1.28 31.03 -30.26 -42.64
8.6 -32.44 -45.15 -1.292 22.94 -1.292 22.94 -32.44 -45.15
8.7 -35.4 -43.12 -1.303 14.85 -1.303 14.85 -35.4 -43.12
8.8 -39.19 -28.75 -1.316 6.76 -1.316 6.76 -39.19 -28.75
8.9 -41.05 10.16 -1.329 -1.34 -1.329 -1.34 -41.05 10.16
9 -37.81 40.65 -1.342 -9.43 -1.342 -9.43 -37.81 40.65
9.1 -34.27 49.16 -1.356 -17.53 -1.356 -17.53 -34.27 49.16
9.2 -31.63 49.14 -1.37 -25.62 -1.37 -25.62 -31.63 49.14
9.3 -29.67 45.80 -1.385 -33.71 -1.385 -33.71 -29.67 45.80
9.4 -28.19 40.93 -1.4 -41.79 -1.4 -41.79 -28.19 40.93
9.5 -27.06 35.25 -1.415 -49.88 -1.415 -49.88 -27.06 35.25
9.6 -26.2 29.09 -1.43 -57.96 -1.43 -57.96 -26.2 29.09
9.7 -25.58 22.66 -1.445 -66.03 -1.445 -66.03 -25.58 22.66
9.8 -25.15 16.07 -1.459 -74.11 -1.459 -74.11 -25.15 16.07
9.9 -24.91 9.39 -1.473 -82.18 -1.473 -82.18 -24.91 9.39
10 -24.84 2.68 -1.487 -90.25 -1.487 -90.25 -24.84 2.68
10.1 -24.93 -4.01 -1.5 -98.32 -1.5 -98.32 -24.93 -4.01
10.2 -25.2 -10.61 -1.512 -106.39 -1.512 -106.39 -25.2 -10.61
10.3 -25.65 -17.07 -1.524 -114.47 -1.524 -114.47 -25.65 -17.07
10.4 -26.29 -23.29 -1.535 -122.54 -1.535 -122.54 -26.29 -23.29
10.5 -27.17 -29.14 -1.547 -130.62 -1.547 -130.62 -27.17 -29.14
10.6 -28.31 -34.39 -1.558 -138.71 -1.558 -138.71 -28.31 -34.39
10.7 -29.8 -38.62 -1.569 -146.79 -1.569 -146.79 -29.8 -38.62
10.8 -31.74 -40.97 -1.58 -154.88 -1.58 -154.88 -31.74 -40.97
10.9 -34.26 -39.42 -1.591 -162.98 -1.591 -162.98 -34.26 -39.42
11 -37.38 -28.82 -1.603 -171.08 -1.603 -171.08 -37.38 -28.82
11.1 -39.59 -0.67 -1.616 -179.17 -1.616 -179.17 -39.59 -0.67
11.2 -37.94 30.28 -1.629 172.73 -1.629 172.73 -37.94 30.28
11.3 -34.8 43.45 -1.642 164.63 -1.642 164.63 -34.8 43.45
11.4 -32.17 46.11 -1.656 156.53 -1.656 156.53 -32.17 46.11
11.5 -30.16 44.31 -1.67 148.43 -1.67 148.43 -30.16 44.31
11.6 -28.61 40.40 -1.685 140.34 -1.685 140.34 -28.61 40.40
11.7 -27.43 35.37 -1.7 132.25 -1.7 132.25 -27.43 35.37
11.8 -26.52 29.72 -1.715 124.16 -1.715 124.16 -26.52 29.72
11.9 -25.85 23.67 -1.729 116.08 -1.729 116.08 -25.85 23.67
12 -25.38 17.40 -1.743 108.00 -1.743 108.00 -25.38 17.40
12.1 -25.1 11.01 -1.757 99.92 -1.757 99.92 -25.1 11.01
12.2 -24.98 4.55 -1.771 91.84 -1.771 91.84 -24.98 4.55
12.3 -25.03 -1.89 -1.783 83.76 -1.783 83.76 -25.03 -1.89
12.4 -25.25 -8.27 -1.796 75.68 -1.796 75.68 -25.25 -8.27
12.5 -25.65 -14.50 -1.808 67.60 -1.808 67.60 -25.65 -14.50
12.6 -26.23 -20.49 -1.819 59.51 -1.819 59.51 -26.23 -20.49
12.7 -27.03 -26.10 -1.83 51.43 -1.83 51.43 -27.03 -26.10
12.8 -28.08 -31.11 -1.841 43.34 -1.841 43.34 -28.08 -31.11
12.9 -29.43 -35.12 -1.852 35.24 -1.852 35.24 -29.43 -35.12
13 -31.16 -37.36 -1.863 27.14 -1.863 27.14 -31.16 -37.36
13.1 -33.37 -36.23 -1.874 19.04 -1.874 19.04 -33.37 -36.23
13.2 -36.01 -28.05 -1.886 10.94 -1.886 10.94 -36.01 -28.05
13.3 -38.18 -6.97 -1.898 2.83 -1.898 2.83 -38.18 -6.97
13.4 -37.66 20.99 -1.911 -5.28 -1.911 -5.28 -37.66 20.99
13.5 -35.13 37.31 -1.924 -13.38 -1.924 -13.38 -35.13 37.31
13.6 -32.62 42.58 -1.937 -21.49 -1.937 -21.49 -32.62 42.58
13.7 -30.59 42.36 -1.951 -29.60 -1.951 -29.60 -30.59 42.36
13.8 -29.01 39.47 -1.966 -37.70 -1.966 -37.70 -29.01 39.47
13.9 -27.78 35.14 -1.98 -45.80 -1.98 -45.80 -27.78 35.14
14 -26.83 30.00 -1.994 -53.90 -1.994 -53.90 -26.83 30.00
14.1 -26.12 24.36 -2.009 -61.99 -2.009 -61.99 -26.12 24.36
14.2 -25.61 18.42 -2.023 -70.08 -2.023 -70.08 -25.61 18.42
14.3 -25.29 12.31 -2.037 -78.17 -2.037 -78.17 -25.29 12.31
14.4 -25.13 6.11 -2.05 -86.26 -2.05 -86.26 -25.13 6.11
14.5 -25.15 -0.10 -2.063 -94.35 -2.063 -94.35 -25.15 -0.10
14.6 -25.32 -6.26 -2.075 -102.44 -2.075 -102.44 -25.32 -6.26
14.7 -25.67 -12.27 -2.087 -110.53 -2.087 -110.53 -25.67 -12.27
14.8 -26.2 -18.04 -2.098 -118.62 -2.098 -118.62 -26.2 -18.04
14.9 -26.94 -23.43 -2.109 -126.72 -2.109 -126.72 -26.94 -23.43
15 -27.9 -28.22 -2.12 -134.82 -2.12 -134.82 -27.9 -28.22
15.1 -29.14 -32.04 -2.131 -142.92 -2.131 -142.92 -29.14 -32.04
15.2 -30.71 -34.21 -2.142 -151.03 -2.142 -151.03 -30.71 -34.21
15.3 -32.67 -33.38 -2.153 -159.14 -2.153 -159.14 -32.67 -33.38
15.4 -34.96 -26.81 -2.164 -167.26 -2.164 -167.26 -34.96 -26.81
15.5 -36.97 -10.35 -2.176 -175.37 -2.176 -175.37 -36.97 -10.35
15.6 -37.11 13.68 -2.188 176.51 -2.188 176.51 -37.11 13.68
15.7 -35.22 31.32 -2.201 168.39 -2.201 168.39 -35.22 31.32
15.8 -32.93 38.76 -2.215 160.28 -2.215 160.28 -32.93 38.76
15.9 -30.94 40.07 -2.228 152.16 -2.228 152.16 -30.94 40.07
16 -29.35 38.20 -2.242 144.05 -2.242 144.05 -29.35 38.20
16.1 -28.09 34.58 -2.256 135.93 -2.256 135.93 -28.09 34.58
16.2 -27.11 29.96 -2.271 127.82 -2.271 127.82 -27.11 29.96
16.3 -26.37 24.73 -2.285 119.72 -2.285 119.72 -26.37 24.73
16.4 -25.83 19.13 -2.299 111.61 -2.299 111.61 -25.83 19.13
16.5 -25.48 13.30 -2.312 103.51 -2.312 103.51 -25.48 13.30
16.6 -25.29 7.35 -2.325 95.41 -2.325 95.41 -25.29 7.35
16.7 -25.27 1.37 -2.338 87.31 -2.338 87.31 -25.27 1.37
16.8 -25.41 -4.57 -2.35 79.21 -2.35 79.21 -25.41 -4.57
16.9 -25.72 -10.37 -2.362 71.11 -2.362 71.11 -25.72 -10.37
17 -26.21 -15.93 -2.374 63.00 -2.374 63.00 -26.21 -15.93
17.1 -26.88 -21.11 -2.385 54.89 -2.385 54.89 -26.88 -21.11
17.2 -27.78 -25.70 -2.395 46.78 -2.395 46.78 -27.78 -25.70
17.3 -28.92 -29.34 -2.406 38.67 -2.406 38.67 -28.92 -29.34
17.4 -30.36 -31.42 -2.417 30.55 -2.417 30.55 -30.36 -31.42
17.5 -32.12 -30.79 -2.428 22.43 -2.428 22.43 -32.12 -30.79
17.6 -34.14 -25.30 -2.439 14.30 -2.439 14.30 -34.14 -25.30
17.7 -35.97 -11.92 -2.451 6.17 -2.451 6.17 -35.97 -11.92
17.8 -36.45 8.49 -2.463 -1.95 -2.463 -1.95 -36.45 8.49
17.9 -35.12 25.98 -2.475 -10.08 -2.475 -10.08 -35.12 25.98
18 -33.1 34.93 -2.488 -18.21 -2.488 -18.21 -33.1 34.93
