! yapnr rf coupon A: A10 P0.7 (variant, family P0.7)
! stackup JLC04161H-7628, nominal parameters; reference planes 10 mm from each end; 50 ohm (renormalized from the line's Zc)
! model: 2D quasi-static RLGC (Djordjevic-Sarkar, Huray roughness, Wheeler loss); generated by python -m yapnr.rf.coupons expected
# GHz S DB R 50
0.1 -32.04 73.65 -0.04945 -8.91 -0.04945 -8.91 -32.04 73.65
0.2 -26.44 67.64 -0.08175 -17.62 -0.08175 -17.62 -26.44 67.64
0.3 -23.22 60.25 -0.1145 -26.28 -0.1145 -26.28 -23.22 60.25
0.4 -21.04 52.44 -0.1484 -34.88 -0.1484 -34.88 -21.04 52.44
0.5 -19.46 44.45 -0.1827 -43.44 -0.1827 -43.44 -19.46 44.45
0.6 -18.29 36.39 -0.2167 -51.96 -0.2167 -51.96 -18.29 36.39
0.7 -17.44 28.30 -0.249 -60.44 -0.249 -60.44 -17.44 28.30
0.8 -16.85 20.21 -0.2787 -68.88 -0.2787 -68.88 -16.85 20.21
0.9 -16.47 12.13 -0.3049 -77.30 -0.3049 -77.30 -16.47 12.13
1 -16.28 4.06 -0.3269 -85.70 -0.3269 -85.70 -16.28 4.06
1.1 -16.29 -3.99 -0.3444 -94.09 -0.3444 -94.09 -16.29 -3.99
1.2 -16.48 -12.01 -0.3574 -102.48 -0.3574 -102.48 -16.48 -12.01
1.3 -16.87 -20.00 -0.3663 -110.88 -0.3663 -110.88 -16.87 -20.00
1.4 -17.47 -27.94 -0.3718 -119.29 -0.3718 -119.29 -17.47 -27.94
1.5 -18.33 -35.81 -0.3749 -127.73 -0.3749 -127.73 -18.33 -35.81
1.6 -19.49 -43.53 -0.3767 -136.19 -0.3767 -136.19 -19.49 -43.53
1.7 -21.05 -51.01 -0.3787 -144.67 -0.3787 -144.67 -21.05 -51.01
1.8 -23.2 -57.97 -0.3819 -153.18 -0.3819 -153.18 -23.2 -57.97
1.9 -26.31 -63.66 -0.3877 -161.71 -0.3877 -161.71 -26.31 -63.66
2 -31.46 -64.88 -0.397 -170.25 -0.397 -170.25 -31.46 -64.88
2.1 -42.09 -22.10 -0.4103 -178.80 -0.4103 -178.80 -42.09 -22.10
2.2 -33.62 62.53 -0.4279 172.65 -0.4279 172.65 -33.62 62.53
2.3 -27.47 64.70 -0.4497 164.11 -0.4497 164.11 -27.47 64.70
2.4 -23.98 59.72 -0.4753 155.58 -0.4753 155.58 -23.98 59.72
2.5 -21.64 53.06 -0.5036 147.08 -0.5036 147.08 -21.64 53.06
2.6 -19.95 45.77 -0.5338 138.61 -0.5338 138.61 -19.95 45.77
2.7 -18.71 38.21 -0.5645 130.17 -0.5645 130.17 -18.71 38.21
2.8 -17.8 30.51 -0.5945 121.76 -0.5945 121.76 -17.8 30.51
2.9 -17.14 22.75 -0.6227 113.37 -0.6227 113.37 -17.14 22.75
3 -16.71 14.96 -0.6479 105.01 -0.6479 105.01 -16.71 14.96
3.1 -16.48 7.18 -0.6694 96.66 -0.6694 96.66 -16.48 7.18
3.2 -16.43 -0.59 -0.6868 88.32 -0.6868 88.32 -16.43 -0.59
3.3 -16.57 -8.32 -0.6999 79.98 -0.6999 79.98 -16.57 -8.32
3.4 -16.9 -15.99 -0.709 71.63 -0.709 71.63 -16.9 -15.99
3.5 -17.43 -23.59 -0.7147 63.27 -0.7147 63.27 -17.43 -23.59
3.6 -18.2 -31.05 -0.7177 54.89 -0.7177 54.89 -18.2 -31.05
3.7 -19.24 -38.29 -0.7192 46.48 -0.7192 46.48 -19.24 -38.29
3.8 -20.64 -45.15 -0.7204 38.04 -0.7204 38.04 -20.64 -45.15
3.9 -22.54 -51.28 -0.7224 29.58 -0.7224 29.58 -22.54 -51.28
4 -25.18 -55.81 -0.7265 21.10 -0.7265 21.10 -25.18 -55.81
4.1 -29.17 -55.76 -0.7336 12.60 -0.7336 12.60 -29.17 -55.76
4.2 -35.61 -34.69 -0.7445 4.08 -0.7445 4.08 -35.61 -34.69
4.3 -35.22 38.40 -0.7595 -4.43 -0.7595 -4.43 -35.22 38.40
4.4 -28.93 57.10 -0.7786 -12.95 -0.7786 -12.95 -28.93 57.10
4.5 -25.06 56.76 -0.8014 -21.45 -0.8014 -21.45 -25.06 56.76
4.6 -22.49 52.16 -0.8274 -29.93 -0.8274 -29.93 -22.49 52.16
4.7 -20.64 46.06 -0.8555 -38.39 -0.8555 -38.39 -20.64 46.06
4.8 -19.28 39.27 -0.8846 -46.82 -0.8846 -46.82 -19.28 39.27
4.9 -18.27 32.14 -0.9136 -55.22 -0.9136 -55.22 -18.27 32.14
5 -17.54 24.83 -0.9412 -63.60 -0.9412 -63.60 -17.54 24.83
5.1 -17.04 17.42 -0.9664 -71.96 -0.9664 -71.96 -17.04 17.42
5.2 -16.74 9.97 -0.9884 -80.30 -0.9884 -80.30 -16.74 9.97
5.3 -16.62 2.52 -1.007 -88.62 -1.007 -88.62 -16.62 2.52
5.4 -16.69 -4.91 -1.021 -96.95 -1.021 -96.95 -16.69 -4.91
5.5 -16.95 -12.29 -1.031 -105.28 -1.031 -105.28 -16.95 -12.29
5.6 -17.4 -19.56 -1.038 -113.63 -1.038 -113.63 -17.4 -19.56
5.7 -18.07 -26.68 -1.042 -121.99 -1.042 -121.99 -18.07 -26.68
5.8 -18.99 -33.55 -1.044 -130.37 -1.044 -130.37 -18.99 -33.55
5.9 -20.23 -39.97 -1.045 -138.78 -1.045 -138.78 -20.23 -39.97
6 -21.88 -45.61 -1.047 -147.22 -1.047 -147.22 -21.88 -45.61
6.1 -24.11 -49.66 -1.05 -155.68 -1.05 -155.68 -24.11 -49.66
6.2 -27.27 -49.88 -1.056 -164.16 -1.056 -164.16 -27.27 -49.88
6.3 -31.81 -37.97 -1.065 -172.65 -1.065 -172.65 -31.81 -37.97
6.4 -34.79 9.47 -1.078 178.85 -1.078 178.85 -34.79 9.47
6.5 -30.37 45.41 -1.095 170.35 -1.095 170.35 -30.37 45.41
6.6 -26.28 52.11 -1.115 161.85 -1.115 161.85 -26.28 52.11
6.7 -23.45 50.41 -1.139 153.38 -1.139 153.38 -23.45 50.41
6.8 -21.43 45.84 -1.165 144.92 -1.165 144.92 -21.43 45.84
6.9 -19.93 40.00 -1.193 136.49 -1.193 136.49 -19.93 40.00
7 -18.82 33.53 -1.221 128.08 -1.221 128.08 -18.82 33.53
7.1 -17.99 26.72 -1.248 119.70 -1.248 119.70 -17.99 26.72
7.2 -17.41 19.72 -1.273 111.34 -1.273 111.34 -17.41 19.72
7.3 -17.03 12.61 -1.296 103.00 -1.296 103.00 -17.03 12.61
7.4 -16.85 5.46 -1.315 94.66 -1.315 94.66 -16.85 5.46
7.5 -16.85 -1.69 -1.331 86.34 -1.331 86.34 -16.85 -1.69
7.6 -17.03 -8.78 -1.342 78.01 -1.342 78.01 -17.03 -8.78
7.7 -17.4 -15.78 -1.35 69.68 -1.35 69.68 -17.4 -15.78
7.8 -17.97 -22.61 -1.356 61.32 -1.356 61.32 -17.97 -22.61
7.9 -18.78 -29.18 -1.359 52.95 -1.359 52.95 -18.78 -29.18
8 -19.86 -35.30 -1.361 44.55 -1.361 44.55 -19.86 -35.30
8.1 -21.29 -40.64 -1.362 36.13 -1.362 36.13 -21.29 -40.64
8.2 -23.2 -44.53 -1.365 27.69 -1.365 27.69 -23.2 -44.53
8.3 -25.77 -45.32 -1.37 19.22 -1.37 19.22 -25.77 -45.32
8.4 -29.25 -38.22 -1.378 10.74 -1.378 10.74 -29.25 -38.22
8.5 -32.69 -10.22 -1.389 2.25 -1.389 2.25 -32.69 -10.22
8.6 -31.25 29.63 -1.404 -6.24 -1.404 -6.24 -31.25 29.63
8.7 -27.45 45.22 -1.422 -14.73 -1.422 -14.73 -27.45 45.22
8.8 -24.46 47.48 -1.444 -23.21 -1.444 -23.21 -24.46 47.48
8.9 -22.26 44.90 -1.468 -31.67 -1.468 -31.67 -22.26 44.90
9 -20.63 40.25 -1.495 -40.11 -1.495 -40.11 -20.63 40.25
9.1 -19.4 34.56 -1.521 -48.53 -1.521 -48.53 -19.4 34.56
9.2 -18.48 28.32 -1.548 -56.92 -1.548 -56.92 -18.48 28.32
9.3 -17.81 21.75 -1.573 -65.29 -1.573 -65.29 -17.81 21.75
9.4 -17.36 15.01 -1.596 -73.64 -1.596 -73.64 -17.36 15.01
9.5 -17.11 8.17 -1.616 -81.98 -1.616 -81.98 -17.11 8.17
9.6 -17.03 1.30 -1.633 -90.31 -1.633 -90.31 -17.03 1.30
9.7 -17.14 -5.53 -1.646 -98.64 -1.646 -98.64 -17.14 -5.53
9.8 -17.43 -12.27 -1.655 -106.98 -1.655 -106.98 -17.43 -12.27
9.9 -17.91 -18.86 -1.662 -115.33 -1.662 -115.33 -17.91 -18.86
10 -18.6 -25.18 -1.666 -123.69 -1.666 -123.69 -18.6 -25.18
10.1 -19.55 -31.06 -1.669 -132.08 -1.669 -132.08 -19.55 -31.06
10.2 -20.8 -36.21 -1.671 -140.49 -1.671 -140.49 -20.8 -36.21
10.3 -22.44 -40.07 -1.674 -148.93 -1.674 -148.93 -22.44 -40.07
10.4 -24.6 -41.40 -1.678 -157.38 -1.678 -157.38 -24.6 -41.40
10.5 -27.39 -37.18 -1.684 -165.86 -1.684 -165.86 -27.39 -37.18
10.6 -30.47 -20.04 -1.694 -174.34 -1.694 -174.34 -30.47 -20.04
10.7 -31.13 13.07 -1.707 177.17 -1.707 177.17 -31.13 13.07
10.8 -28.38 35.99 -1.724 168.68 -1.724 168.68 -28.38 35.99
10.9 -25.42 43.13 -1.744 160.20 -1.744 160.20 -25.42 43.13
11 -23.1 43.08 -1.766 151.73 -1.766 151.73 -23.1 43.08
11.1 -21.34 39.88 -1.791 143.28 -1.791 143.28 -21.34 39.88
11.2 -20 35.13 -1.817 134.85 -1.817 134.85 -20 35.13
11.3 -18.99 29.54 -1.843 126.45 -1.843 126.45 -18.99 29.54
11.4 -18.24 23.46 -1.868 118.06 -1.868 118.06 -18.24 23.46
11.5 -17.71 17.10 -1.891 109.70 -1.891 109.70 -17.71 17.10
11.6 -17.38 10.59 -1.912 101.35 -1.912 101.35 -17.38 10.59
11.7 -17.24 4.01 -1.929 93.01 -1.929 93.01 -17.24 4.01
11.8 -17.27 -2.56 -1.943 84.67 -1.943 84.67 -17.27 -2.56
11.9 -17.49 -9.07 -1.954 76.33 -1.954 76.33 -17.49 -9.07
12 -17.88 -15.43 -1.962 67.98 -1.962 67.98 -17.88 -15.43
12.1 -18.48 -21.53 -1.967 59.61 -1.967 59.61 -18.48 -21.53
12.2 -19.31 -27.22 -1.971 51.22 -1.971 51.22 -19.31 -27.22
12.3 -20.4 -32.24 -1.974 42.82 -1.974 42.82 -20.4 -32.24
12.4 -21.83 -36.11 -1.977 34.39 -1.977 34.39 -21.83 -36.11
12.5 -23.66 -37.88 -1.981 25.94 -1.981 25.94 -23.66 -37.88
12.6 -25.99 -35.50 -1.986 17.47 -1.986 17.47 -25.99 -35.50
12.7 -28.64 -24.47 -1.995 8.99 -1.995 8.99 -28.64 -24.47
12.8 -30.22 -0.06 -2.007 0.50 -2.007 0.50 -30.22 -0.06
12.9 -28.87 25.28 -2.022 -7.99 -2.022 -7.99 -28.87 25.28
13 -26.25 37.37 -2.04 -16.48 -2.04 -16.48 -26.25 37.37
13.1 -23.9 40.30 -2.061 -24.95 -2.061 -24.95 -23.9 40.30
13.2 -22.04 38.84 -2.084 -33.41 -2.084 -33.41 -22.04 38.84
13.3 -20.6 35.18 -2.109 -41.85 -2.109 -41.85 -20.6 35.18
13.4 -19.5 30.33 -2.134 -50.27 -2.134 -50.27 -19.5 30.33
13.5 -18.67 24.80 -2.158 -58.67 -2.158 -58.67 -18.67 24.80
13.6 -18.07 18.87 -2.181 -67.05 -2.181 -67.05 -18.07 18.87
13.7 -17.68 12.70 -2.203 -75.42 -2.203 -75.42 -17.68 12.70
13.8 -17.47 6.41 -2.221 -83.77 -2.221 -83.77 -17.47 6.41
13.9 -17.43 0.10 -2.236 -92.12 -2.236 -92.12 -17.43 0.10
14 -17.57 -6.18 -2.248 -100.47 -2.248 -100.47 -17.57 -6.18
14.1 -17.89 -12.32 -2.257 -108.83 -2.257 -108.83 -17.89 -12.32
14.2 -18.4 -18.23 -2.264 -117.20 -2.264 -117.20 -18.4 -18.23
14.3 -19.12 -23.76 -2.269 -125.58 -2.269 -125.58 -19.12 -23.76
14.4 -20.08 -28.66 -2.272 -133.99 -2.272 -133.99 -20.08 -28.66
14.5 -21.33 -32.55 -2.275 -142.41 -2.275 -142.41 -21.33 -32.55
14.6 -22.92 -34.66 -2.279 -150.86 -2.279 -150.86 -22.92 -34.66
14.7 -24.9 -33.52 -2.284 -159.33 -2.284 -159.33 -24.9 -33.52
14.8 -27.18 -26.16 -2.292 -167.81 -2.292 -167.81 -27.18 -26.16
14.9 -29.02 -8.65 -2.302 -176.30 -2.302 -176.30 -29.02 -8.65
15 -28.83 14.79 -2.316 175.21 -2.316 175.21 -28.83 14.79
15.1 -26.83 30.52 -2.333 166.71 -2.333 166.71 -26.83 30.52
15.2 -24.6 36.59 -2.352 158.23 -2.352 158.23 -24.6 36.59
15.3 -22.7 37.09 -2.374 149.76 -2.374 149.76 -22.7 37.09
15.4 -21.19 34.67 -2.397 141.31 -2.397 141.31 -21.19 34.67
15.5 -20.01 30.67 -2.422 132.87 -2.422 132.87 -20.01 30.67
15.6 -19.11 25.74 -2.446 124.46 -2.446 124.46 -19.11 25.74
15.7 -18.44 20.27 -2.469 116.06 -2.469 116.06 -18.44 20.27
15.8 -17.98 14.47 -2.49 107.68 -2.49 107.68 -17.98 14.47
15.9 -17.71 8.49 -2.509 99.31 -2.509 99.31 -17.71 8.49
16 -17.61 2.43 -2.525 90.95 -2.525 90.95 -17.61 2.43
16.1 -17.69 -3.61 -2.538 82.59 -2.538 82.59 -17.69 -3.61
16.2 -17.93 -9.54 -2.549 74.22 -2.549 74.22 -17.93 -9.54
16.3 -18.36 -15.27 -2.556 65.84 -2.556 65.84 -18.36 -15.27
16.4 -18.99 -20.64 -2.562 57.45 -2.562 57.45 -18.99 -20.64
16.5 -19.84 -25.44 -2.566 49.05 -2.566 49.05 -19.84 -25.44
16.6 -20.94 -29.33 -2.57 40.62 -2.57 40.62 -20.94 -29.33
16.7 -22.33 -31.70 -2.574 32.17 -2.574 32.17 -22.33 -31.70
16.8 -24.05 -31.42 -2.579 23.70 -2.579 23.70 -24.05 -31.42
16.9 -26.04 -26.41 -2.586 15.22 -2.586 15.22 -26.04 -26.41
17 -27.85 -13.71 -2.595 6.73 -2.595 6.73 -27.85 -13.71
17.1 -28.38 6.03 -2.608 -1.77 -2.608 -1.77 -28.38 6.03
17.2 -27.12 23.27 -2.623 -10.27 -2.623 -10.27 -27.12 23.27
17.3 -25.15 32.14 -2.641 -18.76 -2.641 -18.76 -25.15 32.14
17.4 -23.28 34.70 -2.661 -27.24 -2.661 -27.24 -23.28 34.70
17.5 -21.73 33.64 -2.684 -35.71 -2.684 -35.71 -21.73 33.64
17.6 -20.49 30.55 -2.707 -44.16 -2.707 -44.16 -20.49 30.55
17.7 -19.53 26.28 -2.731 -52.59 -2.731 -52.59 -19.53 26.28
17.8 -18.81 21.30 -2.753 -61.01 -2.753 -61.01 -18.81 21.30
17.9 -18.29 15.89 -2.775 -69.40 -2.775 -69.40 -18.29 15.89
18 -17.96 10.23 -2.794 -77.79 -2.794 -77.79 -17.96 10.23
