! yapnr rf coupon A A11: A11 P1.4 (variant, family P1.4)
! stackup JLC04161H-7628, nominal parameters; reference planes 10 mm from each end; 50 ohm (renormalized from the line's Zc)
! model: 2D quasi-static RLGC (Djordjevic-Sarkar, Huray roughness, Wheeler loss); generated by python -m yapnr.rf.coupons expected
# GHz S DB R 50
0.1 -32.28 -96.16 -0.0392 -9.06 -0.0392 -9.06 -32.28 -96.16
0.2 -26.37 -106.83 -0.06996 -17.94 -0.06996 -17.94 -26.37 -106.83
0.3 -23.08 -116.39 -0.1027 -26.77 -0.1027 -26.77 -23.08 -116.39
0.4 -20.88 -125.56 -0.1371 -35.53 -0.1371 -35.53 -20.88 -125.56
0.5 -19.32 -134.52 -0.1721 -44.25 -0.1721 -44.25 -19.32 -134.52
0.6 -18.19 -143.34 -0.2063 -52.93 -0.2063 -52.93 -18.19 -143.34
0.7 -17.37 -152.05 -0.2385 -61.56 -0.2385 -61.56 -17.37 -152.05
0.8 -16.82 -160.68 -0.2674 -70.16 -0.2674 -70.16 -16.82 -160.68
0.9 -16.48 -169.23 -0.2922 -78.73 -0.2922 -78.73 -16.48 -169.23
1 -16.35 -177.72 -0.3123 -87.29 -0.3123 -87.29 -16.35 -177.72
1.1 -16.42 173.85 -0.3275 -95.84 -0.3275 -95.84 -16.42 173.85
1.2 -16.68 165.46 -0.3381 -104.39 -0.3381 -104.39 -16.68 165.46
1.3 -17.14 157.13 -0.3448 -112.96 -0.3448 -112.96 -17.14 157.13
1.4 -17.84 148.87 -0.3483 -121.55 -0.3483 -121.55 -17.84 148.87
1.5 -18.81 140.71 -0.3501 -130.16 -0.3501 -130.16 -18.81 140.71
1.6 -20.13 132.71 -0.3512 -138.79 -0.3512 -138.79 -20.13 132.71
1.7 -21.9 125.03 -0.3533 -147.45 -0.3533 -147.45 -21.9 125.03
1.8 -24.38 118.02 -0.3573 -156.14 -0.3573 -156.14 -24.38 118.02
1.9 -28.13 112.84 -0.3646 -164.84 -0.3646 -164.84 -28.13 112.84
2 -35.01 116.32 -0.3757 -173.55 -0.3757 -173.55 -35.01 116.32
2.1 -41.08 -141.91 -0.3912 177.73 -0.3912 177.73 -41.08 -141.91
2.2 -30.81 -115.63 -0.4108 169.02 -0.4108 169.02 -30.81 -115.63
2.3 -26.05 -118.54 -0.4343 160.33 -0.4343 160.33 -26.05 -118.54
2.4 -23.13 -124.84 -0.4609 151.66 -0.4609 151.66 -23.13 -124.84
2.5 -21.11 -132.15 -0.4894 143.01 -0.4894 143.01 -21.11 -132.15
2.6 -19.65 -139.85 -0.5187 134.39 -0.5187 134.39 -19.65 -139.85
2.7 -18.58 -147.75 -0.5476 125.80 -0.5476 125.80 -18.58 -147.75
2.8 -17.8 -155.73 -0.5749 117.24 -0.5749 117.24 -17.8 -155.73
2.9 -17.28 -163.75 -0.5994 108.70 -0.5994 108.70 -17.28 -163.75
3 -16.97 -171.77 -0.6205 100.18 -0.6205 100.18 -16.97 -171.77
3.1 -16.85 -179.79 -0.6377 91.66 -0.6377 91.66 -16.85 -179.79
3.2 -16.93 172.23 -0.6508 83.15 -0.6508 83.15 -16.93 172.23
3.3 -17.21 164.29 -0.6601 74.62 -0.6601 74.62 -17.21 164.29
3.4 -17.69 156.41 -0.6661 66.09 -0.6661 66.09 -17.69 156.41
3.5 -18.4 148.66 -0.6696 57.53 -0.6696 57.53 -18.4 148.66
3.6 -19.39 141.08 -0.6718 48.95 -0.6718 48.95 -19.39 141.08
3.7 -20.72 133.83 -0.6737 40.35 -0.6737 40.35 -20.72 133.83
3.8 -22.51 127.18 -0.6766 31.72 -0.6766 31.72 -22.51 127.18
3.9 -25.01 121.81 -0.6814 23.07 -0.6814 23.07 -25.01 121.81
4 -28.73 119.92 -0.6892 14.40 -0.6892 14.40 -28.73 119.92
4.1 -34.92 132.95 -0.7005 5.72 -0.7005 5.72 -34.92 132.95
4.2 -37.34 -152.28 -0.7157 -2.96 -0.7157 -2.96 -37.34 -152.28
4.3 -30.33 -125.33 -0.7347 -11.63 -0.7347 -11.63 -30.33 -125.33
4.4 -26.07 -124.88 -0.757 -20.30 -0.757 -20.30 -26.07 -124.88
4.5 -23.32 -129.49 -0.782 -28.94 -0.782 -28.94 -23.32 -129.49
4.6 -21.38 -135.75 -0.8087 -37.56 -0.8087 -37.56 -21.38 -135.75
4.7 -19.96 -142.74 -0.836 -46.16 -0.836 -46.16 -19.96 -142.74
4.8 -18.92 -150.08 -0.8629 -54.73 -0.8629 -54.73 -18.92 -150.08
4.9 -18.17 -157.62 -0.8881 -63.27 -0.8881 -63.27 -18.17 -157.62
5 -17.65 -165.25 -0.911 -71.80 -0.911 -71.80 -17.65 -165.25
5.1 -17.35 -172.93 -0.9306 -80.32 -0.9306 -80.32 -17.35 -172.93
5.2 -17.25 179.39 -0.9468 -88.83 -0.9468 -88.83 -17.25 179.39
5.3 -17.34 171.73 -0.9592 -97.34 -0.9592 -97.34 -17.34 171.73
5.4 -17.62 164.12 -0.9683 -105.86 -0.9683 -105.86 -17.62 164.12
5.5 -18.1 156.62 -0.9745 -114.39 -0.9745 -114.39 -18.1 156.62
5.6 -18.82 149.28 -0.9785 -122.95 -0.9785 -122.95 -18.82 149.28
5.7 -19.81 142.21 -0.9813 -131.52 -0.9813 -131.52 -19.81 142.21
5.8 -21.14 135.61 -0.984 -140.12 -0.984 -140.12 -21.14 135.61
5.9 -22.92 129.89 -0.9877 -148.74 -0.9877 -148.74 -22.92 129.89
6 -25.38 126.00 -0.9932 -157.38 -0.9932 -157.38 -25.38 126.00
6.1 -28.92 126.90 -1.001 -166.03 -1.001 -166.03 -28.92 126.90
6.2 -34.02 144.88 -1.013 -174.70 -1.013 -174.70 -34.02 144.88
6.3 -35.07 -158.57 -1.028 176.64 -1.028 176.64 -35.07 -158.57
6.4 -29.89 -133.04 -1.046 167.98 -1.046 167.98 -29.89 -133.04
6.5 -26.09 -130.23 -1.068 159.33 -1.068 159.33 -26.09 -130.23
6.6 -23.49 -133.42 -1.092 150.69 -1.092 150.69 -23.49 -133.42
6.7 -21.62 -138.78 -1.117 142.08 -1.117 142.08 -21.62 -138.78
6.8 -20.24 -145.13 -1.143 133.49 -1.143 133.49 -20.24 -145.13
6.9 -19.22 -151.98 -1.168 124.92 -1.168 124.92 -19.22 -151.98
7 -18.48 -159.12 -1.192 116.38 -1.192 116.38 -18.48 -159.12
7.1 -17.98 -166.40 -1.214 107.84 -1.214 107.84 -17.98 -166.40
7.2 -17.69 -173.76 -1.233 99.32 -1.233 99.32 -17.69 -173.76
7.3 -17.6 178.85 -1.248 90.81 -1.248 90.81 -17.6 178.85
7.4 -17.69 171.49 -1.26 82.29 -1.26 82.29 -17.69 171.49
7.5 -17.97 164.20 -1.269 73.77 -1.269 73.77 -17.97 164.20
7.6 -18.46 157.03 -1.276 65.23 -1.276 65.23 -18.46 157.03
7.7 -19.18 150.08 -1.28 56.67 -1.28 56.67 -19.18 150.08
7.8 -20.17 143.49 -1.284 48.09 -1.284 48.09 -20.17 143.49
7.9 -21.49 137.51 -1.287 39.50 -1.287 39.50 -21.49 137.51
8 -23.25 132.66 -1.291 30.88 -1.291 30.88 -23.25 132.66
8.1 -25.63 130.13 -1.298 22.24 -1.298 22.24 -25.63 130.13
8.2 -28.92 133.30 -1.306 13.59 -1.306 13.59 -28.92 133.30
8.3 -33 153.21 -1.318 4.93 -1.318 4.93 -33 153.21
8.4 -33.41 -162.39 -1.333 -3.73 -1.333 -3.73 -33.41 -162.39
8.5 -29.42 -139.26 -1.351 -12.39 -1.351 -12.39 -29.42 -139.26
8.6 -26.03 -134.94 -1.372 -21.04 -1.372 -21.04 -26.03 -134.94
8.7 -23.6 -136.99 -1.395 -29.67 -1.395 -29.67 -23.6 -136.99
8.8 -21.81 -141.57 -1.419 -38.28 -1.419 -38.28 -21.81 -141.57
8.9 -20.48 -147.34 -1.443 -46.87 -1.443 -46.87 -20.48 -147.34
9 -19.48 -153.75 -1.468 -55.45 -1.468 -55.45 -19.48 -153.75
9.1 -18.76 -160.51 -1.491 -64.00 -1.491 -64.00 -18.76 -160.51
9.2 -18.28 -167.47 -1.511 -72.54 -1.511 -72.54 -18.28 -167.47
9.3 -18 -174.54 -1.529 -81.07 -1.529 -81.07 -18 -174.54
9.4 -17.91 178.36 -1.544 -89.60 -1.544 -89.60 -17.91 178.36
9.5 -18.01 171.29 -1.556 -98.12 -1.556 -98.12 -18.01 171.29
9.6 -18.3 164.29 -1.565 -106.66 -1.565 -106.66 -18.3 164.29
9.7 -18.79 157.46 -1.572 -115.21 -1.572 -115.21 -18.79 157.46
9.8 -19.51 150.89 -1.577 -123.77 -1.577 -123.77 -19.51 150.89
9.9 -20.5 144.76 -1.581 -132.36 -1.581 -132.36 -20.5 144.76
10 -21.81 139.39 -1.585 -140.96 -1.585 -140.96 -21.81 139.39
10.1 -23.54 135.38 -1.59 -149.59 -1.59 -149.59 -23.54 135.38
10.2 -25.83 134.11 -1.597 -158.23 -1.597 -158.23 -25.83 134.11
10.3 -28.85 139.14 -1.606 -166.88 -1.606 -166.88 -28.85 139.14
10.4 -32.07 159.48 -1.618 -175.54 -1.618 -175.54 -32.07 159.48
10.5 -32.09 -164.58 -1.632 175.80 -1.632 175.80 -32.09 -164.58
10.6 -28.9 -144.19 -1.65 167.14 -1.65 167.14 -28.9 -144.19
10.7 -25.91 -139.11 -1.67 158.49 -1.67 158.49 -25.91 -139.11
10.8 -23.64 -140.31 -1.692 149.85 -1.692 149.85 -23.64 -140.31
10.9 -21.94 -144.23 -1.716 141.24 -1.716 141.24 -21.94 -144.23
11 -20.66 -149.50 -1.74 132.64 -1.74 132.64 -20.66 -149.50
11.1 -19.7 -155.49 -1.763 124.06 -1.763 124.06 -19.7 -155.49
11.2 -19.01 -161.91 -1.785 115.49 -1.785 115.49 -19.01 -161.91
11.3 -18.54 -168.57 -1.804 106.94 -1.804 106.94 -18.54 -168.57
11.4 -18.28 -175.35 -1.822 98.40 -1.822 98.40 -18.28 -175.35
11.5 -18.2 177.82 -1.836 89.86 -1.836 89.86 -18.2 177.82
11.6 -18.31 171.02 -1.848 81.32 -1.848 81.32 -18.31 171.02
11.7 -18.61 164.32 -1.857 72.77 -1.857 72.77 -18.61 164.32
11.8 -19.11 157.81 -1.864 64.21 -1.864 64.21 -19.11 157.81
11.9 -19.83 151.62 -1.869 55.63 -1.869 55.63 -19.83 151.62
12 -20.82 145.95 -1.874 47.04 -1.874 47.04 -20.82 145.95
12.1 -22.12 141.18 -1.879 38.42 -1.879 38.42 -22.12 141.18
12.2 -23.81 138.00 -1.884 29.79 -1.884 29.79 -23.81 138.00
12.3 -26.01 137.94 -1.892 21.14 -1.892 21.14 -26.01 137.94
12.4 -28.74 144.55 -1.901 12.48 -1.901 12.48 -28.74 144.55
12.5 -31.25 164.61 -1.913 3.82 -1.913 3.82 -31.25 164.61
12.6 -30.99 -165.66 -1.928 -4.85 -1.928 -4.85 -30.99 -165.66
12.7 -28.35 -148.02 -1.945 -13.51 -1.945 -13.51 -28.35 -148.02
12.8 -25.71 -142.76 -1.965 -22.17 -1.965 -22.17 -25.71 -142.76
12.9 -23.62 -143.39 -1.987 -30.81 -1.987 -30.81 -23.62 -143.39
13 -22.02 -146.80 -2.009 -39.43 -2.009 -39.43 -22.02 -146.80
13.1 -20.8 -151.63 -2.032 -48.04 -2.032 -48.04 -20.8 -151.63
13.2 -19.89 -157.27 -2.054 -56.63 -2.054 -56.63 -19.89 -157.27
13.3 -19.22 -163.37 -2.075 -65.21 -2.075 -65.21 -19.22 -163.37
13.4 -18.78 -169.74 -2.094 -73.77 -2.094 -73.77 -18.78 -169.74
13.5 -18.53 -176.26 -2.111 -82.33 -2.111 -82.33 -18.53 -176.26
13.6 -18.47 177.18 -2.125 -90.88 -2.125 -90.88 -18.47 177.18
13.7 -18.59 170.65 -2.137 -99.44 -2.137 -99.44 -18.59 170.65
13.8 -18.9 164.23 -2.146 -108.01 -2.146 -108.01 -18.9 164.23
13.9 -19.42 158.05 -2.153 -116.58 -2.153 -116.58 -19.42 158.05
14 -20.15 152.24 -2.159 -125.17 -2.159 -125.17 -20.15 152.24
14.1 -21.14 147.05 -2.164 -133.78 -2.164 -133.78 -21.14 147.05
14.2 -22.43 142.89 -2.169 -142.41 -2.169 -142.41 -22.43 142.89
14.3 -24.09 140.56 -2.175 -151.06 -2.175 -151.06 -24.09 140.56
14.4 -26.19 141.68 -2.183 -159.71 -2.183 -159.71 -26.19 141.68
14.5 -28.63 149.65 -2.193 -168.38 -2.193 -168.38 -28.63 149.65
14.6 -30.53 169.09 -2.205 -177.06 -2.205 -177.06 -30.53 169.09
14.7 -30.05 -165.99 -2.22 174.27 -2.22 174.27 -30.05 -165.99
14.8 -27.78 -150.94 -2.237 165.60 -2.237 165.60 -27.78 -150.94
14.9 -25.46 -145.92 -2.257 156.94 -2.257 156.94 -25.46 -145.92
15 -23.55 -146.25 -2.278 148.29 -2.278 148.29 -23.55 -146.25
15.1 -22.05 -149.28 -2.3 139.65 -2.3 139.65 -22.05 -149.28
15.2 -20.9 -153.77 -2.322 131.04 -2.322 131.04 -20.9 -153.77
15.3 -20.03 -159.09 -2.343 122.43 -2.343 122.43 -20.03 -159.09
15.4 -19.4 -164.91 -2.363 113.84 -2.363 113.84 -19.4 -164.91
15.5 -18.99 -171.02 -2.382 105.27 -2.382 105.27 -18.99 -171.02
15.6 -18.77 -177.28 -2.398 96.69 -2.398 96.69 -18.77 -177.28
15.7 -18.73 176.41 -2.411 88.12 -2.411 88.12 -18.73 176.41
15.8 -18.87 170.15 -2.423 79.55 -2.423 79.55 -18.87 170.15
15.9 -19.2 164.02 -2.432 70.96 -2.432 70.96 -19.2 164.02
16 -19.72 158.17 -2.439 62.37 -2.439 62.37 -19.72 158.17
16.1 -20.47 152.75 -2.445 53.76 -2.445 53.76 -20.47 152.75
16.2 -21.46 148.05 -2.451 45.14 -2.451 45.14 -21.46 148.05
16.3 -22.75 144.55 -2.457 36.49 -2.457 36.49 -22.75 144.55
16.4 -24.38 143.10 -2.463 27.84 -2.463 27.84 -24.38 143.10
16.5 -26.37 145.42 -2.472 19.17 -2.472 19.17 -26.37 145.42
16.6 -28.51 154.58 -2.482 10.49 -2.482 10.49 -28.51 154.58
16.7 -29.87 173.16 -2.495 1.80 -2.495 1.80 -29.87 173.16
16.8 -29.21 -165.82 -2.51 -6.88 -2.51 -6.88 -29.21 -165.82
16.9 -27.22 -153.15 -2.527 -15.56 -2.527 -15.56 -27.22 -153.15
17 -25.15 -148.67 -2.546 -24.23 -2.546 -24.23 -25.15 -148.67
17.1 -23.41 -148.91 -2.567 -32.89 -2.567 -32.89 -23.41 -148.91
17.2 -22.03 -151.69 -2.588 -41.54 -2.588 -41.54 -22.03 -151.69
17.3 -20.95 -155.91 -2.609 -50.17 -2.609 -50.17 -20.95 -155.91
17.4 -20.14 -160.97 -2.63 -58.78 -2.63 -58.78 -20.14 -160.97
17.5 -19.56 -166.54 -2.649 -67.39 -2.649 -67.39 -19.56 -166.54
17.6 -19.18 -172.41 -2.667 -75.98 -2.667 -75.98 -19.18 -172.41
17.7 -18.98 -178.43 -2.682 -84.57 -2.682 -84.57 -18.98 -178.43
17.8 -18.97 175.51 -2.696 -93.16 -2.696 -93.16 -18.97 175.51
17.9 -19.14 169.51 -2.706 -101.76 -2.706 -101.76 -19.14 169.51
18 -19.49 163.68 -2.715 -110.36 -2.715 -110.36 -19.49 163.68
