! yapnr rf coupon A A12: A12 M (variant, family M)
! stackup JLC04161H-7628, nominal parameters; reference planes 10 mm from each end; 50 ohm (renormalized from the line's Zc)
! model: 2D quasi-static RLGC (Djordjevic-Sarkar, Huray roughness, Wheeler loss); generated by python -m yapnr.rf.coupons expected
# GHz S DB R 50
0.1 -55.28 18.03 -0.03604 -9.13 -0.03604 -9.13 -55.28 18.03
0.2 -54.68 20.89 -0.05802 -18.11 -0.05802 -18.11 -54.68 20.89
0.3 -53.94 29.95 -0.07789 -27.04 -0.07789 -27.04 -53.94 29.95
0.4 -52.39 38.36 -0.0967 -35.96 -0.0967 -35.96 -52.39 38.36
0.5 -50.48 42.16 -0.1148 -44.85 -0.1148 -44.85 -50.48 42.16
0.6 -48.67 41.65 -0.1325 -53.74 -0.1325 -53.74 -48.67 41.65
0.7 -47.15 38.27 -0.1498 -62.61 -0.1498 -62.61 -47.15 38.27
0.8 -45.94 33.13 -0.1669 -71.48 -0.1669 -71.48 -45.94 33.13
0.9 -45.03 26.89 -0.1837 -80.34 -0.1837 -80.34 -45.03 26.89
1 -44.41 19.96 -0.2004 -89.19 -0.2004 -89.19 -44.41 19.96
1.1 -44.04 12.59 -0.2168 -98.04 -0.2168 -98.04 -44.04 12.59
1.2 -43.94 4.94 -0.2332 -106.88 -0.2332 -106.88 -43.94 4.94
1.3 -44.11 -2.89 -0.2494 -115.72 -0.2494 -115.72 -44.11 -2.89
1.4 -44.57 -10.79 -0.2655 -124.55 -0.2655 -124.55 -44.57 -10.79
1.5 -45.36 -18.68 -0.2815 -133.38 -0.2815 -133.38 -45.36 -18.68
1.6 -46.58 -26.43 -0.2974 -142.21 -0.2974 -142.21 -46.58 -26.43
1.7 -48.37 -33.83 -0.3132 -151.04 -0.3132 -151.04 -48.37 -33.83
1.8 -51.08 -40.31 -0.329 -159.86 -0.329 -159.86 -51.08 -40.31
1.9 -55.63 -43.70 -0.3446 -168.68 -0.3446 -168.68 -55.63 -43.70
2 -65.87 -20.21 -0.3602 -177.49 -0.3602 -177.49 -65.87 -20.21
2.1 -59.86 86.26 -0.3758 173.69 -0.3758 173.69 -59.86 86.26
2.2 -52.68 89.40 -0.3913 164.88 -0.3913 164.88 -52.68 89.40
2.3 -48.76 84.06 -0.4068 156.07 -0.4068 156.07 -48.76 84.06
2.4 -46.14 76.96 -0.4222 147.26 -0.4222 147.26 -46.14 76.96
2.5 -44.24 69.23 -0.4376 138.46 -0.4376 138.46 -44.24 69.23
2.6 -42.82 61.19 -0.453 129.65 -0.453 129.65 -42.82 61.19
2.7 -41.75 53.00 -0.4684 120.85 -0.4684 120.85 -41.75 53.00
2.8 -40.97 44.73 -0.4837 112.05 -0.4837 112.05 -40.97 44.73
2.9 -40.44 36.41 -0.499 103.25 -0.499 103.25 -40.44 36.41
3 -40.12 28.09 -0.5142 94.45 -0.5142 94.45 -40.12 28.09
3.1 -40.02 19.78 -0.5295 85.65 -0.5295 85.65 -40.02 19.78
3.2 -40.13 11.52 -0.5446 76.86 -0.5446 76.86 -40.13 11.52
3.3 -40.46 3.33 -0.5597 68.06 -0.5597 68.06 -40.46 3.33
3.4 -41.03 -4.75 -0.5748 59.27 -0.5748 59.27 -41.03 -4.75
3.5 -41.88 -12.63 -0.5898 50.48 -0.5898 50.48 -41.88 -12.63
3.6 -43.08 -20.21 -0.6048 41.69 -0.6048 41.69 -43.08 -20.21
3.7 -44.73 -27.23 -0.6197 32.90 -0.6197 32.90 -44.73 -27.23
3.8 -47.07 -33.10 -0.6346 24.11 -0.6346 24.11 -47.07 -33.10
3.9 -50.59 -35.95 -0.6495 15.32 -0.6495 15.32 -50.59 -35.95
4 -56.56 -26.33 -0.6643 6.53 -0.6643 6.53 -56.56 -26.33
4.1 -60.38 47.96 -0.6791 -2.26 -0.6791 -2.26 -60.38 47.96
4.2 -52.82 80.08 -0.694 -11.05 -0.694 -11.05 -52.82 80.08
4.3 -48.25 80.74 -0.7088 -19.84 -0.7088 -19.84 -48.25 80.74
4.4 -45.32 75.96 -0.7236 -28.62 -0.7236 -28.62 -45.32 75.96
4.5 -43.24 69.46 -0.7384 -37.41 -0.7384 -37.41 -43.24 69.46
4.6 -41.71 62.21 -0.7533 -46.19 -0.7533 -46.19 -41.71 62.21
4.7 -40.58 54.58 -0.7681 -54.98 -0.7681 -54.98 -40.58 54.58
4.8 -39.74 46.74 -0.7829 -63.76 -0.7829 -63.76 -39.74 46.74
4.9 -39.16 38.80 -0.7977 -72.55 -0.7977 -72.55 -39.16 38.80
5 -38.81 30.80 -0.8125 -81.33 -0.8125 -81.33 -38.81 30.80
5.1 -38.66 22.80 -0.8273 -90.11 -0.8273 -90.11 -38.66 22.80
5.2 -38.72 14.82 -0.842 -98.89 -0.842 -98.89 -38.72 14.82
5.3 -38.99 6.92 -0.8567 -107.68 -0.8567 -107.68 -38.99 6.92
5.4 -39.48 -0.85 -0.8713 -116.46 -0.8713 -116.46 -39.48 -0.85
5.5 -40.23 -8.42 -0.8859 -125.24 -0.8859 -125.24 -40.23 -8.42
5.6 -41.27 -15.66 -0.9005 -134.02 -0.9005 -134.02 -41.27 -15.66
5.7 -42.7 -22.31 -0.915 -142.80 -0.915 -142.80 -42.7 -22.31
5.8 -44.66 -27.86 -0.9295 -151.58 -0.9295 -151.58 -44.66 -27.86
5.9 -47.43 -30.96 -0.9439 -160.36 -0.9439 -160.36 -47.43 -30.96
6 -51.57 -26.85 -0.9584 -169.14 -0.9584 -169.14 -51.57 -26.85
6.1 -56.89 6.50 -0.9728 -177.92 -0.9728 -177.92 -56.89 6.50
6.2 -54.04 61.78 -0.9873 173.30 -0.9873 173.30 -54.04 61.78
6.3 -48.98 74.36 -1.002 164.52 -1.002 164.52 -48.98 74.36
6.4 -45.61 73.57 -1.016 155.74 -1.016 155.74 -45.61 73.57
6.5 -43.27 68.94 -1.031 146.96 -1.031 146.96 -43.27 68.94
6.6 -41.55 62.79 -1.045 138.18 -1.045 138.18 -41.55 62.79
6.7 -40.28 55.90 -1.06 129.39 -1.06 129.39 -40.28 55.90
6.8 -39.33 48.61 -1.074 120.61 -1.074 120.61 -39.33 48.61
6.9 -38.66 41.09 -1.089 111.83 -1.089 111.83 -38.66 41.09
7 -38.22 33.46 -1.103 103.06 -1.103 103.06 -38.22 33.46
7.1 -37.99 25.77 -1.118 94.28 -1.118 94.28 -37.99 25.77
7.2 -37.97 18.09 -1.132 85.50 -1.132 85.50 -37.97 18.09
7.3 -38.15 10.46 -1.147 76.72 -1.147 76.72 -38.15 10.46
7.4 -38.54 2.95 -1.161 67.94 -1.161 67.94 -38.54 2.95
7.5 -39.17 -4.36 -1.175 59.16 -1.175 59.16 -39.17 -4.36
7.6 -40.06 -11.34 -1.19 50.38 -1.19 50.38 -40.06 -11.34
7.7 -41.28 -17.76 -1.204 41.60 -1.204 41.60 -41.28 -17.76
7.8 -42.92 -23.21 -1.218 32.82 -1.218 32.82 -42.92 -23.21
7.9 -45.17 -26.68 -1.232 24.04 -1.232 24.04 -45.17 -26.68
8 -48.3 -25.44 -1.246 15.26 -1.246 15.26 -48.3 -25.44
8.1 -52.52 -10.07 -1.261 6.48 -1.261 6.48 -52.52 -10.07
8.2 -54.13 34.78 -1.275 -2.30 -1.275 -2.30 -54.13 34.78
8.3 -50.07 63.59 -1.289 -11.08 -1.289 -11.08 -50.07 63.59
8.4 -46.37 69.32 -1.303 -19.87 -1.303 -19.87 -46.37 69.32
8.5 -43.72 67.50 -1.318 -28.65 -1.318 -28.65 -43.72 67.50
8.6 -41.79 62.85 -1.332 -37.43 -1.332 -37.43 -41.79 62.85
8.7 -40.36 56.89 -1.346 -46.21 -1.346 -46.21 -40.36 56.89
8.8 -39.28 50.26 -1.36 -55.00 -1.36 -55.00 -39.28 50.26
8.9 -38.5 43.23 -1.375 -63.78 -1.375 -63.78 -38.5 43.23
9 -37.97 35.99 -1.389 -72.56 -1.389 -72.56 -37.97 35.99
9.1 -37.65 28.63 -1.403 -81.34 -1.403 -81.34 -37.65 28.63
9.2 -37.53 21.23 -1.418 -90.12 -1.418 -90.12 -37.53 21.23
9.3 -37.62 13.87 -1.432 -98.91 -1.432 -98.91 -37.62 13.87
9.4 -37.91 6.60 -1.446 -107.69 -1.446 -107.69 -37.91 6.60
9.5 -38.42 -0.48 -1.46 -116.47 -1.46 -116.47 -38.42 -0.48
9.6 -39.17 -7.26 -1.474 -125.26 -1.474 -125.26 -39.17 -7.26
9.7 -40.21 -13.53 -1.488 -134.04 -1.488 -134.04 -40.21 -13.53
9.8 -41.6 -18.94 -1.502 -142.82 -1.502 -142.82 -41.6 -18.94
9.9 -43.46 -22.74 -1.516 -151.61 -1.516 -151.61 -43.46 -22.74
10 -45.97 -23.20 -1.53 -160.39 -1.53 -160.39 -45.97 -23.20
10.1 -49.27 -15.47 -1.544 -169.18 -1.544 -169.18 -49.27 -15.47
10.2 -52.24 11.77 -1.558 -177.97 -1.558 -177.97 -52.24 11.77
10.3 -50.8 47.75 -1.572 173.25 -1.572 173.25 -50.8 47.75
10.4 -47.27 62.45 -1.586 164.46 -1.586 164.46 -47.27 62.45
10.5 -44.4 64.70 -1.6 155.67 -1.6 155.67 -44.4 64.70
10.6 -42.26 62.10 -1.614 146.89 -1.614 146.89 -42.26 62.10
10.7 -40.65 57.35 -1.629 138.10 -1.629 138.10 -40.65 57.35
10.8 -39.44 51.51 -1.643 129.31 -1.643 129.31 -39.44 51.51
10.9 -38.55 45.06 -1.657 120.52 -1.657 120.52 -38.55 45.06
11 -37.91 38.25 -1.671 111.73 -1.671 111.73 -37.91 38.25
11.1 -37.5 31.25 -1.685 102.94 -1.685 102.94 -37.5 31.25
11.2 -37.29 24.15 -1.699 94.15 -1.699 94.15 -37.29 24.15
11.3 -37.29 17.05 -1.713 85.36 -1.713 85.36 -37.29 17.05
11.4 -37.48 10.01 -1.727 76.57 -1.727 76.57 -37.48 10.01
11.5 -37.88 3.13 -1.741 67.78 -1.741 67.78 -37.88 3.13
11.6 -38.51 -3.47 -1.755 58.99 -1.755 58.99 -38.51 -3.47
11.7 -39.39 -9.62 -1.769 50.20 -1.769 50.20 -39.39 -9.62
11.8 -40.58 -15.00 -1.783 41.41 -1.783 41.41 -40.58 -15.00
11.9 -42.15 -19.07 -1.797 32.62 -1.797 32.62 -42.15 -19.07
12 -44.21 -20.61 -1.811 23.83 -1.811 23.83 -44.21 -20.61
12.1 -46.88 -16.75 -1.825 15.03 -1.825 15.03 -46.88 -16.75
12.2 -49.79 -0.86 -1.838 6.24 -1.838 6.24 -49.79 -0.86
12.3 -50.53 29.98 -1.852 -2.55 -1.852 -2.55 -50.53 29.98
12.4 -48.03 52.66 -1.866 -11.35 -1.866 -11.35 -48.03 52.66
12.5 -45.14 60.20 -1.88 -20.15 -1.88 -20.15 -45.14 60.20
12.6 -42.83 60.32 -1.894 -28.94 -1.894 -28.94 -42.83 60.32
12.7 -41.07 57.11 -1.908 -37.74 -1.908 -37.74 -41.07 57.11
12.8 -39.73 52.24 -1.922 -46.54 -1.922 -46.54 -39.73 52.24
12.9 -38.71 46.46 -1.936 -55.33 -1.936 -55.33 -38.71 46.46
13 -37.98 40.15 -1.95 -64.13 -1.95 -64.13 -37.98 40.15
13.1 -37.47 33.54 -1.964 -72.93 -1.964 -72.93 -37.47 33.54
13.2 -37.18 26.76 -1.978 -81.73 -1.978 -81.73 -37.18 26.76
13.3 -37.09 19.93 -1.992 -90.53 -1.992 -90.53 -37.09 19.93
13.4 -37.19 13.12 -2.006 -99.33 -2.006 -99.33 -37.19 13.12
13.5 -37.49 6.45 -2.02 -108.13 -2.02 -108.13 -37.49 6.45
13.6 -38 0.01 -2.034 -116.93 -2.034 -116.93 -38 0.01
13.7 -38.75 -6.02 -2.047 -125.73 -2.047 -125.73 -38.75 -6.02
13.8 -39.77 -11.39 -2.061 -134.53 -2.061 -134.53 -39.77 -11.39
13.9 -41.11 -15.64 -2.075 -143.33 -2.075 -143.33 -41.11 -15.64
14 -42.86 -17.89 -2.089 -152.13 -2.089 -152.13 -42.86 -17.89
14.1 -45.07 -16.27 -2.102 -160.93 -2.102 -160.93 -45.07 -16.27
14.2 -47.63 -6.74 -2.116 -169.74 -2.116 -169.74 -47.63 -6.74
14.3 -49.36 15.56 -2.13 -178.54 -2.13 -178.54 -49.36 15.56
14.4 -48.33 40.84 -2.143 172.65 -2.143 172.65 -48.33 40.84
14.5 -45.8 53.91 -2.157 163.84 -2.157 163.84 -45.8 53.91
14.6 -43.44 57.38 -2.171 155.04 -2.171 155.04 -43.44 57.38
14.7 -41.55 56.07 -2.185 146.23 -2.185 146.23 -41.55 56.07
14.8 -40.08 52.38 -2.199 137.42 -2.199 137.42 -40.08 52.38
14.9 -38.96 47.38 -2.213 128.61 -2.213 128.61 -38.96 47.38
15 -38.13 41.64 -2.227 119.80 -2.227 119.80 -38.13 41.64
15.1 -37.54 35.46 -2.24 111.00 -2.24 111.00 -37.54 35.46
15.2 -37.16 29.03 -2.254 102.19 -2.254 102.19 -37.16 29.03
15.3 -36.98 22.47 -2.268 93.38 -2.268 93.38 -36.98 22.47
15.4 -37 15.91 -2.282 84.57 -2.282 84.57 -37 15.91
15.5 -37.21 9.43 -2.296 75.76 -2.296 75.76 -37.21 9.43
15.6 -37.63 3.16 -2.31 66.94 -2.31 66.94 -37.63 3.16
15.7 -38.26 -2.75 -2.323 58.13 -2.323 58.13 -38.26 -2.75
15.8 -39.13 -8.08 -2.337 49.32 -2.337 49.32 -39.13 -8.08
15.9 -40.29 -12.45 -2.351 40.51 -2.351 40.51 -40.29 -12.45
16 -41.79 -15.19 -2.364 31.69 -2.364 31.69 -41.79 -15.19
16.1 -43.68 -14.96 -2.378 22.88 -2.378 22.88 -43.68 -14.96
16.2 -45.9 -9.13 -2.391 14.06 -2.391 14.06 -45.9 -9.13
16.3 -47.86 6.26 -2.405 5.24 -2.405 5.24 -47.86 6.26
16.4 -48.04 29.16 -2.419 -3.57 -2.419 -3.57 -48.04 29.16
16.5 -46.23 46.20 -2.432 -12.39 -2.432 -12.39 -46.23 46.20
16.6 -43.99 53.27 -2.446 -21.21 -2.446 -21.21 -43.99 53.27
16.7 -42.03 54.19 -2.46 -30.03 -2.46 -30.03 -42.03 54.19
16.8 -40.47 51.87 -2.473 -38.85 -2.473 -38.85 -40.47 51.87
16.9 -39.26 47.78 -2.487 -47.67 -2.487 -47.67 -39.26 47.78
17 -38.33 42.68 -2.501 -56.49 -2.501 -56.49 -38.33 42.68
17.1 -37.66 36.98 -2.515 -65.32 -2.515 -65.32 -37.66 36.98
17.2 -37.2 30.92 -2.529 -74.14 -2.529 -74.14 -37.2 30.92
17.3 -36.95 24.66 -2.542 -82.96 -2.542 -82.96 -36.95 24.66
17.4 -36.89 18.35 -2.556 -91.78 -2.556 -91.78 -36.89 18.35
17.5 -37.02 12.08 -2.57 -100.61 -2.57 -100.61 -37.02 12.08
17.6 -37.35 5.98 -2.583 -109.43 -2.583 -109.43 -37.35 5.98
17.7 -37.88 0.19 -2.597 -118.26 -2.597 -118.26 -37.88 0.19
17.8 -38.63 -5.08 -2.611 -127.08 -2.611 -127.08 -38.63 -5.08
17.9 -39.64 -9.52 -2.624 -135.91 -2.624 -135.91 -39.64 -9.52
18 -40.95 -12.58 -2.638 -144.74 -2.638 -144.74 -40.95 -12.58
