! yapnr rf coupon A: A13 M-MO (variant, family M-MO)
! stackup JLC04161H-7628, nominal parameters; reference planes 10 mm from each end; 50 ohm (renormalized from the line's Zc)
! model: 2D quasi-static RLGC (Djordjevic-Sarkar, Huray roughness, Wheeler loss); generated by python -m yapnr.rf.coupons expected
# GHz S DB R 50
0.1 -42.71 63.18 -0.0396 -8.84 -0.0396 -8.84 -42.71 63.18
0.2 -37.63 61.24 -0.0627 -17.51 -0.0627 -17.51 -37.63 61.24
0.3 -34.55 56.06 -0.08349 -26.14 -0.08349 -26.14 -34.55 56.06
0.4 -32.39 49.63 -0.1032 -34.75 -0.1032 -34.75 -32.39 49.63
0.5 -30.81 42.58 -0.1222 -43.34 -0.1222 -43.34 -30.81 42.58
0.6 -29.62 35.17 -0.1408 -51.92 -0.1408 -51.92 -29.62 35.17
0.7 -28.73 27.55 -0.1588 -60.49 -0.1588 -60.49 -28.73 27.55
0.8 -28.1 19.79 -0.1764 -69.04 -0.1764 -69.04 -28.1 19.79
0.9 -27.69 11.93 -0.1936 -77.59 -0.1936 -77.59 -27.69 11.93
1 -27.49 4.01 -0.2103 -86.13 -0.2103 -86.13 -27.49 4.01
1.1 -27.47 -3.93 -0.2264 -94.67 -0.2264 -94.67 -27.47 -3.93
1.2 -27.66 -11.89 -0.2421 -103.20 -0.2421 -103.20 -27.66 -11.89
1.3 -28.04 -19.84 -0.2574 -111.73 -0.2574 -111.73 -28.04 -19.84
1.4 -28.65 -27.74 -0.2722 -120.25 -0.2722 -120.25 -28.65 -27.74
1.5 -29.52 -35.57 -0.2868 -128.78 -0.2868 -128.78 -29.52 -35.57
1.6 -30.71 -43.27 -0.3011 -137.30 -0.3011 -137.30 -30.71 -43.27
1.7 -32.32 -50.70 -0.3154 -145.82 -0.3154 -145.82 -32.32 -50.70
1.8 -34.56 -57.59 -0.3297 -154.34 -0.3297 -154.34 -34.56 -57.59
1.9 -37.84 -63.16 -0.344 -162.86 -0.344 -162.86 -37.84 -63.16
2 -43.46 -63.62 -0.3586 -171.38 -0.3586 -171.38 -43.46 -63.62
2.1 -54.6 0.44 -0.3734 -179.90 -0.3734 -179.90 -54.6 0.44
2.2 -43.57 67.56 -0.3885 171.58 -0.3885 171.58 -43.57 67.56
2.3 -37.86 67.29 -0.4039 163.07 -0.4039 163.07 -37.86 67.29
2.4 -34.53 61.77 -0.4195 154.56 -0.4195 154.56 -34.53 61.77
2.5 -32.26 54.90 -0.4353 146.05 -0.4353 146.05 -32.26 54.90
2.6 -30.61 47.49 -0.4513 137.54 -0.4513 137.54 -30.61 47.49
2.7 -29.39 39.82 -0.4673 129.04 -0.4673 129.04 -29.39 39.82
2.8 -28.49 32.02 -0.4832 120.54 -0.4832 120.54 -28.49 32.02
2.9 -27.84 24.14 -0.4989 112.05 -0.4989 112.05 -27.84 24.14
3 -27.42 16.22 -0.5144 103.56 -0.5144 103.56 -27.42 16.22
3.1 -27.21 8.30 -0.5295 95.07 -0.5295 95.07 -27.21 8.30
3.2 -27.18 0.39 -0.5443 86.58 -0.5443 86.58 -27.18 0.39
3.3 -27.35 -7.48 -0.5586 78.10 -0.5586 78.10 -27.35 -7.48
3.4 -27.71 -15.30 -0.5726 69.61 -0.5726 69.61 -27.71 -15.30
3.5 -28.3 -23.01 -0.5863 61.13 -0.5863 61.13 -28.3 -23.01
3.6 -29.13 -30.57 -0.5996 52.64 -0.5996 52.64 -29.13 -30.57
3.7 -30.26 -37.87 -0.6128 44.15 -0.6128 44.15 -30.26 -37.87
3.8 -31.78 -44.74 -0.626 35.66 -0.626 35.66 -31.78 -44.74
3.9 -33.85 -50.77 -0.6392 27.17 -0.6392 27.17 -33.85 -50.77
4 -36.81 -54.85 -0.6525 18.68 -0.6525 18.68 -36.81 -54.85
4.1 -41.45 -52.73 -0.666 10.18 -0.666 10.18 -41.45 -52.73
4.2 -48.69 -14.94 -0.6798 1.69 -0.6798 1.69 -48.69 -14.94
4.3 -44.04 53.55 -0.694 -6.80 -0.694 -6.80 -44.04 53.55
4.4 -38.32 62.28 -0.7085 -15.30 -0.7085 -15.30 -38.32 62.28
4.5 -34.85 59.72 -0.7233 -23.79 -0.7233 -23.79 -34.85 59.72
4.6 -32.48 54.30 -0.7384 -32.28 -0.7384 -32.28 -32.48 54.30
4.7 -30.77 47.76 -0.7536 -40.77 -0.7536 -40.77 -30.77 47.76
4.8 -29.5 40.69 -0.7689 -49.25 -0.7689 -49.25 -29.5 40.69
4.9 -28.55 33.33 -0.7842 -57.74 -0.7842 -57.74 -28.55 33.33
5 -27.87 25.81 -0.7994 -66.22 -0.7994 -66.22 -27.87 25.81
5.1 -27.42 18.21 -0.8144 -74.69 -0.8144 -74.69 -27.42 18.21
5.2 -27.17 10.56 -0.829 -83.17 -0.829 -83.17 -27.17 10.56
5.3 -27.11 2.92 -0.8433 -91.64 -0.8433 -91.64 -27.11 2.92
5.4 -27.24 -4.69 -0.8572 -100.12 -0.8572 -100.12 -27.24 -4.69
5.5 -27.57 -12.23 -0.8708 -108.59 -0.8708 -108.59 -27.57 -12.23
5.6 -28.1 -19.65 -0.884 -117.07 -0.884 -117.07 -28.1 -19.65
5.7 -28.87 -26.87 -0.8969 -125.54 -0.8969 -125.54 -28.87 -26.87
5.8 -29.93 -33.77 -0.9096 -134.02 -0.9096 -134.02 -29.93 -33.77
5.9 -31.34 -40.14 -0.9223 -142.50 -0.9223 -142.50 -31.34 -40.14
6 -33.24 -45.51 -0.935 -150.99 -0.935 -150.99 -33.24 -45.51
6.1 -35.86 -48.73 -0.9478 -159.47 -0.9478 -159.47 -35.86 -48.73
6.2 -39.7 -46.06 -0.9608 -167.96 -0.9608 -167.96 -39.7 -46.06
6.3 -45 -20.92 -0.9741 -176.45 -0.9741 -176.45 -45 -20.92
6.4 -44.08 37.02 -0.9877 175.07 -0.9877 175.07 -44.08 37.02
6.5 -38.9 55.55 -1.002 166.58 -1.002 166.58 -38.9 55.55
6.6 -35.33 56.63 -1.016 158.09 -1.016 158.09 -35.33 56.63
6.7 -32.86 52.93 -1.031 149.60 -1.031 149.60 -32.86 52.93
6.8 -31.07 47.40 -1.045 141.12 -1.045 141.12 -31.07 47.40
6.9 -29.74 41.01 -1.06 132.64 -1.06 132.64 -29.74 41.01
7 -28.74 34.15 -1.075 124.16 -1.075 124.16 -28.74 34.15
7.1 -28.02 27.02 -1.09 115.68 -1.09 115.68 -28.02 27.02
7.2 -27.52 19.75 -1.105 107.20 -1.105 107.20 -27.52 19.75
7.3 -27.23 12.40 -1.119 98.73 -1.119 98.73 -27.23 12.40
7.4 -27.13 5.03 -1.133 90.26 -1.133 90.26 -27.13 5.03
7.5 -27.22 -2.32 -1.147 81.78 -1.147 81.78 -27.22 -2.32
7.6 -27.51 -9.59 -1.16 73.31 -1.16 73.31 -27.51 -9.59
7.7 -27.99 -16.73 -1.173 64.83 -1.173 64.83 -27.99 -16.73
7.8 -28.7 -23.65 -1.186 56.36 -1.186 56.36 -28.7 -23.65
7.9 -29.68 -30.21 -1.198 47.88 -1.198 47.88 -29.68 -30.21
8 -30.98 -36.18 -1.211 39.40 -1.211 39.40 -30.98 -36.18
8.1 -32.71 -41.07 -1.223 30.92 -1.223 30.92 -32.71 -41.07
8.2 -35.05 -43.79 -1.235 22.43 -1.235 22.43 -35.05 -43.79
8.3 -38.28 -41.27 -1.248 13.94 -1.248 13.94 -38.28 -41.27
8.4 -42.45 -23.14 -1.261 5.45 -1.261 5.45 -42.45 -23.14
8.5 -43.37 21.91 -1.274 -3.04 -1.274 -3.04 -43.37 21.91
8.6 -39.34 47.61 -1.288 -11.53 -1.288 -11.53 -39.34 47.61
8.7 -35.82 52.75 -1.302 -20.02 -1.302 -20.02 -35.82 52.75
8.8 -33.28 51.01 -1.316 -28.51 -1.316 -28.51 -33.28 51.01
8.9 -31.42 46.61 -1.33 -36.99 -1.33 -36.99 -31.42 46.61
9 -30.03 40.95 -1.345 -45.48 -1.345 -45.48 -30.03 40.95
9.1 -28.98 34.62 -1.36 -53.96 -1.36 -53.96 -28.98 34.62
9.2 -28.21 27.91 -1.374 -62.45 -1.374 -62.45 -28.21 27.91
9.3 -27.67 20.98 -1.389 -70.93 -1.389 -70.93 -27.67 20.98
9.4 -27.35 13.93 -1.403 -79.40 -1.403 -79.40 -27.35 13.93
9.5 -27.21 6.83 -1.417 -87.88 -1.417 -87.88 -27.21 6.83
9.6 -27.26 -0.27 -1.43 -96.36 -1.43 -96.36 -27.26 -0.27
9.7 -27.5 -7.29 -1.443 -104.84 -1.443 -104.84 -27.5 -7.29
9.8 -27.93 -14.17 -1.456 -113.32 -1.456 -113.32 -27.93 -14.17
9.9 -28.59 -20.81 -1.469 -121.80 -1.469 -121.80 -28.59 -20.81
10 -29.49 -27.07 -1.481 -130.28 -1.481 -130.28 -29.49 -27.07
10.1 -30.69 -32.70 -1.493 -138.77 -1.493 -138.77 -30.69 -32.70
10.2 -32.27 -37.23 -1.505 -147.25 -1.505 -147.25 -32.27 -37.23
10.3 -34.37 -39.65 -1.518 -155.74 -1.518 -155.74 -34.37 -39.65
10.4 -37.16 -37.43 -1.53 -164.24 -1.53 -164.24 -37.16 -37.43
10.5 -40.58 -23.58 -1.543 -172.73 -1.543 -172.73 -40.58 -23.58
10.6 -42.22 10.80 -1.556 178.77 -1.556 178.77 -42.22 10.80
10.7 -39.51 39.23 -1.569 170.28 -1.569 170.28 -39.51 39.23
10.8 -36.22 48.25 -1.583 161.78 -1.583 161.78 -36.22 48.25
10.9 -33.67 48.61 -1.597 153.28 -1.597 153.28 -33.67 48.61
11 -31.77 45.42 -1.611 144.79 -1.611 144.79 -31.77 45.42
11.1 -30.32 40.54 -1.625 136.29 -1.625 136.29 -30.32 40.54
11.2 -29.23 34.78 -1.639 127.80 -1.639 127.80 -29.23 34.78
11.3 -28.42 28.50 -1.654 119.31 -1.654 119.31 -28.42 28.50
11.4 -27.85 21.91 -1.668 110.82 -1.668 110.82 -27.85 21.91
11.5 -27.48 15.16 -1.682 102.34 -1.682 102.34 -27.48 15.16
11.6 -27.31 8.33 -1.696 93.85 -1.696 93.85 -27.31 8.33
11.7 -27.33 1.49 -1.709 85.37 -1.709 85.37 -27.33 1.49
11.8 -27.52 -5.29 -1.722 76.88 -1.722 76.88 -27.52 -5.29
11.9 -27.91 -11.93 -1.735 68.39 -1.735 68.39 -27.91 -11.93
12 -28.51 -18.32 -1.747 59.90 -1.747 59.90 -28.51 -18.32
12.1 -29.35 -24.31 -1.759 51.41 -1.759 51.41 -29.35 -24.31
12.2 -30.46 -29.65 -1.772 42.92 -1.772 42.92 -30.46 -29.65
12.3 -31.92 -33.88 -1.784 34.42 -1.784 34.42 -31.92 -33.88
12.4 -33.82 -36.09 -1.796 25.93 -1.796 25.93 -33.82 -36.09
12.5 -36.27 -34.15 -1.808 17.42 -1.808 17.42 -36.27 -34.15
12.6 -39.17 -23.05 -1.82 8.92 -1.82 8.92 -39.17 -23.05
12.7 -40.98 3.69 -1.833 0.42 -1.833 0.42 -40.98 3.69
12.8 -39.37 31.36 -1.846 -8.09 -1.846 -8.09 -39.37 31.36
12.9 -36.48 43.42 -1.859 -16.59 -1.859 -16.59 -36.48 43.42
13 -34 45.82 -1.873 -25.10 -1.873 -25.10 -34 45.82
13.1 -32.08 43.87 -1.887 -33.61 -1.887 -33.61 -32.08 43.87
13.2 -30.6 39.81 -1.901 -42.11 -1.901 -42.11 -30.6 39.81
13.3 -29.48 34.62 -1.915 -50.61 -1.915 -50.61 -29.48 34.62
13.4 -28.64 28.78 -1.93 -59.11 -1.93 -59.11 -28.64 28.78
13.5 -28.03 22.55 -1.944 -67.61 -1.944 -67.61 -28.03 22.55
13.6 -27.64 16.10 -1.958 -76.11 -1.958 -76.11 -27.64 16.10
13.7 -27.43 9.53 -1.971 -84.60 -1.971 -84.60 -27.43 9.53
13.8 -27.41 2.94 -1.984 -93.10 -1.984 -93.10 -27.41 2.94
13.9 -27.58 -3.60 -1.997 -101.59 -1.997 -101.59 -27.58 -3.60
14 -27.93 -10.00 -2.01 -110.09 -2.01 -110.09 -27.93 -10.00
14.1 -28.48 -16.15 -2.022 -118.59 -2.022 -118.59 -28.48 -16.15
14.2 -29.26 -21.89 -2.034 -127.09 -2.034 -127.09 -29.26 -21.89
14.3 -30.29 -26.97 -2.046 -135.60 -2.046 -135.60 -30.29 -26.97
14.4 -31.64 -30.94 -2.058 -144.10 -2.058 -144.10 -31.64 -30.94
14.5 -33.38 -32.96 -2.07 -152.61 -2.07 -152.61 -33.38 -32.96
14.6 -35.56 -31.24 -2.082 -161.12 -2.082 -161.12 -35.56 -31.24
14.7 -38.08 -21.97 -2.095 -169.64 -2.095 -169.64 -38.08 -21.97
14.8 -39.85 -0.49 -2.107 -178.15 -2.107 -178.15 -39.85 -0.49
14.9 -39.01 24.76 -2.12 173.33 -2.12 173.33 -39.01 24.76
15 -36.58 38.64 -2.133 164.81 -2.133 164.81 -36.58 38.64
15.1 -34.23 42.82 -2.147 156.30 -2.147 156.30 -34.23 42.82
15.2 -32.33 42.06 -2.16 147.78 -2.16 147.78 -32.33 42.06
15.3 -30.85 38.80 -2.174 139.26 -2.174 139.26 -30.85 38.80
15.4 -29.7 34.18 -2.188 130.75 -2.188 130.75 -29.7 34.18
15.5 -28.84 28.78 -2.202 122.24 -2.202 122.24 -28.84 28.78
15.6 -28.21 22.90 -2.216 113.73 -2.216 113.73 -28.21 22.90
15.7 -27.79 16.75 -2.23 105.22 -2.23 105.22 -27.79 16.75
15.8 -27.56 10.44 -2.243 96.71 -2.243 96.71 -27.56 10.44
15.9 -27.51 4.09 -2.257 88.20 -2.257 88.20 -27.51 4.09
16 -27.65 -2.22 -2.27 79.69 -2.27 79.69 -27.65 -2.22
16.1 -27.96 -8.39 -2.282 71.18 -2.282 71.18 -27.96 -8.39
16.2 -28.48 -14.30 -2.294 62.67 -2.294 62.67 -28.48 -14.30
16.3 -29.21 -19.80 -2.306 54.16 -2.306 54.16 -29.21 -19.80
16.4 -30.18 -24.63 -2.318 45.64 -2.318 45.64 -30.18 -24.63
16.5 -31.44 -28.35 -2.33 37.12 -2.33 37.12 -31.44 -28.35
16.6 -33.04 -30.19 -2.342 28.60 -2.342 28.60 -33.04 -30.19
16.7 -35.01 -28.58 -2.354 20.08 -2.354 20.08 -35.01 -28.58
16.8 -37.23 -20.55 -2.366 11.55 -2.366 11.55 -37.23 -20.55
16.9 -38.87 -2.69 -2.378 3.02 -2.378 3.02 -38.87 -2.69
17 -38.5 19.72 -2.391 -5.51 -2.391 -5.51 -38.5 19.72
17.1 -36.52 34.25 -2.404 -14.04 -2.404 -14.04 -36.52 34.25
17.2 -34.36 39.78 -2.418 -22.57 -2.418 -22.57 -34.36 39.78
17.3 -32.52 40.07 -2.431 -31.10 -2.431 -31.10 -32.52 40.07
17.4 -31.05 37.56 -2.445 -39.62 -2.445 -39.62 -31.05 37.56
17.5 -29.9 33.49 -2.459 -48.15 -2.459 -48.15 -29.9 33.49
17.6 -29.02 28.51 -2.472 -56.68 -2.472 -56.68 -29.02 28.51
17.7 -28.38 22.98 -2.486 -65.20 -2.486 -65.20 -28.38 22.98
17.8 -27.94 17.11 -2.5 -73.73 -2.5 -73.73 -27.94 17.11
17.9 -27.69 11.07 -2.513 -82.25 -2.513 -82.25 -27.69 11.07
18 -27.62 4.96 -2.526 -90.77 -2.526 -90.77 -27.62 4.96
