! yapnr rf coupon A: A14 RING M (ring, family M)
! stackup JLC04161H-7628, nominal parameters; reference planes 10 mm from each end; 50 ohm (renormalized from the line's Zc)
! model: 2D quasi-static RLGC (Djordjevic-Sarkar, Huray roughness, Wheeler loss); generated by python -m yapnr.rf.coupons expected
# GHz S DB R 50
0.1 -20.53 -104.40 -0.08792 -14.35 -0.08792 -14.35 -20.53 -104.40
0.2 -14.68 -118.94 -0.2375 -28.39 -0.2375 -28.39 -14.68 -118.94
0.3 -11.36 -133.01 -0.455 -42.24 -0.455 -42.24 -11.36 -133.01
0.4 -9.107 -146.79 -0.7356 -55.88 -0.7356 -55.88 -9.107 -146.79
0.5 -7.444 -160.32 -1.074 -69.32 -1.074 -69.32 -7.444 -160.32
0.6 -6.161 -173.62 -1.465 -82.55 -1.465 -82.55 -6.161 -173.62
0.7 -5.142 173.30 -1.906 -95.59 -1.906 -95.59 -5.142 173.30
0.8 -4.316 160.41 -2.393 -108.44 -2.393 -108.44 -4.316 160.41
0.9 -3.637 147.67 -2.928 -121.14 -2.928 -121.14 -3.637 147.67
1 -3.071 135.07 -3.511 -133.71 -3.511 -133.71 -3.071 135.07
1.1 -2.596 122.54 -4.149 -146.19 -4.149 -146.19 -2.596 122.54
1.2 -2.195 110.06 -4.851 -158.60 -4.851 -158.60 -2.195 110.06
1.3 -1.854 97.58 -5.63 -171.00 -5.63 -171.00 -1.854 97.58
1.4 -1.564 85.03 -6.506 176.59 -6.506 176.59 -1.564 85.03
1.5 -1.319 72.37 -7.512 164.13 -7.512 164.13 -1.319 72.37
1.6 -1.114 59.51 -8.695 151.58 -8.695 151.58 -1.114 59.51
1.7 -0.9466 46.37 -10.13 138.94 -10.13 138.94 -0.9466 46.37
1.8 -0.8175 32.87 -11.96 126.28 -11.96 126.28 -0.8175 32.87
1.9 -0.7287 18.90 -14.42 113.84 -14.42 113.84 -0.7287 18.90
2 -0.6853 4.31 -18.12 102.71 -18.12 102.71 -0.6853 4.31
2.1 -0.6947 -11.03 -25.03 99.97 -25.03 99.97 -0.6947 -11.03
2.2 -0.7663 -27.29 -30.28 -163.22 -30.28 -163.22 -0.7663 -27.29
2.3 -0.9088 -44.68 -20.12 -148.36 -20.12 -148.36 -0.9088 -44.68
2.4 -1.125 -63.45 -15.46 -161.29 -15.46 -161.29 -1.125 -63.45
2.5 -1.4 -83.92 -12.82 -178.76 -12.82 -178.76 -1.4 -83.92
2.6 -1.691 -106.66 -11.52 161.39 -11.52 161.39 -1.691 -106.66
2.7 -1.925 -132.59 -11.67 139.97 -11.67 139.97 -1.925 -132.59
2.8 -2.055 -163.13 -14.44 120.72 -14.44 120.72 -2.055 -163.13
2.9 -2.217 160.68 -21.46 156.31 -21.46 156.31 -2.217 160.68
3 -2.768 121.19 -11.58 -171.83 -11.58 -171.83 -2.768 121.19
3.1 -3.72 84.52 -6.606 163.49 -6.606 163.49 -3.72 84.52
3.2 -4.623 54.34 -4.525 138.35 -4.525 138.35 -4.623 54.34
3.3 -5.214 30.07 -3.594 116.75 -3.594 116.75 -5.214 30.07
3.4 -5.515 9.97 -3.156 98.13 -3.156 98.13 -5.515 9.97
3.5 -5.629 -7.39 -2.946 81.60 -2.946 81.60 -5.629 -7.39
3.6 -5.641 -22.93 -2.851 66.53 -2.851 66.53 -5.641 -22.93
3.7 -5.605 -37.24 -2.816 52.49 -2.816 52.49 -5.605 -37.24
3.8 -5.553 -50.69 -2.812 39.20 -2.812 39.20 -5.553 -50.69
3.9 -5.504 -63.54 -2.824 26.45 -2.824 26.45 -5.504 -63.54
4 -5.466 -75.96 -2.841 14.09 -2.841 14.09 -5.466 -75.96
4.1 -5.443 -88.08 -2.859 2.00 -2.859 2.00 -5.443 -88.08
4.2 -5.44 -100.01 -2.876 -9.90 -2.876 -9.90 -5.44 -100.01
4.3 -5.455 -111.83 -2.888 -21.71 -2.888 -21.71 -5.455 -111.83
4.4 -5.491 -123.62 -2.897 -33.50 -2.897 -33.50 -5.491 -123.62
4.5 -5.546 -135.44 -2.903 -45.32 -2.903 -45.32 -5.546 -135.44
4.6 -5.62 -147.37 -2.907 -57.26 -2.907 -57.26 -5.62 -147.37
4.7 -5.713 -159.49 -2.913 -69.39 -2.913 -69.39 -5.713 -159.49
4.8 -5.821 -171.90 -2.925 -81.80 -2.925 -81.80 -5.821 -171.90
4.9 -5.941 175.27 -2.951 -94.58 -2.951 -94.58 -5.941 175.27
5 -6.064 161.86 -3.001 -107.87 -3.001 -107.87 -6.064 161.86
5.1 -6.178 147.63 -3.093 -121.83 -3.093 -121.83 -6.178 147.63
5.2 -6.256 132.19 -3.257 -136.70 -3.257 -136.70 -6.256 132.19
5.3 -6.261 114.99 -3.55 -152.81 -3.55 -152.81 -6.261 114.99
5.4 -6.132 95.11 -4.08 -170.56 -4.08 -170.56 -6.132 95.11
5.5 -5.805 71.28 -5.075 169.60 -5.075 169.60 -5.805 71.28
5.6 -5.261 42.03 -7.034 147.94 -7.034 147.94 -5.261 42.03
5.7 -4.63 7.00 -10.96 128.95 -10.96 128.95 -4.63 7.00
5.8 -4.151 -31.09 -17.21 138.28 -17.21 138.28 -4.151 -31.09
5.9 -3.858 -67.34 -15.76 171.45 -15.76 171.45 -3.858 -67.34
6 -3.582 -98.94 -13.03 163.58 -13.03 163.58 -3.582 -98.94
6.1 -3.236 -125.97 -12.52 146.77 -12.52 146.77 -3.236 -125.97
6.2 -2.856 -149.54 -13.42 129.92 -13.42 129.92 -2.856 -149.54
6.3 -2.503 -170.62 -15.52 115.59 -15.52 115.59 -2.503 -170.62
6.4 -2.218 170.17 -19.02 107.38 -19.02 107.38 -2.218 170.17
6.5 -2.017 152.43 -24.18 119.18 -24.18 119.18 -2.017 152.43
6.6 -1.899 135.90 -24.51 168.11 -24.51 168.11 -1.899 135.90
6.7 -1.856 120.39 -19.47 -176.72 -19.47 -176.72 -1.856 120.39
6.8 -1.876 105.71 -15.89 178.82 -15.89 178.82 -1.876 105.71
6.9 -1.951 91.73 -13.41 169.45 -13.41 169.45 -1.951 91.73
7 -2.073 78.32 -11.59 158.52 -11.59 158.52 -2.073 78.32
7.1 -2.237 65.37 -10.16 147.02 -10.16 147.02 -2.237 65.37
7.2 -2.442 52.79 -9.007 135.31 -9.007 135.31 -2.442 52.79
7.3 -2.69 40.48 -8.034 123.52 -8.034 123.52 -2.69 40.48
7.4 -2.982 28.39 -7.196 111.69 -7.196 111.69 -2.982 28.39
7.5 -3.326 16.45 -6.457 99.83 -6.457 99.83 -3.326 16.45
7.6 -3.729 4.62 -5.797 87.91 -5.797 87.91 -3.729 4.62
7.7 -4.204 -7.16 -5.201 75.92 -5.201 75.92 -4.204 -7.16
7.8 -4.766 -18.89 -4.658 63.82 -4.658 63.82 -4.766 -18.89
7.9 -5.438 -30.59 -4.163 51.59 -4.163 51.59 -5.438 -30.59
8 -6.247 -42.24 -3.715 39.20 -3.715 39.20 -6.247 -42.24
8.1 -7.233 -53.78 -3.315 26.63 -3.315 26.63 -7.233 -53.78
8.2 -8.453 -65.06 -2.963 13.88 -2.963 13.88 -8.453 -65.06
8.3 -9.989 -75.82 -2.665 0.94 -2.665 0.94 -9.989 -75.82
8.4 -11.98 -85.45 -2.426 -12.16 -2.426 -12.16 -11.98 -85.45
8.5 -14.64 -92.47 -2.249 -25.40 -2.249 -25.40 -14.64 -92.47
8.6 -18.31 -92.43 -2.138 -38.75 -2.138 -38.75 -18.31 -92.43
8.7 -22.44 -70.65 -2.097 -52.15 -2.097 -52.15 -22.44 -70.65
8.8 -21.24 -30.62 -2.126 -65.54 -2.126 -65.54 -21.24 -30.62
8.9 -17.05 -19.05 -2.223 -78.89 -2.223 -78.89 -17.05 -19.05
9 -13.86 -22.37 -2.386 -92.13 -2.386 -92.13 -13.86 -22.37
9.1 -11.55 -30.56 -2.61 -105.24 -2.61 -105.24 -11.55 -30.56
9.2 -9.814 -40.68 -2.891 -118.19 -2.891 -118.19 -9.814 -40.68
9.3 -8.468 -51.68 -3.224 -130.96 -3.224 -130.96 -8.468 -51.68
9.4 -7.396 -63.12 -3.604 -143.55 -3.604 -143.55 -7.396 -63.12
9.5 -6.528 -74.78 -4.03 -155.97 -4.03 -155.97 -6.528 -74.78
9.6 -5.815 -86.57 -4.5 -168.23 -4.5 -168.23 -5.815 -86.57
9.7 -5.221 -98.43 -5.016 179.65 -5.016 179.65 -5.221 -98.43
9.8 -4.723 -110.35 -5.581 167.65 -5.581 167.65 -4.723 -110.35
9.9 -4.303 -122.34 -6.202 155.74 -6.202 155.74 -4.303 -122.34
10 -3.946 -134.43 -6.892 143.93 -6.892 143.93 -3.946 -134.43
10.1 -3.644 -146.63 -7.664 132.20 -7.664 132.20 -3.644 -146.63
10.2 -3.391 -158.99 -8.544 120.58 -8.544 120.58 -3.391 -158.99
10.3 -3.181 -171.56 -9.564 109.11 -9.564 109.11 -3.181 -171.56
10.4 -3.016 175.60 -10.77 97.92 -10.77 97.92 -3.016 175.60
10.5 -2.895 162.45 -12.24 87.28 -12.24 87.28 -2.895 162.45
10.6 -2.823 148.89 -14.09 77.78 -14.09 77.78 -2.823 148.89
10.7 -2.807 134.84 -16.47 70.92 -16.47 70.92 -2.807 134.84
10.8 -2.856 120.21 -19.54 70.65 -19.54 70.65 -2.856 120.21
10.9 -2.984 104.87 -22.56 86.42 -22.56 86.42 -2.984 104.87
11 -3.203 88.69 -21.98 113.78 -21.98 113.78 -3.203 88.69
11.1 -3.53 71.46 -18.84 123.00 -18.84 123.00 -3.53 71.46
11.2 -3.978 52.89 -16.22 118.01 -16.22 118.01 -3.978 52.89
11.3 -4.556 32.54 -14.57 107.17 -14.57 107.17 -4.556 32.54
11.4 -5.266 9.64 -13.87 94.46 -13.87 94.46 -5.266 9.64
11.5 -6.1 -16.91 -14.2 83.59 -14.2 83.59 -6.1 -16.91
11.6 -7.026 -48.37 -15.29 82.02 -15.29 82.02 -7.026 -48.37
11.7 -7.941 -84.97 -14.69 93.86 -14.69 93.86 -7.941 -84.97
11.8 -8.629 -124.02 -11.43 95.26 -11.43 95.26 -8.629 -124.02
11.9 -8.923 -160.51 -8.63 82.44 -8.63 82.44 -8.923 -160.51
12 -8.877 168.91 -6.899 65.35 -6.899 65.35 -8.877 168.91
12.1 -8.649 144.25 -5.894 48.16 -5.894 48.16 -8.649 144.25
12.2 -8.351 124.05 -5.311 31.93 -5.311 31.93 -8.351 124.05
12.3 -8.044 106.87 -4.97 16.75 -4.97 16.75 -8.044 106.87
12.4 -7.757 91.67 -4.773 2.46 -4.773 2.46 -7.757 91.67
12.5 -7.505 77.79 -4.663 -11.10 -4.663 -11.10 -7.505 77.79
12.6 -7.293 64.81 -4.607 -24.10 -4.607 -24.10 -7.293 64.81
12.7 -7.123 52.45 -4.584 -36.66 -4.584 -36.66 -7.123 52.45
12.8 -6.996 40.51 -4.581 -48.89 -4.581 -48.89 -6.996 40.51
12.9 -6.91 28.86 -4.591 -60.88 -4.591 -60.88 -6.91 28.86
13 -6.865 17.39 -4.608 -72.71 -4.608 -72.71 -6.865 17.39
13.1 -6.859 6.02 -4.629 -84.44 -4.629 -84.44 -6.859 6.02
13.2 -6.894 -5.34 -4.654 -96.15 -4.654 -96.15 -6.894 -5.34
13.3 -6.968 -16.76 -4.681 -107.90 -4.681 -107.90 -6.968 -16.76
13.4 -7.083 -28.33 -4.715 -119.75 -4.715 -119.75 -7.083 -28.33
13.5 -7.241 -40.15 -4.758 -131.78 -4.758 -131.78 -7.241 -40.15
13.6 -7.443 -52.32 -4.818 -144.08 -4.818 -144.08 -7.443 -52.32
13.7 -7.692 -65.02 -4.904 -156.72 -4.904 -156.72 -7.692 -65.02
13.8 -7.991 -78.47 -5.034 -169.82 -5.034 -169.82 -7.991 -78.47
13.9 -8.341 -93.00 -5.235 176.50 -5.235 176.50 -8.341 -93.00
14 -8.741 -109.14 -5.548 162.10 -5.548 162.10 -8.741 -109.14
14.1 -9.183 -127.70 -6.047 146.88 -6.047 146.88 -9.183 -127.70
14.2 -9.642 -149.92 -6.852 130.89 -6.852 130.89 -9.642 -149.92
14.3 -10.05 -177.39 -8.16 114.70 -8.16 114.70 -10.05 -177.39
14.4 -10.22 148.75 -10.21 100.49 -10.21 100.49 -10.22 148.75
14.5 -9.929 109.98 -12.94 93.64 -12.94 93.64 -9.929 109.98
14.6 -9.124 71.16 -14.89 98.29 -14.89 98.29 -9.124 71.16
14.7 -8.091 36.73 -14.83 101.83 -14.83 101.83 -8.091 36.73
14.8 -7.096 7.69 -14.44 96.01 -14.44 96.01 -7.096 7.69
14.9 -6.242 -16.94 -14.74 85.89 -14.74 85.89 -6.242 -16.94
15 -5.547 -38.44 -15.83 75.98 -15.83 75.98 -5.547 -38.44
15.1 -5.003 -57.75 -17.64 69.63 -17.64 69.63 -5.003 -57.75
15.2 -4.594 -75.49 -19.88 71.15 -19.88 71.15 -4.594 -75.49
15.3 -4.303 -92.04 -21.35 84.54 -21.35 84.54 -4.303 -92.04
15.4 -4.113 -107.65 -20.4 100.79 -20.4 100.79 -4.113 -107.65
15.5 -4.008 -122.50 -18.06 106.70 -18.06 106.70 -4.008 -122.50
15.6 -3.975 -136.72 -15.79 104.01 -15.79 104.01 -3.975 -136.72
15.7 -4.004 -150.42 -13.91 96.99 -13.91 96.99 -4.004 -150.42
15.8 -4.088 -163.68 -12.38 87.85 -12.38 87.85 -4.088 -163.68
15.9 -4.222 -176.57 -11.11 77.60 -11.11 77.60 -4.222 -176.57
16 -4.404 170.84 -10.05 66.74 -10.05 66.74 -4.404 170.84
16.1 -4.635 158.53 -9.141 55.51 -9.141 55.51 -4.635 158.53
16.2 -4.916 146.44 -8.355 44.05 -8.355 44.05 -4.916 146.44
16.3 -5.253 134.55 -7.664 32.42 -7.664 32.42 -5.253 134.55
16.4 -5.653 122.86 -7.053 20.66 -7.053 20.66 -5.653 122.86
16.5 -6.125 111.34 -6.508 8.76 -6.508 8.76 -6.125 111.34
16.6 -6.684 100.03 -6.021 -3.25 -6.021 -3.25 -6.684 100.03
16.7 -7.345 88.97 -5.586 -15.39 -5.586 -15.39 -7.345 88.97
16.8 -8.132 78.23 -5.2 -27.66 -5.2 -27.66 -8.132 78.23
16.9 -9.075 67.96 -4.862 -40.06 -4.862 -40.06 -9.075 67.96
17 -10.21 58.43 -4.573 -52.60 -4.573 -52.60 -10.21 58.43
17.1 -11.59 50.10 -4.333 -65.27 -4.333 -65.27 -11.59 50.10
17.2 -13.26 43.86 -4.145 -78.06 -4.145 -78.06 -13.26 43.86
17.3 -15.22 41.40 -4.011 -90.96 -4.011 -90.96 -15.22 41.40
17.4 -17.25 45.64 -3.936 -103.94 -3.936 -103.94 -17.25 45.64
17.5 -18.42 58.44 -3.92 -116.97 -3.92 -116.97 -18.42 58.44
17.6 -17.69 72.83 -3.967 -130.02 -3.967 -130.02 -17.69 72.83
17.7 -15.75 79.44 -4.076 -143.04 -4.076 -143.04 -15.75 79.44
17.8 -13.7 78.46 -4.246 -155.99 -4.246 -155.99 -13.7 78.46
17.9 -11.94 73.01 -4.477 -168.84 -4.477 -168.84 -11.94 73.01
18 -10.48 65.13 -4.766 178.44 -4.766 178.44 -10.48 65.13
