! yapnr rf coupon A: A15 STUB OPEN (stub, family P)
! stackup JLC04161H-7628, nominal parameters; reference planes 10 mm from each end; 50 ohm (renormalized from the line's Zc)
! model: 2D quasi-static RLGC (Djordjevic-Sarkar, Huray roughness, Wheeler loss); generated by python -m yapnr.rf.coupons expected
# GHz S DB R 50
0.1 -38.06 -90.75 -0.04328 -9.66 -0.04328 -9.66 -38.06 -90.75
0.2 -31.93 -104.85 -0.07115 -19.15 -0.07115 -19.15 -31.93 -104.85
0.3 -28.4 -116.25 -0.09798 -28.58 -0.09798 -28.58 -28.4 -116.25
0.4 -25.92 -126.82 -0.125 -38.00 -0.125 -38.00 -25.92 -126.82
0.5 -23.99 -137.00 -0.1527 -47.40 -0.1527 -47.40 -23.99 -137.00
0.6 -22.4 -146.94 -0.1813 -56.79 -0.1813 -56.79 -22.4 -146.94
0.7 -21.05 -156.73 -0.2111 -66.18 -0.2111 -66.18 -21.05 -156.73
0.8 -19.87 -166.41 -0.2423 -75.56 -0.2423 -75.56 -19.87 -166.41
0.9 -18.81 -176.01 -0.275 -84.95 -0.275 -84.95 -18.81 -176.01
1 -17.85 174.45 -0.3095 -94.34 -0.3095 -94.34 -17.85 174.45
1.1 -16.97 164.96 -0.3459 -103.73 -0.3459 -103.73 -16.97 164.96
1.2 -16.16 155.51 -0.3845 -113.13 -0.3845 -113.13 -16.16 155.51
1.3 -15.39 146.08 -0.4255 -122.54 -0.4255 -122.54 -15.39 146.08
1.4 -14.68 136.67 -0.4692 -131.96 -0.4692 -131.96 -14.68 136.67
1.5 -14 127.27 -0.5157 -141.39 -0.5157 -141.39 -14 127.27
1.6 -13.37 117.88 -0.5655 -150.83 -0.5655 -150.83 -13.37 117.88
1.7 -12.76 108.48 -0.6186 -160.28 -0.6186 -160.28 -12.76 108.48
1.8 -12.18 99.08 -0.6754 -169.74 -0.6754 -169.74 -12.18 99.08
1.9 -11.64 89.67 -0.7361 -179.22 -0.7361 -179.22 -11.64 89.67
2 -11.12 80.24 -0.801 171.28 -0.801 171.28 -11.12 80.24
2.1 -10.62 70.80 -0.8703 161.77 -0.8703 161.77 -10.62 70.80
2.2 -10.15 61.33 -0.9443 152.25 -0.9443 152.25 -10.15 61.33
2.3 -9.696 51.84 -1.023 142.71 -1.023 142.71 -9.696 51.84
2.4 -9.265 42.32 -1.107 133.15 -1.107 133.15 -9.265 42.32
2.5 -8.853 32.77 -1.197 123.58 -1.197 123.58 -8.853 32.77
2.6 -8.459 23.19 -1.292 113.98 -1.292 113.98 -8.459 23.19
2.7 -8.083 13.58 -1.393 104.37 -1.393 104.37 -8.083 13.58
2.8 -7.721 3.92 -1.501 94.72 -1.501 94.72 -7.721 3.92
2.9 -7.374 -5.78 -1.615 85.06 -1.615 85.06 -7.374 -5.78
3 -7.04 -15.52 -1.737 75.36 -1.737 75.36 -7.04 -15.52
3.1 -6.717 -25.30 -1.868 65.63 -1.868 65.63 -6.717 -25.30
3.2 -6.404 -35.14 -2.007 55.87 -2.007 55.87 -6.404 -35.14
3.3 -6.1 -45.03 -2.156 46.06 -2.156 46.06 -6.1 -45.03
3.4 -5.805 -54.98 -2.316 36.21 -2.316 36.21 -5.805 -54.98
3.5 -5.515 -65.00 -2.488 26.31 -2.488 26.31 -5.515 -65.00
3.6 -5.232 -75.07 -2.675 16.36 -2.675 16.36 -5.232 -75.07
3.7 -4.954 -85.22 -2.878 6.35 -2.878 6.35 -4.954 -85.22
3.8 -4.68 -95.44 -3.099 -3.72 -3.099 -3.72 -4.68 -95.44
3.9 -4.409 -105.74 -3.341 -13.86 -3.341 -13.86 -4.409 -105.74
4 -4.143 -116.12 -3.608 -24.07 -3.608 -24.07 -4.143 -116.12
4.1 -3.881 -126.58 -3.903 -34.35 -3.903 -34.35 -3.881 -126.58
4.2 -3.623 -137.13 -4.23 -44.71 -4.23 -44.71 -3.623 -137.13
4.3 -3.371 -147.76 -4.595 -55.14 -4.595 -55.14 -3.371 -147.76
4.4 -3.124 -158.49 -5.005 -65.64 -5.005 -65.64 -3.124 -158.49
4.5 -2.886 -169.30 -5.465 -76.21 -5.465 -76.21 -2.886 -169.30
4.6 -2.656 179.79 -5.985 -86.83 -5.985 -86.83 -2.656 179.79
4.7 -2.437 168.81 -6.576 -97.50 -6.576 -97.50 -2.437 168.81
4.8 -2.231 157.74 -7.25 -108.20 -7.25 -108.20 -2.231 157.74
4.9 -2.039 146.60 -8.025 -118.90 -8.025 -118.90 -2.039 146.60
5 -1.865 135.39 -8.921 -129.56 -8.921 -129.56 -1.865 135.39
5.1 -1.709 124.12 -9.967 -140.11 -9.967 -140.11 -1.709 124.12
5.2 -1.574 112.81 -11.2 -150.48 -11.2 -150.48 -1.574 112.81
5.3 -1.46 101.46 -12.7 -160.49 -12.7 -160.49 -1.46 101.46
5.4 -1.37 90.08 -14.54 -169.85 -14.54 -169.85 -1.37 90.08
5.5 -1.305 78.70 -16.9 -177.91 -16.9 -177.91 -1.305 78.70
5.6 -1.264 67.31 -20.13 177.14 -20.13 177.14 -1.264 67.31
5.7 -1.248 55.93 -24.83 -177.93 -24.83 -177.93 -1.248 55.93
5.8 -1.258 44.57 -29.31 -135.49 -29.31 -135.49 -1.258 44.57
5.9 -1.292 33.24 -24.81 -93.91 -24.81 -93.91 -1.292 33.24
6 -1.351 21.94 -20.21 -89.21 -20.21 -89.21 -1.351 21.94
6.1 -1.433 10.68 -17.08 -94.11 -17.08 -94.11 -1.433 10.68
6.2 -1.538 -0.54 -14.79 -102.01 -14.79 -102.01 -1.538 -0.54
6.3 -1.666 -11.70 -13.02 -111.17 -13.02 -111.17 -1.666 -11.70
6.4 -1.814 -22.83 -11.58 -120.94 -11.58 -120.94 -1.814 -22.83
6.5 -1.983 -33.90 -10.39 -131.05 -10.39 -131.05 -1.983 -33.90
6.6 -2.17 -44.92 -9.384 -141.34 -9.384 -141.34 -2.17 -44.92
6.7 -2.376 -55.90 -8.52 -151.74 -8.52 -151.74 -2.376 -55.90
6.8 -2.598 -66.82 -7.769 -162.20 -7.769 -162.20 -2.598 -66.82
6.9 -2.836 -77.69 -7.113 -172.69 -7.113 -172.69 -2.836 -77.69
7 -3.09 -88.52 -6.535 176.82 -6.535 176.82 -3.09 -88.52
7.1 -3.356 -99.29 -6.024 166.35 -6.024 166.35 -3.356 -99.29
7.2 -3.635 -110.00 -5.571 155.89 -5.571 155.89 -3.635 -110.00
7.3 -3.925 -120.66 -5.168 145.46 -5.168 145.46 -3.925 -120.66
7.4 -4.225 -131.26 -4.81 135.07 -4.81 135.07 -4.225 -131.26
7.5 -4.533 -141.79 -4.49 124.72 -4.49 124.72 -4.533 -141.79
7.6 -4.847 -152.26 -4.206 114.42 -4.206 114.42 -4.847 -152.26
7.7 -5.168 -162.66 -3.952 104.17 -3.952 104.17 -5.168 -162.66
7.8 -5.493 -172.99 -3.726 93.97 -3.726 93.97 -5.493 -172.99
7.9 -5.821 176.76 -3.524 83.83 -3.524 83.83 -5.821 176.76
8 -6.152 166.58 -3.344 73.74 -3.344 73.74 -6.152 166.58
8.1 -6.484 156.48 -3.185 63.71 -3.185 63.71 -6.484 156.48
8.2 -6.818 146.46 -3.042 53.73 -3.042 53.73 -6.818 146.46
8.3 -7.152 136.52 -2.915 43.81 -2.915 43.81 -7.152 136.52
8.4 -7.486 126.66 -2.803 33.94 -2.803 33.94 -7.486 126.66
8.5 -7.822 116.87 -2.702 24.12 -2.702 24.12 -7.822 116.87
8.6 -8.159 107.17 -2.612 14.36 -2.612 14.36 -8.159 107.17
8.7 -8.498 97.54 -2.532 4.64 -2.532 4.64 -8.498 97.54
8.8 -8.841 87.98 -2.46 -5.03 -2.46 -5.03 -8.841 87.98
8.9 -9.189 78.49 -2.396 -14.65 -2.396 -14.65 -9.189 78.49
9 -9.543 69.06 -2.338 -24.24 -2.338 -24.24 -9.543 69.06
9.1 -9.907 59.69 -2.285 -33.78 -2.285 -33.78 -9.907 59.69
9.2 -10.28 50.38 -2.238 -43.30 -2.238 -43.30 -10.28 50.38
9.3 -10.67 41.12 -2.195 -52.78 -2.195 -52.78 -10.67 41.12
9.4 -11.07 31.91 -2.155 -62.23 -2.155 -62.23 -11.07 31.91
9.5 -11.5 22.74 -2.119 -71.66 -2.119 -71.66 -11.5 22.74
9.6 -11.94 13.61 -2.087 -81.07 -2.087 -81.07 -11.94 13.61
9.7 -12.41 4.52 -2.057 -90.45 -2.057 -90.45 -12.41 4.52
9.8 -12.91 -4.53 -2.029 -99.82 -2.029 -99.82 -12.91 -4.53
9.9 -13.45 -13.55 -2.005 -109.18 -2.005 -109.18 -13.45 -13.55
10 -14.03 -22.54 -1.982 -118.52 -1.982 -118.52 -14.03 -22.54
10.1 -14.65 -31.49 -1.962 -127.85 -1.962 -127.85 -14.65 -31.49
10.2 -15.32 -40.40 -1.944 -137.18 -1.944 -137.18 -15.32 -40.40
10.3 -16.05 -49.27 -1.929 -146.49 -1.929 -146.49 -16.05 -49.27
10.4 -16.85 -58.08 -1.916 -155.80 -1.916 -155.80 -16.85 -58.08
10.5 -17.73 -66.82 -1.905 -165.11 -1.905 -165.11 -17.73 -66.82
10.6 -18.7 -75.45 -1.897 -174.41 -1.897 -174.41 -18.7 -75.45
10.7 -19.79 -83.96 -1.891 176.30 -1.891 176.30 -19.79 -83.96
10.8 -21.01 -92.26 -1.887 167.00 -1.887 167.00 -21.01 -92.26
10.9 -22.41 -100.26 -1.887 157.72 -1.887 157.72 -22.41 -100.26
11 -24.04 -107.78 -1.888 148.43 -1.888 148.43 -24.04 -107.78
11.1 -25.98 -114.46 -1.892 139.15 -1.892 139.15 -25.98 -114.46
11.2 -28.38 -119.56 -1.899 129.88 -1.899 129.88 -28.38 -119.56
11.3 -31.45 -121.16 -1.907 120.61 -1.907 120.61 -31.45 -121.16
11.4 -35.47 -113.28 -1.918 111.34 -1.918 111.34 -35.47 -113.28
11.5 -38.85 -80.35 -1.931 102.08 -1.931 102.08 -38.85 -80.35
11.6 -36.41 -43.42 -1.946 92.82 -1.946 92.82 -36.41 -43.42
11.7 -32.58 -33.12 -1.963 83.57 -1.963 83.57 -32.58 -33.12
11.8 -29.68 -34.00 -1.982 74.31 -1.982 74.31 -29.68 -34.00
11.9 -27.49 -38.94 -2.002 65.06 -2.002 65.06 -27.49 -38.94
12 -25.77 -45.68 -2.024 55.81 -2.024 55.81 -25.77 -45.68
12.1 -24.36 -53.37 -2.048 46.56 -2.048 46.56 -24.36 -53.37
12.2 -23.17 -61.63 -2.072 37.31 -2.072 37.31 -23.17 -61.63
12.3 -22.14 -70.24 -2.099 28.05 -2.099 28.05 -22.14 -70.24
12.4 -21.23 -79.09 -2.126 18.79 -2.126 18.79 -21.23 -79.09
12.5 -20.41 -88.10 -2.155 9.52 -2.155 9.52 -20.41 -88.10
12.6 -19.66 -97.23 -2.186 0.24 -2.186 0.24 -19.66 -97.23
12.7 -18.96 -106.45 -2.218 -9.04 -2.218 -9.04 -18.96 -106.45
12.8 -18.3 -115.72 -2.252 -18.34 -2.252 -18.34 -18.3 -115.72
12.9 -17.67 -125.03 -2.288 -27.65 -2.288 -27.65 -17.67 -125.03
13 -17.06 -134.37 -2.326 -36.98 -2.326 -36.98 -17.06 -134.37
13.1 -16.48 -143.72 -2.367 -46.32 -2.367 -46.32 -16.48 -143.72
13.2 -15.91 -153.08 -2.41 -55.68 -2.41 -55.68 -15.91 -153.08
13.3 -15.36 -162.45 -2.457 -65.06 -2.457 -65.06 -15.36 -162.45
13.4 -14.81 -171.81 -2.507 -74.46 -2.507 -74.46 -14.81 -171.81
13.5 -14.28 178.83 -2.561 -83.88 -2.561 -83.88 -14.28 178.83
13.6 -13.76 169.47 -2.618 -93.32 -2.618 -93.32 -13.76 169.47
13.7 -13.24 160.11 -2.681 -102.78 -2.681 -102.78 -13.24 160.11
13.8 -12.74 150.74 -2.749 -112.27 -2.749 -112.27 -12.74 150.74
13.9 -12.25 141.37 -2.822 -121.78 -2.822 -121.78 -12.25 141.37
14 -11.77 131.99 -2.902 -131.32 -2.902 -131.32 -11.77 131.99
14.1 -11.3 122.59 -2.989 -140.88 -2.989 -140.88 -11.3 122.59
14.2 -10.85 113.18 -3.082 -150.46 -3.082 -150.46 -10.85 113.18
14.3 -10.41 103.74 -3.184 -160.07 -3.184 -160.07 -10.41 103.74
14.4 -9.981 94.27 -3.293 -169.70 -3.293 -169.70 -9.981 94.27
14.5 -9.572 84.77 -3.412 -179.35 -3.412 -179.35 -9.572 84.77
14.6 -9.179 75.24 -3.54 170.98 -3.54 170.98 -9.179 75.24
14.7 -8.802 65.67 -3.679 161.28 -3.679 161.28 -8.802 65.67
14.8 -8.441 56.05 -3.828 151.57 -3.828 151.57 -8.441 56.05
14.9 -8.096 46.39 -3.989 141.83 -3.989 141.83 -8.096 46.39
15 -7.767 36.68 -4.163 132.07 -4.163 132.07 -7.767 36.68
15.1 -7.453 26.91 -4.349 122.29 -4.349 122.29 -7.453 26.91
15.2 -7.155 17.08 -4.551 112.49 -4.551 112.49 -7.155 17.08
15.3 -6.87 7.19 -4.768 102.66 -4.768 102.66 -6.87 7.19
15.4 -6.599 -2.77 -5.003 92.81 -5.003 92.81 -6.599 -2.77
15.5 -6.341 -12.81 -5.257 82.93 -5.257 82.93 -6.341 -12.81
15.6 -6.094 -22.93 -5.533 73.03 -5.533 73.03 -6.094 -22.93
15.7 -5.859 -33.13 -5.833 63.10 -5.833 63.10 -5.859 -33.13
15.8 -5.634 -43.42 -6.161 53.15 -6.161 53.15 -5.634 -43.42
15.9 -5.418 -53.81 -6.521 43.17 -6.521 43.17 -5.418 -53.81
16 -5.212 -64.30 -6.917 33.17 -6.917 33.17 -5.212 -64.30
16.1 -5.014 -74.89 -7.355 23.17 -7.355 23.17 -5.014 -74.89
16.2 -4.825 -85.59 -7.842 13.16 -7.842 13.16 -4.825 -85.59
16.3 -4.645 -96.39 -8.387 3.18 -8.387 3.18 -4.645 -96.39
16.4 -4.474 -107.30 -8.999 -6.75 -8.999 -6.75 -4.474 -107.30
16.5 -4.312 -118.31 -9.692 -16.58 -9.692 -16.58 -4.312 -118.31
16.6 -4.161 -129.42 -10.48 -26.26 -10.48 -26.26 -4.161 -129.42
16.7 -4.022 -140.62 -11.39 -35.67 -11.39 -35.67 -4.022 -140.62
16.8 -3.896 -151.91 -12.44 -44.68 -12.44 -44.68 -3.896 -151.91
16.9 -3.785 -163.26 -13.66 -53.03 -13.66 -53.03 -3.785 -163.26
17 -3.689 -174.68 -15.1 -60.31 -15.1 -60.31 -3.689 -174.68
17.1 -3.611 173.86 -16.8 -65.75 -16.8 -65.75 -3.611 173.86
17.2 -3.551 162.38 -18.79 -67.95 -18.79 -67.95 -3.551 162.38
17.3 -3.512 150.89 -20.91 -64.37 -20.91 -64.37 -3.512 150.89
17.4 -3.493 139.41 -22.5 -52.35 -22.5 -52.35 -3.493 139.41
17.5 -3.496 127.96 -22.36 -35.86 -22.36 -35.86 -3.496 127.96
17.6 -3.521 116.56 -20.65 -25.25 -20.65 -25.25 -3.521 116.56
17.7 -3.567 105.21 -18.58 -22.81 -18.58 -22.81 -3.567 105.21
17.8 -3.636 93.94 -16.69 -25.60 -16.69 -25.60 -3.636 93.94
17.9 -3.725 82.75 -15.08 -31.32 -15.08 -31.32 -3.725 82.75
18 -3.835 71.64 -13.72 -38.69 -13.72 -38.69 -3.835 71.64
