! yapnr rf coupon A: A16 STUB SHORT (stub, family P)
! stackup JLC04161H-7628, nominal parameters; reference planes 10 mm from each end; 50 ohm (renormalized from the line's Zc)
! model: 2D quasi-static RLGC (Djordjevic-Sarkar, Huray roughness, Wheeler loss); generated by python -m yapnr.rf.coupons expected
# GHz S DB R 50
0.1 -0.1577 164.59 -19.03 72.10 -19.03 72.10 -0.1577 164.59
0.2 -0.3576 149.70 -13.3 57.93 -13.3 57.93 -0.3576 149.70
0.3 -0.6407 135.11 -10.07 43.65 -10.07 43.65 -0.6407 135.11
0.4 -1 120.86 -7.908 29.59 -7.908 29.59 -1 120.86
0.5 -1.426 107.00 -6.348 15.83 -6.348 15.83 -1.426 107.00
0.6 -1.908 93.53 -5.177 2.42 -5.177 2.42 -1.908 93.53
0.7 -2.434 80.46 -4.275 -10.62 -4.275 -10.62 -2.434 80.46
0.8 -2.997 67.77 -3.568 -23.31 -3.568 -23.31 -2.997 67.77
0.9 -3.591 55.45 -3.006 -35.66 -3.006 -35.66 -3.591 55.45
1 -4.212 43.45 -2.555 -47.70 -2.555 -47.70 -4.212 43.45
1.1 -4.857 31.75 -2.189 -59.46 -2.189 -59.46 -4.857 31.75
1.2 -5.527 20.31 -1.889 -70.98 -1.889 -70.98 -5.527 20.31
1.3 -6.223 9.11 -1.642 -82.28 -1.642 -82.28 -6.223 9.11
1.4 -6.947 -1.89 -1.438 -93.38 -1.438 -93.38 -6.947 -1.89
1.5 -7.706 -12.71 -1.267 -104.32 -1.267 -104.32 -7.706 -12.71
1.6 -8.505 -23.37 -1.125 -115.12 -1.125 -115.12 -8.505 -23.37
1.7 -9.353 -33.89 -1.006 -125.79 -1.006 -125.79 -9.353 -33.89
1.8 -10.26 -44.28 -0.9067 -136.35 -0.9067 -136.35 -10.26 -44.28
1.9 -11.24 -54.56 -0.8244 -146.82 -0.8244 -146.82 -11.24 -54.56
2 -12.31 -64.72 -0.7568 -157.21 -0.7568 -157.21 -12.31 -64.72
2.1 -13.49 -74.78 -0.7022 -167.53 -0.7022 -167.53 -13.49 -74.78
2.2 -14.83 -84.70 -0.6591 -177.79 -0.6591 -177.79 -14.83 -84.70
2.3 -16.37 -94.46 -0.6265 172.00 -0.6265 172.00 -16.37 -94.46
2.4 -18.19 -103.98 -0.6036 161.83 -0.6036 161.83 -18.19 -103.98
2.5 -20.44 -113.10 -0.5896 151.69 -0.5896 151.69 -20.44 -113.10
2.6 -23.39 -121.37 -0.5841 141.59 -0.5841 141.59 -23.39 -121.37
2.7 -27.76 -127.18 -0.5865 131.50 -0.5865 131.50 -27.76 -127.18
2.8 -36.09 -118.61 -0.5965 121.44 -0.5965 121.44 -36.09 -118.61
2.9 -36.66 -10.34 -0.6139 111.38 -0.6139 111.38 -36.66 -10.34
3 -28.19 -0.11 -0.6386 101.33 -0.6386 101.33 -28.19 -0.11
3.1 -23.88 -5.77 -0.6703 91.29 -0.6703 91.29 -23.88 -5.77
3.2 -21.02 -14.01 -0.7093 81.23 -0.7093 81.23 -21.02 -14.01
3.3 -18.88 -23.15 -0.7556 71.17 -0.7556 71.17 -18.88 -23.15
3.4 -17.17 -32.71 -0.8095 61.09 -0.8095 61.09 -17.17 -32.71
3.5 -15.74 -42.51 -0.8715 50.98 -0.8715 50.98 -15.74 -42.51
3.6 -14.5 -52.49 -0.9423 40.83 -0.9423 40.83 -14.5 -52.49
3.7 -13.4 -62.61 -1.023 30.64 -1.023 30.64 -13.4 -62.61
3.8 -12.41 -72.84 -1.114 20.40 -1.114 20.40 -12.41 -72.84
3.9 -11.51 -83.18 -1.218 10.09 -1.218 10.09 -11.51 -83.18
4 -10.66 -93.63 -1.337 -0.30 -1.337 -0.30 -10.66 -93.63
4.1 -9.864 -104.20 -1.473 -10.77 -1.473 -10.77 -9.864 -104.20
4.2 -9.107 -114.90 -1.63 -21.36 -1.63 -21.36 -9.107 -114.90
4.3 -8.38 -125.74 -1.811 -32.06 -1.811 -32.06 -8.38 -125.74
4.4 -7.68 -136.74 -2.024 -42.90 -2.024 -42.90 -7.68 -136.74
4.5 -7.003 -147.91 -2.274 -53.89 -2.274 -53.89 -7.003 -147.91
4.6 -6.346 -159.28 -2.571 -65.04 -2.571 -65.04 -6.346 -159.28
4.7 -5.711 -170.87 -2.927 -76.38 -2.927 -76.38 -5.711 -170.87
4.8 -5.098 177.30 -3.355 -87.90 -3.355 -87.90 -5.098 177.30
4.9 -4.511 165.21 -3.877 -99.62 -3.877 -99.62 -4.511 165.21
5 -3.955 152.83 -4.517 -111.51 -4.517 -111.51 -3.955 152.83
5.1 -3.437 140.16 -5.31 -123.54 -5.31 -123.54 -3.437 140.16
5.2 -2.963 127.19 -6.305 -135.63 -6.305 -135.63 -2.963 127.19
5.3 -2.545 113.93 -7.571 -147.63 -7.571 -147.63 -2.545 113.93
5.4 -2.191 100.40 -9.215 -159.22 -9.215 -159.22 -2.191 100.40
5.5 -1.91 86.63 -11.42 -169.74 -11.42 -169.74 -1.91 86.63
5.6 -1.712 72.69 -14.52 -177.32 -14.52 -177.32 -1.712 72.69
5.7 -1.601 58.64 -19.16 -175.14 -19.16 -175.14 -1.601 58.64
5.8 -1.581 44.57 -23.62 -135.49 -23.62 -135.49 -1.581 44.57
5.9 -1.653 30.55 -19.15 -96.64 -19.15 -96.64 -1.653 30.55
6 -1.811 16.65 -14.64 -94.62 -14.64 -94.62 -1.811 16.65
6.1 -2.052 2.94 -11.63 -102.05 -11.63 -102.05 -2.052 2.94
6.2 -2.368 -10.54 -9.508 -112.30 -9.508 -112.30 -2.368 -10.54
6.3 -2.75 -23.76 -7.925 -123.59 -7.925 -123.59 -2.75 -23.76
6.4 -3.192 -36.71 -6.705 -135.28 -6.705 -135.28 -3.192 -36.71
6.5 -3.686 -49.38 -5.744 -147.07 -5.744 -147.07 -3.686 -49.38
6.6 -4.226 -61.78 -4.975 -158.83 -4.975 -158.83 -4.226 -61.78
6.7 -4.808 -73.92 -4.352 -170.50 -4.352 -170.50 -4.808 -73.92
6.8 -5.428 -85.82 -3.843 177.97 -3.843 177.97 -5.428 -85.82
6.9 -6.083 -97.49 -3.425 166.58 -3.425 166.58 -6.083 -97.49
7 -6.772 -108.94 -3.079 155.33 -3.079 155.33 -6.772 -108.94
7.1 -7.493 -120.19 -2.793 144.23 -2.793 144.23 -7.493 -120.19
7.2 -8.249 -131.26 -2.555 133.26 -2.555 133.26 -8.249 -131.26
7.3 -9.039 -142.14 -2.358 122.42 -2.358 122.42 -9.039 -142.14
7.4 -9.866 -152.85 -2.195 111.71 -2.195 111.71 -9.866 -152.85
7.5 -10.74 -163.38 -2.06 101.10 -2.06 101.10 -10.74 -163.38
7.6 -11.65 -173.74 -1.949 90.59 -1.949 90.59 -11.65 -173.74
7.7 -12.62 176.09 -1.859 80.17 -1.859 80.17 -12.62 176.09
7.8 -13.66 166.14 -1.786 69.83 -1.786 69.83 -13.66 166.14
7.9 -14.77 156.42 -1.728 59.57 -1.728 59.57 -14.77 156.42
8 -15.99 147.00 -1.682 49.37 -1.682 49.37 -15.99 147.00
8.1 -17.34 137.97 -1.648 39.23 -1.648 39.23 -17.34 137.97
8.2 -18.86 129.50 -1.624 29.14 -1.624 29.14 -18.86 129.50
8.3 -20.64 121.89 -1.608 19.08 -1.608 19.08 -20.64 121.89
8.4 -22.76 115.79 -1.6 9.06 -1.6 9.06 -22.76 115.79
8.5 -25.42 112.68 -1.599 -0.94 -1.599 -0.94 -25.42 112.68
8.6 -28.79 116.71 -1.605 -10.92 -1.605 -10.92 -28.79 116.71
8.7 -32.18 138.78 -1.618 -20.89 -1.618 -20.89 -32.18 138.78
8.8 -31.44 175.13 -1.637 -30.86 -1.637 -30.86 -31.44 175.13
8.9 -27.76 -168.91 -1.662 -40.84 -1.662 -40.84 -27.76 -168.91
9 -24.54 -167.38 -1.694 -50.83 -1.694 -50.83 -24.54 -167.38
9.1 -22.01 -171.40 -1.733 -60.84 -1.733 -60.84 -22.01 -171.40
9.2 -19.96 -177.83 -1.781 -70.88 -1.781 -70.88 -19.96 -177.83
9.3 -18.23 174.48 -1.837 -80.95 -1.837 -80.95 -18.23 174.48
9.4 -16.74 166.05 -1.903 -91.07 -1.903 -91.07 -16.74 166.05
9.5 -15.42 157.14 -1.981 -101.24 -1.981 -101.24 -15.42 157.14
9.6 -14.23 147.88 -2.072 -111.46 -2.072 -111.46 -14.23 147.88
9.7 -13.15 138.34 -2.178 -121.75 -2.178 -121.75 -13.15 138.34
9.8 -12.15 128.58 -2.302 -132.10 -2.302 -132.10 -12.15 128.58
9.9 -11.23 118.61 -2.446 -142.54 -2.446 -142.54 -11.23 118.61
10 -10.36 108.44 -2.614 -153.06 -2.614 -153.06 -10.36 108.44
10.1 -9.552 98.08 -2.811 -163.66 -2.811 -163.66 -9.552 98.08
10.2 -8.791 87.53 -3.041 -174.36 -3.041 -174.36 -8.791 87.53
10.3 -8.077 76.78 -3.31 174.84 -3.31 174.84 -8.077 76.78
10.4 -7.405 65.82 -3.627 163.94 -3.627 163.94 -7.405 65.82
10.5 -6.774 54.64 -4.001 152.95 -4.001 152.95 -6.774 54.64
10.6 -6.185 43.23 -4.443 141.88 -4.443 141.88 -6.185 43.23
10.7 -5.636 31.58 -4.97 130.74 -4.97 130.74 -5.636 31.58
10.8 -5.129 19.67 -5.601 119.56 -5.601 119.56 -5.129 19.67
10.9 -4.667 7.50 -6.364 108.42 -6.364 108.42 -4.667 7.50
11 -4.253 -4.95 -7.294 97.43 -7.294 97.43 -4.253 -4.95
11.1 -3.89 -17.67 -8.442 86.78 -8.442 86.78 -3.89 -17.67
11.2 -3.585 -30.67 -9.879 76.87 -9.879 76.87 -3.585 -30.67
11.3 -3.341 -43.92 -11.71 68.47 -11.71 68.47 -3.341 -43.92
11.4 -3.165 -57.40 -14.06 63.31 -14.06 63.31 -3.165 -57.40
11.5 -3.063 -71.07 -16.96 65.65 -16.96 65.65 -3.063 -71.07
11.6 -3.037 -84.88 -19.39 83.26 -19.39 83.26 -3.037 -84.88
11.7 -3.091 -98.75 -18.49 108.06 -18.49 108.06 -3.091 -98.75
11.8 -3.224 -112.62 -15.55 117.60 -15.55 117.60 -3.224 -112.62
11.9 -3.434 -126.41 -12.89 115.52 -12.89 115.52 -3.434 -126.41
12 -3.715 -140.05 -10.81 108.34 -10.81 108.34 -3.715 -140.05
12.1 -4.061 -153.48 -9.203 98.89 -9.203 98.89 -4.061 -153.48
12.2 -4.463 -166.67 -7.943 88.35 -7.943 88.35 -4.463 -166.67
12.3 -4.913 -179.58 -6.943 77.31 -6.943 77.31 -4.913 -179.58
12.4 -5.403 167.82 -6.143 66.07 -6.143 66.07 -5.403 167.82
12.5 -5.927 155.52 -5.497 54.77 -5.497 54.77 -5.927 155.52
12.6 -6.477 143.53 -4.972 43.52 -4.972 43.52 -6.477 143.53
12.7 -7.051 131.84 -4.543 32.36 -4.543 32.36 -7.051 131.84
12.8 -7.646 120.44 -4.19 21.31 -4.19 21.31 -7.646 120.44
12.9 -8.259 109.31 -3.898 10.39 -3.898 10.39 -8.259 109.31
13 -8.893 98.45 -3.656 -0.40 -3.656 -0.40 -8.893 98.45
13.1 -9.55 87.84 -3.454 -11.08 -3.454 -11.08 -9.55 87.84
13.2 -10.23 77.47 -3.285 -21.65 -3.285 -21.65 -10.23 77.47
13.3 -10.95 67.33 -3.143 -32.11 -3.143 -32.11 -10.95 67.33
13.4 -11.7 57.44 -3.024 -42.49 -3.024 -42.49 -11.7 57.44
13.5 -12.5 47.80 -2.924 -52.78 -2.924 -52.78 -12.5 47.80
13.6 -13.36 38.42 -2.84 -63.01 -2.84 -63.01 -13.36 38.42
13.7 -14.3 29.35 -2.771 -73.18 -2.771 -73.18 -14.3 29.35
13.8 -15.33 20.64 -2.713 -83.30 -2.713 -83.30 -15.33 20.64
13.9 -16.48 12.42 -2.667 -93.39 -2.667 -93.39 -16.48 12.42
14 -17.79 4.88 -2.63 -103.44 -2.63 -103.44 -17.79 4.88
14.1 -19.31 -1.66 -2.603 -113.46 -2.603 -113.46 -19.31 -1.66
14.2 -21.09 -6.54 -2.584 -123.47 -2.584 -123.47 -21.09 -6.54
14.3 -23.19 -8.46 -2.575 -133.47 -2.575 -133.47 -23.19 -8.46
14.4 -25.58 -4.77 -2.573 -143.45 -2.573 -143.45 -25.58 -4.77
14.5 -27.69 8.73 -2.58 -153.44 -2.58 -153.44 -27.69 8.73
14.6 -27.92 30.30 -2.596 -163.43 -2.596 -163.43 -27.92 30.30
14.7 -25.99 45.85 -2.62 -173.43 -2.62 -173.43 -25.99 45.85
14.8 -23.56 50.96 -2.654 176.57 -2.654 176.57 -23.56 50.96
14.9 -21.37 49.72 -2.697 166.55 -2.697 166.55 -21.37 49.72
15 -19.51 45.13 -2.75 156.52 -2.75 156.52 -19.51 45.13
15.1 -17.94 38.67 -2.813 146.46 -2.813 146.46 -17.94 38.67
15.2 -16.59 31.08 -2.888 136.38 -2.888 136.38 -16.59 31.08
15.3 -15.41 22.76 -2.975 126.27 -2.975 126.27 -15.41 22.76
15.4 -14.37 13.90 -3.076 116.13 -3.076 116.13 -14.37 13.90
15.5 -13.43 4.64 -3.191 105.95 -3.191 105.95 -13.43 4.64
15.6 -12.58 -4.94 -3.322 95.73 -3.322 95.73 -12.58 -4.94
15.7 -11.8 -14.80 -3.472 85.46 -3.472 85.46 -11.8 -14.80
15.8 -11.08 -24.90 -3.643 75.13 -3.643 75.13 -11.08 -24.90
15.9 -10.41 -35.24 -3.838 64.74 -3.838 64.74 -10.41 -35.24
16 -9.774 -45.81 -4.063 54.28 -4.063 54.28 -9.774 -45.81
16.1 -9.176 -56.61 -4.321 43.74 -4.321 43.74 -9.176 -56.61
16.2 -8.607 -67.63 -4.621 33.14 -4.621 33.14 -8.607 -67.63
16.3 -8.063 -78.90 -4.971 22.45 -4.971 22.45 -8.063 -78.90
16.4 -7.544 -90.42 -5.382 11.71 -5.382 11.71 -7.544 -90.42
16.5 -7.048 -102.20 -5.869 0.93 -5.869 0.93 -7.048 -102.20
16.6 -6.577 -114.26 -6.45 -9.86 -6.45 -9.86 -6.577 -114.26
16.7 -6.133 -126.59 -7.149 -20.55 -7.149 -20.55 -6.133 -126.59
16.8 -5.721 -139.21 -7.996 -31.03 -7.996 -31.03 -5.721 -139.21
16.9 -5.348 -152.11 -9.029 -41.05 -9.029 -41.05 -5.348 -152.11
17 -5.02 -165.26 -10.3 -50.20 -10.3 -50.20 -5.02 -165.26
17.1 -4.745 -178.64 -11.85 -57.71 -11.85 -57.71 -4.745 -178.64
17.2 -4.531 167.79 -13.72 -62.13 -13.72 -62.13 -4.531 167.79
17.3 -4.385 154.10 -15.77 -60.90 -15.77 -60.90 -4.385 154.10
17.4 -4.313 140.35 -17.32 -51.29 -17.32 -51.29 -4.313 140.35
17.5 -4.316 126.63 -17.19 -37.22 -17.19 -37.22 -4.316 126.63
17.6 -4.394 113.01 -15.54 -28.97 -15.54 -28.97 -4.394 113.01
17.7 -4.545 99.56 -13.55 -28.80 -13.55 -28.80 -4.545 99.56
17.8 -4.764 86.33 -11.78 -33.74 -11.78 -33.74 -4.764 86.33
17.9 -5.045 73.37 -10.33 -41.43 -10.33 -41.43 -5.045 73.37
18 -5.382 60.70 -9.14 -50.60 -9.14 -50.60 -5.382 60.70
