! yapnr rf coupon A: A17 CPL0.20 (coupled, family CPL20)
! stackup JLC04161H-7628, nominal parameters; reference planes 10 mm from each end; 50 ohm (renormalized from the line's Zc)
! model: 2D quasi-static RLGC (Djordjevic-Sarkar, Huray roughness, Wheeler loss); generated by python -m yapnr.rf.coupons expected
# GHz S DB R 50
0.1 -0.01583 -6.26 -42.55 82.93 -42.55 82.93 -0.01583 -6.26
0.2 -0.03217 -12.44 -36.6 76.75 -36.6 76.75 -0.03217 -12.44
0.3 -0.04897 -18.58 -33.13 70.61 -33.13 70.61 -0.04897 -18.58
0.4 -0.06618 -24.69 -30.67 64.49 -30.67 64.49 -0.06618 -24.69
0.5 -0.08376 -30.79 -28.77 58.40 -28.77 58.40 -0.08376 -30.79
0.6 -0.1017 -36.88 -27.22 52.31 -27.22 52.31 -0.1017 -36.88
0.7 -0.1198 -42.96 -25.92 46.24 -25.92 46.24 -0.1198 -42.96
0.8 -0.1382 -49.03 -24.79 40.19 -24.79 40.19 -0.1382 -49.03
0.9 -0.1568 -55.10 -23.8 34.14 -23.8 34.14 -0.1568 -55.10
1 -0.1755 -61.16 -22.92 28.09 -22.92 28.09 -0.1755 -61.16
1.1 -0.1942 -67.22 -22.13 22.06 -22.13 22.06 -0.1942 -67.22
1.2 -0.213 -73.27 -21.4 16.03 -21.4 16.03 -0.213 -73.27
1.3 -0.2319 -79.32 -20.74 10.00 -20.74 10.00 -0.2319 -79.32
1.4 -0.2507 -85.37 -20.13 3.98 -20.13 3.98 -0.2507 -85.37
1.5 -0.2694 -91.42 -19.56 -2.04 -19.56 -2.04 -0.2694 -91.42
1.6 -0.2881 -97.47 -19.04 -8.06 -19.04 -8.06 -0.2881 -97.47
1.7 -0.3066 -103.52 -18.54 -14.08 -18.54 -14.08 -0.3066 -103.52
1.8 -0.3251 -109.56 -18.08 -20.10 -18.08 -20.10 -0.3251 -109.56
1.9 -0.3434 -115.61 -17.65 -26.11 -17.65 -26.11 -0.3434 -115.61
2 -0.3616 -121.66 -17.24 -32.13 -17.24 -32.13 -0.3616 -121.66
2.1 -0.3796 -127.71 -16.85 -38.15 -16.85 -38.15 -0.3796 -127.71
2.2 -0.3975 -133.76 -16.49 -44.17 -16.49 -44.17 -0.3975 -133.76
2.3 -0.4152 -139.80 -16.14 -50.19 -16.14 -50.19 -0.4152 -139.80
2.4 -0.4328 -145.85 -15.81 -56.20 -15.81 -56.20 -0.4328 -145.85
2.5 -0.4503 -151.90 -15.5 -62.22 -15.5 -62.22 -0.4503 -151.90
2.6 -0.4676 -157.94 -15.2 -68.24 -15.2 -68.24 -0.4676 -157.94
2.7 -0.4849 -163.98 -14.92 -74.26 -14.92 -74.26 -0.4849 -163.98
2.8 -0.5021 -170.02 -14.65 -80.28 -14.65 -80.28 -0.5021 -170.02
2.9 -0.5192 -176.06 -14.39 -86.30 -14.39 -86.30 -0.5192 -176.06
3 -0.5362 177.91 -14.15 -92.32 -14.15 -92.32 -0.5362 177.91
3.1 -0.5533 171.89 -13.92 -98.33 -13.92 -98.33 -0.5533 171.89
3.2 -0.5703 165.87 -13.7 -104.34 -13.7 -104.34 -0.5703 165.87
3.3 -0.5874 159.85 -13.48 -110.35 -13.48 -110.35 -0.5874 159.85
3.4 -0.6045 153.85 -13.28 -116.35 -13.28 -116.35 -0.6045 153.85
3.5 -0.6217 147.85 -13.09 -122.35 -13.09 -122.35 -0.6217 147.85
3.6 -0.639 141.85 -12.91 -128.35 -12.91 -128.35 -0.639 141.85
3.7 -0.6565 135.87 -12.74 -134.33 -12.74 -134.33 -0.6565 135.87
3.8 -0.6741 129.90 -12.57 -140.31 -12.57 -140.31 -0.6741 129.90
3.9 -0.6918 123.93 -12.41 -146.29 -12.41 -146.29 -0.6918 123.93
4 -0.7098 117.98 -12.26 -152.25 -12.26 -152.25 -0.7098 117.98
4.1 -0.7279 112.04 -12.12 -158.21 -12.12 -158.21 -0.7279 112.04
4.2 -0.7463 106.11 -11.99 -164.15 -11.99 -164.15 -0.7463 106.11
4.3 -0.7649 100.19 -11.86 -170.09 -11.86 -170.09 -0.7649 100.19
4.4 -0.7838 94.28 -11.74 -176.01 -11.74 -176.01 -0.7838 94.28
4.5 -0.8029 88.38 -11.62 178.07 -11.62 178.07 -0.8029 88.38
4.6 -0.8224 82.50 -11.51 172.16 -11.51 172.16 -0.8224 82.50
4.7 -0.842 76.62 -11.4 166.27 -11.4 166.27 -0.842 76.62
4.8 -0.862 70.76 -11.3 160.39 -11.3 160.39 -0.862 70.76
4.9 -0.8822 64.90 -11.21 154.52 -11.21 154.52 -0.8822 64.90
5 -0.9026 59.06 -11.12 148.66 -11.12 148.66 -0.9026 59.06
5.1 -0.9233 53.23 -11.03 142.81 -11.03 142.81 -0.9233 53.23
5.2 -0.9443 47.41 -10.95 136.97 -10.95 136.97 -0.9443 47.41
5.3 -0.9654 41.59 -10.87 131.14 -10.87 131.14 -0.9654 41.59
5.4 -0.9868 35.78 -10.79 125.32 -10.79 125.32 -0.9868 35.78
5.5 -1.008 29.99 -10.72 119.51 -10.72 119.51 -1.008 29.99
5.6 -1.03 24.19 -10.65 113.71 -10.65 113.71 -1.03 24.19
5.7 -1.052 18.41 -10.59 107.92 -10.59 107.92 -1.052 18.41
5.8 -1.074 12.62 -10.53 102.14 -10.53 102.14 -1.074 12.62
5.9 -1.096 6.85 -10.47 96.36 -10.47 96.36 -1.096 6.85
6 -1.118 1.07 -10.41 90.59 -10.41 90.59 -1.118 1.07
6.1 -1.139 -4.70 -10.36 84.83 -10.36 84.83 -1.139 -4.70
6.2 -1.161 -10.47 -10.3 79.07 -10.3 79.07 -1.161 -10.47
6.3 -1.183 -16.24 -10.25 73.31 -10.25 73.31 -1.183 -16.24
6.4 -1.205 -22.01 -10.21 67.56 -10.21 67.56 -1.205 -22.01
6.5 -1.226 -27.79 -10.16 61.81 -10.16 61.81 -1.226 -27.79
6.6 -1.247 -33.56 -10.12 56.06 -10.12 56.06 -1.247 -33.56
6.7 -1.268 -39.34 -10.08 50.31 -10.08 50.31 -1.268 -39.34
6.8 -1.288 -45.12 -10.04 44.56 -10.04 44.56 -1.288 -45.12
6.9 -1.308 -50.91 -10 38.80 -10 38.80 -1.308 -50.91
7 -1.328 -56.71 -9.97 33.05 -9.97 33.05 -1.328 -56.71
7.1 -1.346 -62.51 -9.938 27.29 -9.938 27.29 -1.346 -62.51
7.2 -1.365 -68.31 -9.909 21.53 -9.909 21.53 -1.365 -68.31
7.3 -1.382 -74.13 -9.882 15.76 -9.882 15.76 -1.382 -74.13
7.4 -1.399 -79.95 -9.858 9.99 -9.858 9.99 -1.399 -79.95
7.5 -1.416 -85.78 -9.836 4.21 -9.836 4.21 -1.416 -85.78
7.6 -1.431 -91.62 -9.817 -1.57 -9.817 -1.57 -1.431 -91.62
7.7 -1.446 -97.47 -9.801 -7.37 -9.801 -7.37 -1.446 -97.47
7.8 -1.459 -103.33 -9.788 -13.17 -9.788 -13.17 -1.459 -103.33
7.9 -1.472 -109.20 -9.778 -18.97 -9.778 -18.97 -1.472 -109.20
8 -1.484 -115.07 -9.772 -24.79 -9.772 -24.79 -1.484 -115.07
8.1 -1.494 -120.96 -9.769 -30.62 -9.769 -30.62 -1.494 -120.96
8.2 -1.504 -126.86 -9.769 -36.45 -9.769 -36.45 -1.504 -126.86
8.3 -1.513 -132.76 -9.774 -42.29 -9.774 -42.29 -1.513 -132.76
8.4 -1.52 -138.67 -9.782 -48.15 -9.782 -48.15 -1.52 -138.67
8.5 -1.527 -144.59 -9.795 -54.01 -9.795 -54.01 -1.527 -144.59
8.6 -1.532 -150.52 -9.812 -59.88 -9.812 -59.88 -1.532 -150.52
8.7 -1.537 -156.45 -9.834 -65.75 -9.834 -65.75 -1.537 -156.45
8.8 -1.54 -162.40 -9.86 -71.64 -9.86 -71.64 -1.54 -162.40
8.9 -1.543 -168.34 -9.891 -77.53 -9.891 -77.53 -1.543 -168.34
9 -1.544 -174.29 -9.928 -83.43 -9.928 -83.43 -1.544 -174.29
9.1 -1.545 179.75 -9.97 -89.33 -9.97 -89.33 -1.545 179.75
9.2 -1.544 173.79 -10.02 -95.24 -10.02 -95.24 -1.544 173.79
9.3 -1.543 167.83 -10.07 -101.16 -10.07 -101.16 -1.543 167.83
9.4 -1.541 161.86 -10.13 -107.08 -10.13 -107.08 -1.541 161.86
9.5 -1.538 155.89 -10.19 -113.00 -10.19 -113.00 -1.538 155.89
9.6 -1.535 149.93 -10.26 -118.93 -10.26 -118.93 -1.535 149.93
9.7 -1.531 143.96 -10.34 -124.86 -10.34 -124.86 -1.531 143.96
9.8 -1.527 137.99 -10.43 -130.79 -10.43 -130.79 -1.527 137.99
9.9 -1.522 132.02 -10.52 -136.72 -10.52 -136.72 -1.522 132.02
10 -1.517 126.06 -10.62 -142.65 -10.62 -142.65 -1.517 126.06
10.1 -1.511 120.09 -10.72 -148.57 -10.72 -148.57 -1.511 120.09
10.2 -1.506 114.13 -10.83 -154.50 -10.83 -154.50 -1.506 114.13
10.3 -1.5 108.17 -10.95 -160.42 -10.95 -160.42 -1.5 108.17
10.4 -1.494 102.22 -11.08 -166.34 -11.08 -166.34 -1.494 102.22
10.5 -1.489 96.27 -11.21 -172.25 -11.21 -172.25 -1.489 96.27
10.6 -1.483 90.32 -11.36 -178.16 -11.36 -178.16 -1.483 90.32
10.7 -1.478 84.37 -11.51 175.94 -11.51 175.94 -1.478 84.37
10.8 -1.473 78.43 -11.67 170.05 -11.67 170.05 -1.473 78.43
10.9 -1.468 72.49 -11.84 164.16 -11.84 164.16 -1.468 72.49
11 -1.463 66.56 -12.01 158.28 -12.01 158.28 -1.463 66.56
11.1 -1.459 60.62 -12.2 152.40 -12.2 152.40 -1.459 60.62
11.2 -1.456 54.69 -12.4 146.54 -12.4 146.54 -1.456 54.69
11.3 -1.452 48.76 -12.6 140.69 -12.6 140.69 -1.452 48.76
11.4 -1.45 42.84 -12.82 134.84 -12.82 134.84 -1.45 42.84
11.5 -1.447 36.91 -13.05 129.01 -13.05 129.01 -1.447 36.91
11.6 -1.446 30.98 -13.29 123.18 -13.29 123.18 -1.446 30.98
11.7 -1.444 25.05 -13.54 117.37 -13.54 117.37 -1.444 25.05
11.8 -1.444 19.12 -13.81 111.57 -13.81 111.57 -1.444 19.12
11.9 -1.443 13.19 -14.09 105.78 -14.09 105.78 -1.443 13.19
12 -1.444 7.26 -14.39 100.00 -14.39 100.00 -1.444 7.26
12.1 -1.445 1.32 -14.7 94.24 -14.7 94.24 -1.445 1.32
12.2 -1.446 -4.62 -15.03 88.50 -15.03 88.50 -1.446 -4.62
12.3 -1.447 -10.57 -15.38 82.77 -15.38 82.77 -1.447 -10.57
12.4 -1.45 -16.53 -15.75 77.06 -15.75 77.06 -1.45 -16.53
12.5 -1.452 -22.49 -16.15 71.37 -16.15 71.37 -1.452 -22.49
12.6 -1.455 -28.46 -16.57 65.71 -16.57 65.71 -1.455 -28.46
12.7 -1.458 -34.44 -17.02 60.08 -17.02 60.08 -1.458 -34.44
12.8 -1.462 -40.43 -17.5 54.49 -17.5 54.49 -1.462 -40.43
12.9 -1.466 -46.43 -18.02 48.94 -18.02 48.94 -1.466 -46.43
13 -1.47 -52.44 -18.58 43.45 -18.58 43.45 -1.47 -52.44
13.1 -1.474 -58.47 -19.19 38.02 -19.19 38.02 -1.474 -58.47
13.2 -1.479 -64.50 -19.85 32.69 -19.85 32.69 -1.479 -64.50
13.3 -1.483 -70.55 -20.58 27.47 -20.58 27.47 -1.483 -70.55
13.4 -1.488 -76.61 -21.39 22.41 -21.39 22.41 -1.488 -76.61
13.5 -1.494 -82.68 -22.29 17.55 -22.29 17.55 -1.494 -82.68
13.6 -1.499 -88.76 -23.3 12.99 -23.3 12.99 -1.499 -88.76
13.7 -1.505 -94.86 -24.45 8.86 -24.45 8.86 -1.505 -94.86
13.8 -1.51 -100.97 -25.78 5.38 -25.78 5.38 -1.51 -100.97
13.9 -1.516 -107.09 -27.35 2.95 -27.35 2.95 -1.516 -107.09
14 -1.523 -113.22 -29.22 2.33 -29.22 2.33 -1.523 -113.22
14.1 -1.529 -119.37 -31.46 5.11 -31.46 5.11 -1.529 -119.37
14.2 -1.536 -125.52 -34.01 14.66 -34.01 14.66 -1.536 -125.52
14.3 -1.543 -131.68 -36.01 35.86 -36.01 35.86 -1.543 -131.68
14.4 -1.551 -137.85 -35.54 63.18 -35.54 63.18 -1.551 -137.85
14.5 -1.558 -144.02 -33.13 80.54 -33.13 80.54 -1.558 -144.02
14.6 -1.567 -150.20 -30.59 87.49 -30.59 87.49 -1.567 -150.20
14.7 -1.576 -156.39 -28.4 88.94 -28.4 88.94 -1.576 -156.39
14.8 -1.585 -162.57 -26.58 87.59 -26.58 87.59 -1.585 -162.57
14.9 -1.595 -168.76 -25.03 84.71 -25.03 84.71 -1.595 -168.76
15 -1.605 -174.95 -23.71 80.91 -23.71 80.91 -1.605 -174.95
15.1 -1.617 178.87 -22.55 76.52 -22.55 76.52 -1.617 178.87
15.2 -1.629 172.69 -21.52 71.75 -21.52 71.75 -1.629 172.69
15.3 -1.642 166.51 -20.61 66.70 -20.61 66.70 -1.642 166.51
15.4 -1.655 160.35 -19.78 61.45 -19.78 61.45 -1.655 160.35
15.5 -1.67 154.19 -19.03 56.06 -19.03 56.06 -1.67 154.19
15.6 -1.686 148.04 -18.35 50.55 -18.35 50.55 -1.686 148.04
15.7 -1.702 141.90 -17.71 44.96 -17.71 44.96 -1.702 141.90
15.8 -1.72 135.77 -17.13 39.31 -17.13 39.31 -1.72 135.77
15.9 -1.738 129.65 -16.59 33.61 -16.59 33.61 -1.738 129.65
16 -1.758 123.55 -16.09 27.87 -16.09 27.87 -1.758 123.55
16.1 -1.779 117.47 -15.62 22.10 -15.62 22.10 -1.779 117.47
16.2 -1.8 111.40 -15.19 16.30 -15.19 16.30 -1.8 111.40
16.3 -1.823 105.35 -14.78 10.50 -14.78 10.50 -1.823 105.35
16.4 -1.848 99.31 -14.4 4.68 -14.4 4.68 -1.848 99.31
16.5 -1.873 93.29 -14.03 -1.14 -14.03 -1.14 -1.873 93.29
16.6 -1.899 87.29 -13.69 -6.97 -13.69 -6.97 -1.899 87.29
16.7 -1.927 81.31 -13.37 -12.80 -13.37 -12.80 -1.927 81.31
16.8 -1.955 75.34 -13.07 -18.63 -13.07 -18.63 -1.955 75.34
16.9 -1.985 69.39 -12.78 -24.45 -12.78 -24.45 -1.985 69.39
17 -2.016 63.46 -12.51 -30.27 -12.51 -30.27 -2.016 63.46
17.1 -2.048 57.54 -12.25 -36.08 -12.25 -36.08 -2.048 57.54
17.2 -2.081 51.64 -12.01 -41.89 -12.01 -41.89 -2.081 51.64
17.3 -2.115 45.75 -11.77 -47.69 -11.77 -47.69 -2.115 45.75
17.4 -2.15 39.88 -11.55 -53.48 -11.55 -53.48 -2.15 39.88
17.5 -2.185 34.01 -11.34 -59.26 -11.34 -59.26 -2.185 34.01
17.6 -2.222 28.16 -11.14 -65.04 -11.14 -65.04 -2.222 28.16
17.7 -2.26 22.32 -10.94 -70.80 -10.94 -70.80 -2.26 22.32
17.8 -2.298 16.49 -10.76 -76.57 -10.76 -76.57 -2.298 16.49
17.9 -2.337 10.67 -10.58 -82.32 -10.58 -82.32 -2.337 10.67
18 -2.377 4.86 -10.41 -88.07 -10.41 -88.07 -2.377 4.86
