! yapnr rf: line-osh-m-w0p40-l30-m-eq, footprint re-simulated (optimization grid)
! spec sha256 93efc452bfd48fee5051a369a1c3becba0fb20a11185e4caa431d78a41ce2660
! 2 ports renormalized to 50 ohm, e^(+jwt) convention
# GHz S RI R 50
3.000000000  2.289029980e-04 -8.124887646e-04 -9.568263330e-01 -3.253511950e-02 -9.568263330e-01 -3.253511950e-02  2.289029980e-04 -8.124887646e-04
3.025000000  2.202034736e-04 -4.380999186e-04 -9.573451160e-01 -7.744818024e-03 -9.573451160e-01 -7.744818024e-03  2.202034736e-04 -4.380999186e-04
3.050000000  2.307514120e-04 -6.343805090e-05 -9.572216780e-01  1.705073013e-02 -9.572216780e-01  1.705073013e-02  2.307514120e-04 -6.343805089e-05
3.075000000  2.605081037e-04  3.104197475e-04 -9.564560861e-01  4.183498216e-02 -9.564560861e-01  4.183498216e-02  2.605081037e-04  3.104197475e-04
3.100000000  3.095430491e-04  6.825776011e-04 -9.550488402e-01  6.659119656e-02 -9.550488402e-01  6.659119656e-02  3.095430491e-04  6.825776011e-04
3.125000000  3.776289294e-04  1.051975680e-03 -9.530008641e-01  9.130286651e-02 -9.530008641e-01  9.130286651e-02  3.776289294e-04  1.051975680e-03
3.150000000  4.647603860e-04  1.417621962e-03 -9.503135130e-01  1.159533805e-01 -9.503135130e-01  1.159533805e-01  4.647603860e-04  1.417621962e-03
3.175000000  5.705997575e-04  1.778562525e-03 -9.469885696e-01  1.405262202e-01 -9.469885696e-01  1.405262202e-01  5.705997575e-04  1.778562525e-03
3.200000000  6.949298987e-04  2.133805896e-03 -9.430282423e-01  1.650049055e-01 -9.430282423e-01  1.650049055e-01  6.949298987e-04  2.133805896e-03
3.225000000  8.373928674e-04  2.482443340e-03 -9.384351708e-01  1.893729944e-01 -9.384351708e-01  1.893729944e-01  8.373928674e-04  2.482443340e-03
3.250000000  9.975923532e-04  2.823579646e-03 -9.332124240e-01  2.136141058e-01 -9.332124240e-01  2.136141058e-01  9.975923532e-04  2.823579646e-03
3.275000000  1.175130118e-03  3.156305985e-03 -9.273634887e-01  2.377119732e-01 -9.273634887e-01  2.377119732e-01  1.175130118e-03  3.156305985e-03
3.300000000  1.369570653e-03  3.479789803e-03 -9.208922911e-01  2.616503594e-01 -9.208922911e-01  2.616503594e-01  1.369570653e-03  3.479789803e-03
3.325000000  1.580413352e-03  3.793150254e-03 -9.138031573e-01  2.854132166e-01 -9.138031573e-01  2.854132166e-01  1.580413352e-03  3.793150254e-03
3.350000000  1.807211586e-03  4.095542486e-03 -9.061008453e-01  3.089845564e-01 -9.061008453e-01  3.089845564e-01  1.807211586e-03  4.095542486e-03
3.375000000  2.049369344e-03  4.386149892e-03 -8.977905151e-01  3.323485642e-01 -8.977905151e-01  3.323485642e-01  2.049369344e-03  4.386149892e-03
3.400000000  2.306310726e-03  4.664144475e-03 -8.888777318e-01  3.554895701e-01 -8.888777318e-01  3.554895701e-01  2.306310726e-03  4.664144475e-03
3.425000000  2.577390876e-03  4.928768457e-03 -8.793684739e-01  3.783920324e-01 -8.793684739e-01  3.783920324e-01  2.577390876e-03  4.928768457e-03
3.450000000  2.861837636e-03  5.179312138e-03 -8.692691083e-01  4.010406024e-01 -8.692691083e-01  4.010406024e-01  2.861837636e-03  5.179312138e-03
3.475000000  3.158948672e-03  5.415077303e-03 -8.585864093e-01  4.234200710e-01 -8.585864093e-01  4.234200710e-01  3.158948672e-03  5.415077303e-03
3.500000000  3.467859645e-03  5.635489151e-03 -8.473275417e-01  4.455154182e-01 -8.473275417e-01  4.455154182e-01  3.467859645e-03  5.635489151e-03
3.525000000  3.787762191e-03  5.839959030e-03 -8.355000670e-01  4.673117939e-01 -8.355000670e-01  4.673117939e-01  3.787762191e-03  5.839959030e-03
3.550000000  4.117819070e-03  6.027964014e-03 -8.231119199e-01  4.887945678e-01 -8.231119199e-01  4.887945678e-01  4.117819070e-03  6.027964014e-03
3.575000000  4.457172991e-03  6.199025742e-03 -8.101714324e-01  5.099492863e-01 -8.101714324e-01  5.099492863e-01  4.457172991e-03  6.199025742e-03
3.600000000  4.804959572e-03  6.352650315e-03 -7.966872671e-01  5.307617832e-01 -7.966872671e-01  5.307617832e-01  4.804959572e-03  6.352650315e-03
3.625000000  5.160370823e-03  6.488405765e-03 -7.826685149e-01  5.512180226e-01 -7.826685149e-01  5.512180226e-01  5.160370823e-03  6.488405765e-03
3.650000000  5.522382947e-03  6.605927073e-03 -7.681245317e-01  5.713043521e-01 -7.681245317e-01  5.713043521e-01  5.522382947e-03  6.605927073e-03
3.675000000  5.890266045e-03  6.704755315e-03 -7.530651180e-01  5.910072270e-01 -7.530651180e-01  5.910072270e-01  5.890266045e-03  6.704755315e-03
3.700000000  6.262827378e-03  6.784754368e-03 -7.375003290e-01  6.103134923e-01 -7.375003290e-01  6.103134923e-01  6.262827378e-03  6.784754368e-03
3.725000000  6.639295143e-03  6.845506252e-03 -7.214406248e-01  6.292101609e-01 -7.214406248e-01  6.292101609e-01  6.639295143e-03  6.845506252e-03
3.750000000  7.018482899e-03  6.887022175e-03 -7.048967583e-01  6.476845766e-01 -7.048967583e-01  6.476845766e-01  7.018482899e-03  6.887022175e-03
3.775000000  7.399451114e-03  6.909103835e-03 -6.878798369e-01  6.657243260e-01 -6.878798369e-01  6.657243260e-01  7.399451114e-03  6.909103835e-03
3.800000000  7.781153043e-03  6.911748792e-03 -6.704012659e-01  6.833173108e-01 -6.704012659e-01  6.833173108e-01  7.781153043e-03  6.911748792e-03
3.825000000  8.162581546e-03  6.894959509e-03 -6.524728052e-01  7.004516880e-01 -6.524728052e-01  7.004516880e-01  8.162581546e-03  6.894959509e-03
3.850000000  8.542737414e-03  6.858756692e-03 -6.341064535e-01  7.171159850e-01 -6.341064535e-01  7.171159850e-01  8.542737414e-03  6.858756692e-03
3.875000000  8.920680961e-03  6.803190977e-03 -6.153145862e-01  7.332989689e-01 -6.153145862e-01  7.332989689e-01  8.920680961e-03  6.803190977e-03
3.900000000  9.295375986e-03  6.728411878e-03 -5.961097698e-01  7.489898165e-01 -5.961097698e-01  7.489898165e-01  9.295375986e-03  6.728411878e-03
3.925000000  9.665937588e-03  6.634479761e-03 -5.765049232e-01  7.641779687e-01 -5.765049232e-01  7.641779687e-01  9.665937588e-03  6.634479761e-03
3.950000000  1.003131842e-02  6.521690532e-03 -5.565131706e-01  7.788532574e-01 -5.565131706e-01  7.788532574e-01  1.003131842e-02  6.521690532e-03
3.975000000  1.039059014e-02  6.390250471e-03 -5.361479217e-01  7.930058349e-01 -5.361479217e-01  7.930058349e-01  1.039059014e-02  6.390250471e-03
4.000000000  1.074276524e-02  6.240534666e-03 -5.154228288e-01  8.066262102e-01 -5.154228288e-01  8.066262102e-01  1.074276524e-02  6.240534666e-03
4.025000000  1.108692170e-02  6.072874758e-03 -4.943517927e-01  8.197052426e-01 -4.943517927e-01  8.197052426e-01  1.108692170e-02  6.072874758e-03
4.050000000  1.142208412e-02  5.887813889e-03 -4.729489335e-01  8.322341625e-01 -4.729489335e-01  8.322341625e-01  1.142208412e-02  5.887813889e-03
4.075000000  1.174735262e-02  5.685857904e-03 -4.512286168e-01  8.442045540e-01 -4.512286168e-01  8.442045540e-01  1.174735262e-02  5.685857904e-03
4.100000000  1.206186599e-02  5.467530611e-03 -4.292054136e-01  8.556083803e-01 -4.292054136e-01  8.556083803e-01  1.206186599e-02  5.467530611e-03
4.125000000  1.236479749e-02  5.233399940e-03 -4.068940998e-01  8.664379831e-01 -4.068940998e-01  8.664379831e-01  1.236479749e-02  5.233399940e-03
4.150000000  1.265534887e-02  4.984067929e-03 -3.843096606e-01  8.766860823e-01 -3.843096606e-01  8.766860823e-01  1.265534887e-02  4.984067929e-03
4.175000000  1.293275532e-02  4.720153938e-03 -3.614672136e-01  8.863458105e-01 -3.614672136e-01  8.863458105e-01  1.293275532e-02  4.720153938e-03
4.200000000  1.319631017e-02  4.442266508e-03 -3.383821197e-01  8.954106633e-01 -3.383821197e-01  8.954106633e-01  1.319631017e-02  4.442266508e-03
4.225000000  1.344526298e-02  4.151216597e-03 -3.150697970e-01  9.038745776e-01 -3.150697970e-01  9.038745776e-01  1.344526298e-02  4.151216597e-03
4.250000000  1.367899126e-02  3.847632128e-03 -2.915459125e-01  9.117318528e-01 -2.915459125e-01  9.117318528e-01  1.367899126e-02  3.847632128e-03
4.275000000  1.389684551e-02  3.532334823e-03 -2.678262148e-01  9.189772166e-01 -2.678262148e-01  9.189772166e-01  1.389684551e-02  3.532334823e-03
4.300000000  1.409822081e-02  3.206192062e-03 -2.439265990e-01  9.256057994e-01 -2.439265990e-01  9.256057994e-01  1.409822081e-02  3.206192062e-03
4.325000000  1.428254617e-02  2.870172218e-03 -2.198630742e-01  9.316131448e-01 -2.198630742e-01  9.316131448e-01  1.428254617e-02  2.870172218e-03
4.350000000  1.444933557e-02  2.525110987e-03 -1.956518064e-01  9.369952000e-01 -1.956518064e-01  9.369952000e-01  1.444933557e-02  2.525110987e-03
4.375000000  1.459812818e-02  2.171971254e-03 -1.713089966e-01  9.417483461e-01 -1.713089966e-01  9.417483461e-01  1.459812818e-02  2.171971254e-03
4.400000000  1.472852266e-02  1.811673976e-03 -1.468510400e-01  9.458693647e-01 -1.468510400e-01  9.458693647e-01  1.472852266e-02  1.811673976e-03
4.425000000  1.484016122e-02  1.445183356e-03 -1.222942678e-01  9.493554863e-01 -1.222942678e-01  9.493554863e-01  1.484016122e-02  1.445183356e-03
4.450000000  1.493274727e-02  1.073361090e-03 -9.765523661e-02  9.522043428e-01 -9.765523661e-02  9.522043428e-01  1.493274727e-02  1.073361090e-03
4.475000000  1.500600877e-02  6.972882514e-04 -7.295038966e-02  9.544140149e-01 -7.295038966e-02  9.544140149e-01  1.500600877e-02  6.972882514e-04
4.500000000  1.505974485e-02  3.178499304e-04 -4.819633500e-02  9.559829963e-01 -4.819633500e-02  9.559829963e-01  1.505974485e-02  3.178499304e-04
4.525000000  1.509379474e-02 -6.397834006e-05 -2.340966764e-02  9.569102149e-01 -2.340966764e-02  9.569102149e-01  1.509379474e-02 -6.397834006e-05
4.550000000  1.510804838e-02 -4.471360310e-04  1.393012861e-03  9.571950274e-01  1.393012861e-03  9.571950274e-01  1.510804838e-02 -4.471360310e-04
4.575000000  1.510244786e-02 -8.305239083e-04  2.619508518e-02  9.568372177e-01  2.619508518e-02  9.568372177e-01  1.510244786e-02 -8.305239083e-04
4.600000000  1.507699881e-02 -1.213127415e-03  5.097990317e-02  9.558369996e-01  5.097990317e-02  9.558369996e-01  1.507699881e-02 -1.213127415e-03
4.625000000  1.503175448e-02 -1.593897317e-03  7.573084995e-02  9.541950159e-01  7.573084995e-02  9.541950159e-01  1.503175448e-02 -1.593897317e-03
4.650000000  1.496682231e-02 -1.971786220e-03  1.004312987e-01  9.519123411e-01  1.004312987e-01  9.519123411e-01  1.496682231e-02 -1.971786220e-03
4.675000000  1.488236397e-02 -2.345780393e-03  1.250646854e-01  9.489904769e-01  1.250646854e-01  9.489904769e-01  1.488236397e-02 -2.345780393e-03
4.700000000  1.477858333e-02 -2.714901755e-03  1.496144625e-01  9.454313560e-01  1.496144625e-01  9.454313560e-01  1.477858333e-02 -2.714901755e-03
4.725000000  1.465574157e-02 -3.078158463e-03  1.740641529e-01  9.412373366e-01  1.740641529e-01  9.412373366e-01  1.465574157e-02 -3.078158463e-03
4.750000000  1.451415392e-02 -3.434574489e-03  1.983973745e-01  9.364111957e-01  1.983973745e-01  9.364111957e-01  1.451415392e-02 -3.434574489e-03
4.775000000  1.435415597e-02 -3.783301273e-03  2.225977430e-01  9.309561503e-01  2.225977430e-01  9.309561503e-01  1.435415597e-02 -3.783301273e-03
4.800000000  1.417618479e-02 -4.123296852e-03  2.466490755e-01  9.248758125e-01  2.466490755e-01  9.248758125e-01  1.417618479e-02 -4.123296852e-03
4.825000000  1.398068996e-02 -4.453698022e-03  2.705352079e-01  9.181742305e-01  2.705352079e-01  9.181742305e-01  1.398068996e-02 -4.453698022e-03
4.850000000  1.376819978e-02 -4.773515544e-03  2.942401264e-01  9.108558566e-01  2.942401264e-01  9.108558566e-01  1.376819978e-02 -4.773515544e-03
4.875000000  1.353926823e-02 -5.081934654e-03  3.177478968e-01  9.029255682e-01  3.177478968e-01  9.029255682e-01  1.353926823e-02 -5.081934654e-03
4.900000000  1.329450061e-02 -5.378034671e-03  3.410427431e-01  8.943886438e-01  3.410427431e-01  8.943886438e-01  1.329450061e-02 -5.378034671e-03
4.925000000  1.303454889e-02 -5.661020664e-03  3.641089863e-01  8.852507851e-01  3.641089863e-01  8.852507851e-01  1.303454889e-02 -5.661020664e-03
4.950000000  1.276008750e-02 -5.930102921e-03  3.869311576e-01  8.755180750e-01  3.869311576e-01  8.755180750e-01  1.276008750e-02 -5.930102921e-03
4.975000000  1.247182746e-02 -6.184554402e-03  4.094938543e-01  8.651970373e-01  4.094938543e-01  8.651970373e-01  1.247182746e-02 -6.184554402e-03
5.000000000  1.217054399e-02 -6.423657614e-03  4.317819830e-01  8.542945293e-01  4.317819830e-01  8.542945293e-01  1.217054399e-02 -6.423657614e-03
5.025000000  1.185697926e-02 -6.646828006e-03  4.537804731e-01  8.428178770e-01  4.537804731e-01  8.428178770e-01  1.185697926e-02 -6.646828006e-03
5.050000000  1.153201791e-02 -6.853357731e-03  4.754746207e-01  8.307747018e-01  4.754746207e-01  8.307747018e-01  1.153201791e-02 -6.853357731e-03
5.075000000  1.119647208e-02 -7.042782425e-03  4.968497818e-01  8.181730825e-01  4.968497818e-01  8.181730825e-01  1.119647208e-02 -7.042782425e-03
5.100000000  1.085128082e-02 -7.214454120e-03  5.178916278e-01  8.050214126e-01  5.178916278e-01  8.050214126e-01  1.085128082e-02 -7.214454120e-03
5.125000000  1.049735821e-02 -7.367960785e-03  5.385859833e-01  7.913284960e-01  5.385859833e-01  7.913284960e-01  1.049735821e-02 -7.367960785e-03
5.150000000  1.013565908e-02 -7.502788528e-03  5.589189400e-01  7.771034776e-01  5.589189400e-01  7.771034776e-01  1.013565908e-02 -7.502788528e-03
5.175000000  9.767168447e-03 -7.618561469e-03  5.788767945e-01  7.623558842e-01  5.788767945e-01  7.623558842e-01  9.767168447e-03 -7.618561469e-03
5.200000000  9.392863341e-03 -7.714918313e-03  5.984461239e-01  7.470955733e-01  5.984461239e-01  7.470955733e-01  9.392863341e-03 -7.714918313e-03
5.225000000  9.013746742e-03 -7.791562179e-03  6.176137233e-01  7.313327799e-01  6.176137233e-01  7.313327799e-01  9.013746742e-03 -7.791562179e-03
5.250000000  8.630834651e-03 -7.848254574e-03  6.363666996e-01  7.150780432e-01  6.363666996e-01  7.150780432e-01  8.630834651e-03 -7.848254574e-03
5.275000000  8.245127249e-03 -7.884819816e-03  6.546923722e-01  6.983422915e-01  6.546923722e-01  6.983422915e-01  8.245127249e-03 -7.884819816e-03
5.300000000  7.857681527e-03 -7.901116407e-03  6.725784361e-01  6.811366967e-01  6.725784361e-01  6.811366967e-01  7.857681527e-03 -7.901116407e-03
5.325000000  7.469531498e-03 -7.897087397e-03  6.900128221e-01  6.634727994e-01  6.900128221e-01  6.634727994e-01  7.469531498e-03 -7.897087397e-03
5.350000000  7.081731569e-03 -7.872698823e-03  7.069837778e-01  6.453624361e-01  7.069837778e-01  6.453624361e-01  7.081731569e-03 -7.872698823e-03
5.375000000  6.695350944e-03 -7.827985734e-03  7.234798711e-01  6.268177320e-01  7.234798711e-01  6.268177320e-01  6.695350944e-03 -7.827985734e-03
5.400000000  6.311440467e-03 -7.763037310e-03  7.394899692e-01  6.078511249e-01  7.394899692e-01  6.078511249e-01  6.311440467e-03 -7.763037310e-03
5.425000000  5.931058177e-03 -7.677968576e-03  7.550032752e-01  5.884753257e-01  7.550032752e-01  5.884753257e-01  5.931058177e-03 -7.677968576e-03
5.450000000  5.555248145e-03 -7.572989032e-03  7.700093116e-01  5.687033381e-01  7.700093116e-01  5.687033381e-01  5.555248145e-03 -7.572989032e-03
5.475000000  5.185024073e-03 -7.448309938e-03  7.844979483e-01  5.485484257e-01  7.844979483e-01  5.485484257e-01  5.185024073e-03 -7.448309938e-03
5.500000000  4.821405190e-03 -7.304239426e-03  7.984593885e-01  5.280241305e-01  7.984593885e-01  5.280241305e-01  4.821405190e-03 -7.304239426e-03
5.525000000  4.465373505e-03 -7.141110076e-03  8.118841869e-01  5.071442527e-01  8.118841869e-01  5.071442527e-01  4.465373505e-03 -7.141110076e-03
5.550000000  4.117901247e-03 -6.959317197e-03  8.247632725e-01  4.859228152e-01  8.247632725e-01  4.859228152e-01  4.117901247e-03 -6.959317197e-03
5.575000000  3.779953809e-03 -6.759316918e-03  8.370879613e-01  4.643740345e-01  8.370879613e-01  4.643740345e-01  3.779953809e-03 -6.759316918e-03
5.600000000  3.452461131e-03 -6.541609982e-03  8.488498867e-01  4.425124465e-01  8.488498867e-01  4.425124465e-01  3.452461131e-03 -6.541609982e-03
5.625000000  3.136344243e-03 -6.306739827e-03  8.600411289e-01  4.203526741e-01  8.600411289e-01  4.203526741e-01  3.136344243e-03 -6.306739827e-03
5.650000000  2.832504414e-03 -6.055344054e-03  8.706540941e-01  3.979096498e-01  8.706540941e-01  3.979096498e-01  2.832504414e-03 -6.055344054e-03
5.675000000  2.541774925e-03 -5.788015195e-03  8.806816175e-01  3.751984178e-01  8.806816175e-01  3.751984178e-01  2.541774925e-03 -5.788015195e-03
5.700000000  2.265005999e-03 -5.505509939e-03  8.901168984e-01  3.522342649e-01  8.901168984e-01  3.522342649e-01  2.265005999e-03 -5.505509939e-03
5.725000000  2.002944731e-03 -5.208485032e-03  8.989535508e-01  3.290326156e-01  8.989535508e-01  3.290326156e-01  2.002944731e-03 -5.208485032e-03
5.750000000  1.756343973e-03 -4.897742284e-03  9.071855765e-01  3.056090918e-01  9.071855765e-01  3.056090918e-01  1.756343973e-03 -4.897742284e-03
5.775000000  1.525893275e-03 -4.574065753e-03  9.148073886e-01  2.819794631e-01  9.148073886e-01  2.819794631e-01  1.525893275e-03 -4.574065753e-03
5.800000000  1.312247209e-03 -4.238271105e-03  9.218138091e-01  2.581596501e-01  9.218138091e-01  2.581596501e-01  1.312247209e-03 -4.238271105e-03
5.825000000  1.116022375e-03 -3.891234332e-03  9.282000932e-01  2.341656420e-01  9.282000932e-01  2.341656420e-01  1.116022375e-03 -3.891234332e-03
5.850000000  9.378080587e-04 -3.533847713e-03  9.339618879e-01  2.100136412e-01  9.339618879e-01  2.100136412e-01  9.378080587e-04 -3.533847713e-03
5.875000000  7.781231748e-04 -3.167051593e-03  9.390952864e-01  1.857198648e-01  9.390952864e-01  1.857198648e-01  7.781231748e-04 -3.167051593e-03
5.900000000  6.374786146e-04 -2.791828440e-03  9.435967915e-01  1.613006810e-01  9.435967915e-01  1.613006810e-01  6.374786146e-04 -2.791828440e-03
5.925000000  5.162899604e-04 -2.409155804e-03  9.474633386e-01  1.367725152e-01  9.474633386e-01  1.367725152e-01  5.162899604e-04 -2.409155804e-03
5.950000000  4.149434076e-04 -2.020076811e-03  9.506922892e-01  1.121518751e-01  9.506922892e-01  1.121518751e-01  4.149434076e-04 -2.020076811e-03
5.975000000  3.337573799e-04 -1.625608257e-03  9.532814336e-01  8.745534043e-02  9.532814336e-01  8.745534043e-02  3.337573799e-04 -1.625608257e-03
6.000000000  2.729824686e-04 -1.226782265e-03  9.552289943e-01  6.269954168e-02  9.552289943e-01  6.269954168e-02  2.729824686e-04 -1.226782265e-03
6.025000000  2.328264634e-04 -8.246858730e-04  9.565336259e-01  3.790117526e-02  9.565336259e-01  3.790117526e-02  2.328264634e-04 -8.246858730e-04
6.050000000  2.134431789e-04 -4.203304507e-04  9.571944197e-01  1.307695022e-02  9.571944197e-01  1.307695022e-02  2.134431789e-04 -4.203304507e-04
6.075000000  2.149346155e-04 -1.479113150e-05  9.572109023e-01 -1.175639451e-02  9.572109023e-01 -1.175639451e-02  2.149346155e-04 -1.479113150e-05
6.100000000  2.373708428e-04  3.908663495e-04  9.565830362e-01 -3.658213188e-02  9.565830362e-01 -3.658213188e-02  2.373708428e-04  3.908663495e-04
6.125000000  2.807620845e-04  7.955659955e-04  9.553112213e-01 -6.138349642e-02  9.553112213e-01 -6.138349642e-02  2.807620845e-04  7.955659955e-04
6.150000000  3.450510628e-04  1.198209544e-03  9.533962894e-01 -8.614382357e-02  9.533962894e-01 -8.614382357e-02  3.450510628e-04  1.198209544e-03
6.175000000  4.301794798e-04  1.597702918e-03  9.508395109e-01 -1.108463854e-01  9.508395109e-01 -1.108463854e-01  4.301794798e-04  1.597702918e-03
6.200000000  5.359152543e-04  1.992977995e-03  9.476425830e-01 -1.354745883e-01  9.476425830e-01 -1.354745883e-01  5.359152543e-04  1.992977995e-03
6.225000000  6.620965955e-04  2.382906087e-03  9.438076401e-01 -1.600118136e-01  9.438076401e-01 -1.600118136e-01  6.620965955e-04  2.382906087e-03
6.250000000  8.083638902e-04  2.766507508e-03  9.393372438e-01 -1.844415453e-01  9.393372438e-01 -1.844415453e-01  8.083638902e-04  2.766507508e-03
6.275000000  9.743835479e-04  3.142666927e-03  9.342343887e-01 -2.087473076e-01  9.342343887e-01 -2.087473076e-01  9.743835479e-04  3.142666927e-03
6.300000000  1.159758826e-03  3.510457888e-03  9.285024933e-01 -2.329127265e-01  9.285024933e-01 -2.329127265e-01  1.159758826e-03  3.510457888e-03
6.325000000  1.363994475e-03  3.868858327e-03  9.221454170e-01 -2.569214647e-01  9.221454170e-01 -2.569214647e-01  1.363994475e-03  3.868858327e-03
6.350000000  1.586646428e-03  4.216926943e-03  9.151674157e-01 -2.807573865e-01  9.151674157e-01 -2.807573865e-01  1.586646428e-03  4.216926943e-03
6.375000000  1.827178737e-03  4.553730440e-03  9.075732059e-01 -3.044043376e-01  9.075732059e-01 -3.044043376e-01  1.827178737e-03  4.553730440e-03
6.400000000  2.084993986e-03  4.878339000e-03  8.993678697e-01 -3.278464578e-01  8.993678697e-01 -3.278464578e-01  2.084993986e-03  4.878339000e-03
6.425000000  2.359552247e-03  5.189830514e-03  8.905569503e-01 -3.510678764e-01  8.905569503e-01 -3.510678764e-01  2.359552247e-03  5.189830514e-03
6.450000000  2.650091955e-03  5.487371862e-03  8.811463555e-01 -3.740530030e-01  8.811463555e-01 -3.740530030e-01  2.650091955e-03  5.487371862e-03
6.475000000  2.955963469e-03  5.770065703e-03  8.711424237e-01 -3.967863291e-01  8.711424237e-01 -3.967863291e-01  2.955963469e-03  5.770065703e-03
6.500000000  3.276330965e-03  6.037183552e-03  8.605518814e-01 -4.192525521e-01  8.605518814e-01 -4.192525521e-01  3.276330965e-03  6.037183552e-03
6.525000000  3.610385664e-03  6.287903098e-03  8.493818549e-01 -4.414365361e-01  8.493818549e-01 -4.414365361e-01  3.610385664e-03  6.287903098e-03
6.550000000  3.957241985e-03  6.521616796e-03  8.376398637e-01 -4.633233330e-01  8.376398637e-01 -4.633233330e-01  3.957241985e-03  6.521616796e-03
6.575000000  4.315970400e-03  6.737677688e-03  8.253338230e-01 -4.848981785e-01  8.253338230e-01 -4.848981785e-01  4.315970400e-03  6.737677688e-03
6.600000000  4.685668502e-03  6.935486988e-03  8.124720179e-01 -5.061465388e-01  8.124720179e-01 -5.061465388e-01  4.685668502e-03  6.935486988e-03
6.625000000  5.065397687e-03  7.114510764e-03  7.990631303e-01 -5.270540663e-01  7.990631303e-01 -5.270540663e-01  5.065397687e-03  7.114510764e-03
6.650000000  5.454182931e-03  7.274237982e-03  7.851161916e-01 -5.476066789e-01  7.851161916e-01 -5.476066789e-01  5.454182931e-03  7.274237982e-03
6.675000000  5.851082990e-03  7.414172117e-03  7.706406005e-01 -5.677905256e-01  7.706406005e-01 -5.677905256e-01  5.851082990e-03  7.414172117e-03
6.700000000  6.255081523e-03  7.533893498e-03  7.556461170e-01 -5.875920002e-01  7.556461170e-01 -5.875920002e-01  6.255081523e-03  7.533893498e-03
6.725000000  6.665133741e-03  7.633010778e-03  7.401428173e-01 -6.069977981e-01  7.401428173e-01 -6.069977981e-01  6.665133741e-03  7.633010778e-03
6.750000000  7.080214269e-03  7.711170995e-03  7.241411540e-01 -6.259948345e-01  7.241411540e-01 -6.259948345e-01  7.080214269e-03  7.711170995e-03
6.775000000  7.499156697e-03  7.768186058e-03  7.076518782e-01 -6.445703474e-01  7.076518782e-01 -6.445703474e-01  7.499156697e-03  7.768186058e-03
6.800000000  7.920891359e-03  7.803799510e-03  6.906860926e-01 -6.627118253e-01  6.906860926e-01 -6.627118253e-01  7.920891359e-03  7.803799510e-03
6.825000000  8.344254312e-03  7.817986377e-03  6.732552213e-01 -6.804070504e-01  6.732552213e-01 -6.804070504e-01  8.344254312e-03  7.817986377e-03
6.850000000  8.768090581e-03  7.810672279e-03  6.553710015e-01 -6.976441054e-01  6.553710015e-01 -6.976441054e-01  8.768090581e-03  7.810672279e-03
6.875000000  9.191339224e-03  7.781859111e-03  6.370454791e-01 -7.144113759e-01  6.370454791e-01 -7.144113759e-01  9.191339224e-03  7.781859111e-03
6.900000000  9.612822895e-03  7.731655728e-03  6.182910344e-01 -7.306975362e-01  6.182910344e-01 -7.306975362e-01  9.612822895e-03  7.731655728e-03
6.925000000  1.003151146e-02  7.660086065e-03  5.991202508e-01 -7.464916574e-01  5.991202508e-01 -7.464916574e-01  1.003151146e-02  7.660086065e-03
6.950000000  1.044633453e-02  7.567290703e-03  5.795461271e-01 -7.617830326e-01  5.795461271e-01 -7.617830326e-01  1.044633453e-02  7.567290703e-03
6.975000000  1.085615822e-02  7.453492457e-03  5.595817481e-01 -7.765614437e-01  5.595817481e-01 -7.765614437e-01  1.085615822e-02  7.453492457e-03
7.000000000  1.125999007e-02  7.318834106e-03  5.392406164e-01 -7.908168947e-01  5.392406164e-01 -7.908168947e-01  1.125999007e-02  7.318834106e-03
