! yapnr Order 0 O0-M: A16 port 1, 6 mm C-pad
! stackup OSHPARK-4L-EM528, nominal parameters; geometry of the OSHPARK-4L-FR408HR design
! model: 2D quasi-static RLGC (Djordjevic-Sarkar, Huray roughness, Wheeler loss); generated by python -m yapnr.rf.coupons expected --stackup OSHPARK-4L-FR408HR --upload M
! open-ended wide line + KJK open end; the line-to-pad step not modelled; 50 ohm
# GHz S DB R 50
0.006 -0.0010571 -1.46
0.012 -0.0021133 -2.91
0.018 -0.0031677 -4.36
0.024 -0.0042192 -5.80
0.03 -0.0052669 -7.25
0.036 -0.0063099 -8.69
0.042 -0.0073472 -10.12
0.048 -0.0083779 -11.55
0.054 -0.0094011 -12.98
0.06 -0.010416 -14.41
0.066 -0.011422 -15.82
0.072 -0.012417 -17.24
0.078 -0.013402 -18.65
0.084 -0.014375 -20.05
0.09 -0.015336 -21.44
0.096 -0.016284 -22.83
0.102 -0.017218 -24.22
0.108 -0.018138 -25.59
0.114 -0.019044 -26.96
0.12 -0.019933 -28.32
0.126 -0.020807 -29.67
0.132 -0.021665 -31.01
0.138 -0.022506 -32.35
0.144 -0.023329 -33.67
0.15 -0.024136 -34.99
0.156 -0.024924 -36.29
0.162 -0.025694 -37.59
0.168 -0.026446 -38.88
0.174 -0.02718 -40.15
0.18 -0.027895 -41.42
0.186 -0.028591 -42.68
0.192 -0.029268 -43.92
0.198 -0.029926 -45.16
0.204 -0.030566 -46.38
0.21 -0.031186 -47.59
0.216 -0.031788 -48.80
0.222 -0.032371 -49.99
0.228 -0.032935 -51.17
0.234 -0.03348 -52.33
0.24 -0.034007 -53.49
0.246 -0.034516 -54.63
0.252 -0.035007 -55.77
0.258 -0.035479 -56.89
0.264 -0.035934 -58.00
0.27 -0.036372 -59.10
0.276 -0.036792 -60.18
0.282 -0.037196 -61.26
0.288 -0.037582 -62.32
0.294 -0.037952 -63.37
0.3 -0.038307 -64.41
0.306 -0.038645 -65.44
0.312 -0.038968 -66.46
0.318 -0.039276 -67.46
0.324 -0.039568 -68.46
0.33 -0.039847 -69.44
0.336 -0.040111 -70.41
0.342 -0.040361 -71.37
0.348 -0.040598 -72.32
0.354 -0.040822 -73.25
0.36 -0.041032 -74.18
0.366 -0.041231 -75.10
0.372 -0.041417 -76.00
0.378 -0.041591 -76.89
0.384 -0.041753 -77.78
0.39 -0.041905 -78.65
0.396 -0.042046 -79.51
0.402 -0.042176 -80.36
0.408 -0.042295 -81.20
0.414 -0.042405 -82.03
0.42 -0.042506 -82.85
0.426 -0.042597 -83.66
0.432 -0.042679 -84.46
0.438 -0.042752 -85.25
0.444 -0.042817 -86.03
0.45 -0.042873 -86.81
0.456 -0.042922 -87.57
0.462 -0.042963 -88.32
0.468 -0.042997 -89.06
0.474 -0.043024 -89.80
0.48 -0.043044 -90.52
0.486 -0.043057 -91.24
0.492 -0.043064 -91.95
0.498 -0.043065 -92.64
0.504 -0.04306 -93.33
0.51 -0.043049 -94.02
0.516 -0.043033 -94.69
0.522 -0.043012 -95.35
0.528 -0.042985 -96.01
0.534 -0.042954 -96.66
0.54 -0.042918 -97.30
0.546 -0.042878 -97.93
0.552 -0.042834 -98.56
0.558 -0.042785 -99.18
0.564 -0.042732 -99.79
0.57 -0.042676 -100.39
0.576 -0.042616 -100.98
0.582 -0.042553 -101.57
0.588 -0.042486 -102.15
0.594 -0.042416 -102.73
0.6 -0.042343 -103.29
0.606 -0.042268 -103.85
0.612 -0.042189 -104.41
0.618 -0.042108 -104.96
0.624 -0.042025 -105.50
0.63 -0.041939 -106.03
0.636 -0.041851 -106.56
0.642 -0.041761 -107.08
0.648 -0.041669 -107.60
0.654 -0.041575 -108.11
0.66 -0.041479 -108.61
0.666 -0.041381 -109.11
0.672 -0.041282 -109.60
0.678 -0.041181 -110.08
0.684 -0.041079 -110.57
0.69 -0.040975 -111.04
0.696 -0.04087 -111.51
0.702 -0.040764 -111.97
0.708 -0.040657 -112.43
0.714 -0.040548 -112.89
0.72 -0.040439 -113.34
0.726 -0.040329 -113.78
0.732 -0.040217 -114.22
0.738 -0.040106 -114.65
0.744 -0.039993 -115.08
0.75 -0.03988 -115.50
0.756 -0.039766 -115.92
0.762 -0.039651 -116.34
0.768 -0.039536 -116.75
0.774 -0.039421 -117.15
0.78 -0.039305 -117.56
0.786 -0.039188 -117.95
0.792 -0.039072 -118.34
0.798 -0.038955 -118.73
0.804 -0.038837 -119.12
0.81 -0.03872 -119.50
0.816 -0.038603 -119.87
0.822 -0.038485 -120.24
0.828 -0.038367 -120.61
0.834 -0.038249 -120.98
0.84 -0.038131 -121.34
0.846 -0.038013 -121.69
0.852 -0.037895 -122.05
0.858 -0.037777 -122.40
0.864 -0.037659 -122.74
0.87 -0.037542 -123.08
0.876 -0.037424 -123.42
0.882 -0.037307 -123.76
0.888 -0.037189 -124.09
0.894 -0.037072 -124.42
0.9 -0.036955 -124.74
0.906 -0.036839 -125.06
0.912 -0.036722 -125.38
0.918 -0.036606 -125.69
0.924 -0.03649 -126.01
0.93 -0.036374 -126.32
0.936 -0.036259 -126.62
0.942 -0.036144 -126.92
0.948 -0.03603 -127.22
0.954 -0.035915 -127.52
0.96 -0.035801 -127.81
0.966 -0.035688 -128.11
0.972 -0.035575 -128.39
0.978 -0.035462 -128.68
0.984 -0.035349 -128.96
0.99 -0.035237 -129.24
0.996 -0.035126 -129.52
1.002 -0.035015 -129.79
1.008 -0.034904 -130.07
1.014 -0.034794 -130.34
1.02 -0.034684 -130.60
1.026 -0.034575 -130.87
1.032 -0.034466 -131.13
1.038 -0.034358 -131.39
1.044 -0.03425 -131.65
1.05 -0.034143 -131.90
1.056 -0.034036 -132.15
1.062 -0.033929 -132.40
1.068 -0.033824 -132.65
1.074 -0.033718 -132.90
1.08 -0.033613 -133.14
1.086 -0.033509 -133.38
1.092 -0.033405 -133.62
1.098 -0.033302 -133.86
1.104 -0.033199 -134.09
1.11 -0.033097 -134.33
1.116 -0.032995 -134.56
1.122 -0.032894 -134.79
1.128 -0.032793 -135.01
1.134 -0.032693 -135.24
1.14 -0.032593 -135.46
1.146 -0.032494 -135.68
1.152 -0.032396 -135.90
1.158 -0.032298 -136.12
1.164 -0.0322 -136.33
1.17 -0.032103 -136.55
1.176 -0.032007 -136.76
1.182 -0.031911 -136.97
1.188 -0.031816 -137.18
1.194 -0.031721 -137.38
1.2 -0.031626 -137.59
1.206 -0.031533 -137.79
1.212 -0.031439 -137.99
1.218 -0.031347 -138.19
1.224 -0.031255 -138.39
1.23 -0.031163 -138.59
1.236 -0.031072 -138.78
1.242 -0.030981 -138.98
1.248 -0.030891 -139.17
1.254 -0.030802 -139.36
1.26 -0.030713 -139.55
1.266 -0.030624 -139.73
1.272 -0.030536 -139.92
1.278 -0.030449 -140.10
1.284 -0.030362 -140.29
1.29 -0.030275 -140.47
1.296 -0.03019 -140.65
1.302 -0.030104 -140.83
1.308 -0.030019 -141.00
1.314 -0.029935 -141.18
1.32 -0.029851 -141.35
1.326 -0.029768 -141.53
1.332 -0.029685 -141.70
1.338 -0.029602 -141.87
1.344 -0.029521 -142.04
1.35 -0.029439 -142.20
1.356 -0.029358 -142.37
1.362 -0.029278 -142.54
1.368 -0.029198 -142.70
1.374 -0.029119 -142.86
1.38 -0.02904 -143.03
1.386 -0.028961 -143.19
1.392 -0.028883 -143.35
1.398 -0.028806 -143.50
1.404 -0.028729 -143.66
1.41 -0.028652 -143.82
1.416 -0.028576 -143.97
1.422 -0.028501 -144.12
1.428 -0.028426 -144.28
1.434 -0.028351 -144.43
1.44 -0.028277 -144.58
1.446 -0.028203 -144.73
1.452 -0.02813 -144.88
1.458 -0.028057 -145.02
1.464 -0.027984 -145.17
1.47 -0.027913 -145.31
1.476 -0.027841 -145.46
1.482 -0.02777 -145.60
1.488 -0.027699 -145.74
1.494 -0.027629 -145.88
1.5 -0.027559 -146.02
1.506 -0.02749 -146.16
1.512 -0.027421 -146.30
1.518 -0.027353 -146.44
1.524 -0.027285 -146.58
1.53 -0.027217 -146.71
1.536 -0.02715 -146.85
1.542 -0.027083 -146.98
1.548 -0.027017 -147.11
1.554 -0.026951 -147.24
1.56 -0.026885 -147.37
1.566 -0.02682 -147.50
1.572 -0.026755 -147.63
1.578 -0.026691 -147.76
1.584 -0.026627 -147.89
1.59 -0.026564 -148.02
1.596 -0.0265 -148.14
1.602 -0.026438 -148.27
1.608 -0.026375 -148.39
1.614 -0.026313 -148.51
1.62 -0.026252 -148.64
1.626 -0.02619 -148.76
1.632 -0.02613 -148.88
1.638 -0.026069 -149.00
1.644 -0.026009 -149.12
1.65 -0.025949 -149.24
1.656 -0.02589 -149.36
1.662 -0.025831 -149.47
1.668 -0.025772 -149.59
1.674 -0.025714 -149.71
1.68 -0.025656 -149.82
1.686 -0.025599 -149.94
1.692 -0.025542 -150.05
1.698 -0.025485 -150.16
1.704 -0.025428 -150.27
1.71 -0.025372 -150.39
1.716 -0.025316 -150.50
1.722 -0.025261 -150.61
1.728 -0.025206 -150.72
1.734 -0.025151 -150.83
1.74 -0.025097 -150.93
1.746 -0.025042 -151.04
1.752 -0.024989 -151.15
1.758 -0.024935 -151.26
1.764 -0.024882 -151.36
1.77 -0.024829 -151.47
1.776 -0.024777 -151.57
1.782 -0.024725 -151.67
1.788 -0.024673 -151.78
1.794 -0.024621 -151.88
1.8 -0.02457 -151.98
1.806 -0.024519 -152.08
1.812 -0.024469 -152.19
1.818 -0.024419 -152.29
1.824 -0.024369 -152.39
1.83 -0.024319 -152.48
1.836 -0.02427 -152.58
1.842 -0.024221 -152.68
1.848 -0.024172 -152.78
1.854 -0.024124 -152.88
1.86 -0.024075 -152.97
1.866 -0.024028 -153.07
1.872 -0.02398 -153.16
1.878 -0.023933 -153.26
1.884 -0.023886 -153.35
1.89 -0.023839 -153.45
1.896 -0.023793 -153.54
1.902 -0.023747 -153.63
1.908 -0.023701 -153.72
1.914 -0.023655 -153.82
1.92 -0.02361 -153.91
1.926 -0.023565 -154.00
1.932 -0.02352 -154.09
1.938 -0.023476 -154.18
1.944 -0.023431 -154.27
1.95 -0.023387 -154.36
1.956 -0.023344 -154.45
1.962 -0.0233 -154.53
1.968 -0.023257 -154.62
1.974 -0.023214 -154.71
1.98 -0.023172 -154.79
1.986 -0.023129 -154.88
1.992 -0.023087 -154.97
1.998 -0.023045 -155.05
2.004 -0.023004 -155.14
2.01 -0.022962 -155.22
2.016 -0.022921 -155.30
2.022 -0.02288 -155.39
2.028 -0.02284 -155.47
2.034 -0.022799 -155.55
2.04 -0.022759 -155.63
2.046 -0.022719 -155.72
2.052 -0.02268 -155.80
2.058 -0.02264 -155.88
2.064 -0.022601 -155.96
2.07 -0.022562 -156.04
2.076 -0.022524 -156.12
2.082 -0.022485 -156.20
2.088 -0.022447 -156.28
2.094 -0.022409 -156.36
2.1 -0.022371 -156.43
2.106 -0.022334 -156.51
2.112 -0.022296 -156.59
2.118 -0.022259 -156.67
2.124 -0.022222 -156.74
2.13 -0.022186 -156.82
2.136 -0.022149 -156.89
2.142 -0.022113 -156.97
2.148 -0.022077 -157.05
2.154 -0.022041 -157.12
2.16 -0.022005 -157.19
2.166 -0.02197 -157.27
2.172 -0.021935 -157.34
2.178 -0.0219 -157.42
2.184 -0.021865 -157.49
2.19 -0.021831 -157.56
2.196 -0.021796 -157.63
2.202 -0.021762 -157.71
2.208 -0.021728 -157.78
2.214 -0.021695 -157.85
2.22 -0.021661 -157.92
2.226 -0.021628 -157.99
2.232 -0.021595 -158.06
2.238 -0.021562 -158.13
2.244 -0.021529 -158.20
2.25 -0.021496 -158.27
2.256 -0.021464 -158.34
2.262 -0.021432 -158.41
2.268 -0.0214 -158.48
2.274 -0.021368 -158.54
2.28 -0.021337 -158.61
2.286 -0.021305 -158.68
2.292 -0.021274 -158.75
2.298 -0.021243 -158.81
2.304 -0.021212 -158.88
2.31 -0.021181 -158.95
2.316 -0.021151 -159.01
2.322 -0.021121 -159.08
2.328 -0.021091 -159.14
2.334 -0.021061 -159.21
2.34 -0.021031 -159.27
2.346 -0.021001 -159.34
2.352 -0.020972 -159.40
2.358 -0.020943 -159.47
2.364 -0.020914 -159.53
2.37 -0.020885 -159.59
2.376 -0.020856 -159.66
2.382 -0.020828 -159.72
2.388 -0.020799 -159.78
2.394 -0.020771 -159.85
2.4 -0.020743 -159.91
2.406 -0.020715 -159.97
2.412 -0.020687 -160.03
2.418 -0.02066 -160.09
2.424 -0.020632 -160.15
2.43 -0.020605 -160.21
2.436 -0.020578 -160.28
2.442 -0.020551 -160.34
2.448 -0.020525 -160.40
2.454 -0.020498 -160.46
2.46 -0.020472 -160.52
2.466 -0.020445 -160.57
2.472 -0.020419 -160.63
2.478 -0.020393 -160.69
2.484 -0.020368 -160.75
2.49 -0.020342 -160.81
2.496 -0.020317 -160.87
2.502 -0.020291 -160.93
2.508 -0.020266 -160.98
2.514 -0.020241 -161.04
2.52 -0.020216 -161.10
2.526 -0.020191 -161.16
2.532 -0.020167 -161.21
2.538 -0.020142 -161.27
2.544 -0.020118 -161.33
2.55 -0.020094 -161.38
2.556 -0.02007 -161.44
2.562 -0.020046 -161.49
2.568 -0.020022 -161.55
2.574 -0.019999 -161.60
2.58 -0.019976 -161.66
2.586 -0.019952 -161.71
2.592 -0.019929 -161.77
2.598 -0.019906 -161.82
2.604 -0.019883 -161.88
2.61 -0.019861 -161.93
2.616 -0.019838 -161.98
2.622 -0.019816 -162.04
2.628 -0.019793 -162.09
2.634 -0.019771 -162.14
2.64 -0.019749 -162.20
2.646 -0.019727 -162.25
2.652 -0.019705 -162.30
2.658 -0.019684 -162.36
2.664 -0.019662 -162.41
2.67 -0.019641 -162.46
2.676 -0.01962 -162.51
2.682 -0.019598 -162.56
2.688 -0.019577 -162.61
2.694 -0.019557 -162.67
2.7 -0.019536 -162.72
2.706 -0.019515 -162.77
2.712 -0.019495 -162.82
2.718 -0.019474 -162.87
2.724 -0.019454 -162.92
2.73 -0.019434 -162.97
2.736 -0.019414 -163.02
2.742 -0.019394 -163.07
2.748 -0.019374 -163.12
2.754 -0.019355 -163.17
2.76 -0.019335 -163.22
2.766 -0.019316 -163.27
2.772 -0.019297 -163.31
2.778 -0.019278 -163.36
2.784 -0.019259 -163.41
2.79 -0.01924 -163.46
2.796 -0.019221 -163.51
2.802 -0.019202 -163.56
2.808 -0.019184 -163.60
2.814 -0.019165 -163.65
2.82 -0.019147 -163.70
2.826 -0.019129 -163.75
2.832 -0.019111 -163.79
2.838 -0.019093 -163.84
2.844 -0.019075 -163.89
2.85 -0.019057 -163.94
2.856 -0.019039 -163.98
2.862 -0.019022 -164.03
2.868 -0.019004 -164.07
2.874 -0.018987 -164.12
2.88 -0.01897 -164.17
2.886 -0.018953 -164.21
2.892 -0.018936 -164.26
2.898 -0.018919 -164.30
2.904 -0.018902 -164.35
2.91 -0.018886 -164.39
2.916 -0.018869 -164.44
2.922 -0.018853 -164.48
2.928 -0.018836 -164.53
2.934 -0.01882 -164.57
2.94 -0.018804 -164.62
2.946 -0.018788 -164.66
2.952 -0.018772 -164.71
2.958 -0.018756 -164.75
2.964 -0.01874 -164.79
2.97 -0.018725 -164.84
2.976 -0.018709 -164.88
2.982 -0.018694 -164.92
2.988 -0.018679 -164.97
2.994 -0.018663 -165.01
3 -0.018648 -165.05
3.006 -0.018633 -165.10
3.012 -0.018618 -165.14
3.018 -0.018603 -165.18
3.024 -0.018589 -165.22
3.03 -0.018574 -165.27
3.036 -0.01856 -165.31
3.042 -0.018545 -165.35
3.048 -0.018531 -165.39
3.054 -0.018517 -165.44
3.06 -0.018503 -165.48
3.066 -0.018488 -165.52
3.072 -0.018475 -165.56
3.078 -0.018461 -165.60
3.084 -0.018447 -165.64
3.09 -0.018433 -165.68
3.096 -0.01842 -165.72
3.102 -0.018406 -165.77
3.108 -0.018393 -165.81
3.114 -0.01838 -165.85
3.12 -0.018366 -165.89
3.126 -0.018353 -165.93
3.132 -0.01834 -165.97
3.138 -0.018327 -166.01
3.144 -0.018314 -166.05
3.15 -0.018302 -166.09
3.156 -0.018289 -166.13
3.162 -0.018277 -166.17
3.168 -0.018264 -166.21
3.174 -0.018252 -166.25
3.18 -0.018239 -166.29
3.186 -0.018227 -166.32
3.192 -0.018215 -166.36
3.198 -0.018203 -166.40
3.204 -0.018191 -166.44
3.21 -0.018179 -166.48
3.216 -0.018167 -166.52
3.222 -0.018156 -166.56
3.228 -0.018144 -166.60
3.234 -0.018132 -166.63
3.24 -0.018121 -166.67
3.246 -0.01811 -166.71
3.252 -0.018098 -166.75
3.258 -0.018087 -166.79
3.264 -0.018076 -166.82
3.27 -0.018065 -166.86
3.276 -0.018054 -166.90
3.282 -0.018043 -166.94
3.288 -0.018032 -166.97
3.294 -0.018022 -167.01
3.3 -0.018011 -167.05
3.306 -0.018001 -167.08
3.312 -0.01799 -167.12
3.318 -0.01798 -167.16
3.324 -0.017969 -167.19
3.33 -0.017959 -167.23
3.336 -0.017949 -167.27
3.342 -0.017939 -167.30
3.348 -0.017929 -167.34
3.354 -0.017919 -167.38
3.36 -0.017909 -167.41
3.366 -0.0179 -167.45
3.372 -0.01789 -167.48
3.378 -0.01788 -167.52
3.384 -0.017871 -167.56
3.39 -0.017861 -167.59
3.396 -0.017852 -167.63
3.402 -0.017843 -167.66
3.408 -0.017833 -167.70
3.414 -0.017824 -167.73
3.42 -0.017815 -167.77
3.426 -0.017806 -167.80
3.432 -0.017797 -167.84
3.438 -0.017789 -167.87
3.444 -0.01778 -167.91
3.45 -0.017771 -167.94
3.456 -0.017762 -167.98
3.462 -0.017754 -168.01
3.468 -0.017745 -168.05
3.474 -0.017737 -168.08
3.48 -0.017729 -168.12
3.486 -0.017721 -168.15
3.492 -0.017712 -168.18
3.498 -0.017704 -168.22
3.504 -0.017696 -168.25
3.51 -0.017688 -168.29
3.516 -0.01768 -168.32
3.522 -0.017673 -168.35
3.528 -0.017665 -168.39
3.534 -0.017657 -168.42
3.54 -0.017649 -168.45
3.546 -0.017642 -168.49
3.552 -0.017634 -168.52
3.558 -0.017627 -168.55
3.564 -0.01762 -168.59
3.57 -0.017612 -168.62
3.576 -0.017605 -168.65
3.582 -0.017598 -168.69
3.588 -0.017591 -168.72
3.594 -0.017584 -168.75
3.6 -0.017577 -168.78
3.606 -0.01757 -168.82
3.612 -0.017564 -168.85
3.618 -0.017557 -168.88
3.624 -0.01755 -168.91
3.63 -0.017544 -168.95
3.636 -0.017537 -168.98
3.642 -0.017531 -169.01
3.648 -0.017524 -169.04
3.654 -0.017518 -169.07
3.66 -0.017512 -169.11
3.666 -0.017506 -169.14
3.672 -0.017499 -169.17
3.678 -0.017493 -169.20
3.684 -0.017487 -169.23
3.69 -0.017482 -169.26
3.696 -0.017476 -169.29
3.702 -0.01747 -169.33
3.708 -0.017464 -169.36
3.714 -0.017459 -169.39
3.72 -0.017453 -169.42
3.726 -0.017447 -169.45
3.732 -0.017442 -169.48
3.738 -0.017437 -169.51
3.744 -0.017431 -169.54
3.75 -0.017426 -169.57
3.756 -0.017421 -169.61
3.762 -0.017416 -169.64
3.768 -0.01741 -169.67
3.774 -0.017405 -169.70
3.78 -0.0174 -169.73
3.786 -0.017396 -169.76
3.792 -0.017391 -169.79
3.798 -0.017386 -169.82
3.804 -0.017381 -169.85
3.81 -0.017377 -169.88
3.816 -0.017372 -169.91
3.822 -0.017368 -169.94
3.828 -0.017363 -169.97
3.834 -0.017359 -170.00
3.84 -0.017354 -170.03
3.846 -0.01735 -170.06
3.852 -0.017346 -170.09
3.858 -0.017342 -170.12
3.864 -0.017338 -170.15
3.87 -0.017333 -170.18
3.876 -0.01733 -170.21
3.882 -0.017326 -170.23
3.888 -0.017322 -170.26
3.894 -0.017318 -170.29
3.9 -0.017314 -170.32
3.906 -0.01731 -170.35
3.912 -0.017307 -170.38
3.918 -0.017303 -170.41
3.924 -0.0173 -170.44
3.93 -0.017296 -170.47
3.936 -0.017293 -170.50
3.942 -0.01729 -170.53
3.948 -0.017286 -170.55
3.954 -0.017283 -170.58
3.96 -0.01728 -170.61
3.966 -0.017277 -170.64
3.972 -0.017274 -170.67
3.978 -0.017271 -170.70
3.984 -0.017268 -170.72
3.99 -0.017265 -170.75
3.996 -0.017262 -170.78
4.002 -0.01726 -170.81
4.008 -0.017257 -170.84
4.014 -0.017254 -170.87
4.02 -0.017252 -170.89
4.026 -0.017249 -170.92
4.032 -0.017247 -170.95
4.038 -0.017244 -170.98
4.044 -0.017242 -171.01
4.05 -0.01724 -171.03
4.056 -0.017237 -171.06
4.062 -0.017235 -171.09
4.068 -0.017233 -171.12
4.074 -0.017231 -171.14
4.08 -0.017229 -171.17
4.086 -0.017227 -171.20
4.092 -0.017225 -171.23
4.098 -0.017223 -171.25
4.104 -0.017221 -171.28
4.11 -0.01722 -171.31
4.116 -0.017218 -171.34
4.122 -0.017216 -171.36
4.128 -0.017215 -171.39
4.134 -0.017213 -171.42
4.14 -0.017212 -171.44
4.146 -0.01721 -171.47
4.152 -0.017209 -171.50
4.158 -0.017208 -171.52
4.164 -0.017206 -171.55
4.17 -0.017205 -171.58
4.176 -0.017204 -171.60
4.182 -0.017203 -171.63
4.188 -0.017202 -171.66
4.194 -0.017201 -171.68
4.2 -0.0172 -171.71
4.206 -0.017199 -171.74
4.212 -0.017198 -171.76
4.218 -0.017198 -171.79
4.224 -0.017197 -171.82
4.23 -0.017196 -171.84
4.236 -0.017196 -171.87
4.242 -0.017195 -171.89
4.248 -0.017195 -171.92
4.254 -0.017194 -171.95
4.26 -0.017194 -171.97
4.266 -0.017193 -172.00
4.272 -0.017193 -172.03
4.278 -0.017193 -172.05
4.284 -0.017193 -172.08
4.29 -0.017193 -172.10
4.296 -0.017193 -172.13
4.302 -0.017193 -172.15
4.308 -0.017193 -172.18
4.314 -0.017193 -172.21
4.32 -0.017193 -172.23
4.326 -0.017193 -172.26
4.332 -0.017193 -172.28
4.338 -0.017193 -172.31
4.344 -0.017194 -172.33
4.35 -0.017194 -172.36
4.356 -0.017195 -172.38
4.362 -0.017195 -172.41
4.368 -0.017196 -172.43
4.374 -0.017196 -172.46
4.38 -0.017197 -172.49
4.386 -0.017198 -172.51
4.392 -0.017198 -172.54
4.398 -0.017199 -172.56
4.404 -0.0172 -172.59
4.41 -0.017201 -172.61
4.416 -0.017202 -172.64
4.422 -0.017203 -172.66
4.428 -0.017204 -172.69
4.434 -0.017205 -172.71
4.44 -0.017206 -172.73
4.446 -0.017208 -172.76
4.452 -0.017209 -172.78
4.458 -0.01721 -172.81
4.464 -0.017212 -172.83
4.47 -0.017213 -172.86
4.476 -0.017214 -172.88
4.482 -0.017216 -172.91
4.488 -0.017218 -172.93
4.494 -0.017219 -172.96
4.5 -0.017221 -172.98
4.506 -0.017223 -173.01
4.512 -0.017224 -173.03
4.518 -0.017226 -173.05
4.524 -0.017228 -173.08
4.53 -0.01723 -173.10
4.536 -0.017232 -173.13
4.542 -0.017234 -173.15
4.548 -0.017236 -173.17
4.554 -0.017238 -173.20
4.56 -0.01724 -173.22
4.566 -0.017243 -173.25
4.572 -0.017245 -173.27
4.578 -0.017247 -173.30
4.584 -0.01725 -173.32
4.59 -0.017252 -173.34
4.596 -0.017254 -173.37
4.602 -0.017257 -173.39
4.608 -0.01726 -173.41
4.614 -0.017262 -173.44
4.62 -0.017265 -173.46
4.626 -0.017268 -173.49
4.632 -0.01727 -173.51
4.638 -0.017273 -173.53
4.644 -0.017276 -173.56
4.65 -0.017279 -173.58
4.656 -0.017282 -173.60
4.662 -0.017285 -173.63
4.668 -0.017288 -173.65
4.674 -0.017291 -173.67
4.68 -0.017294 -173.70
4.686 -0.017298 -173.72
4.692 -0.017301 -173.74
4.698 -0.017304 -173.77
4.704 -0.017308 -173.79
4.71 -0.017311 -173.81
4.716 -0.017315 -173.84
4.722 -0.017318 -173.86
4.728 -0.017322 -173.88
4.734 -0.017325 -173.91
4.74 -0.017329 -173.93
4.746 -0.017333 -173.95
4.752 -0.017336 -173.98
4.758 -0.01734 -174.00
4.764 -0.017344 -174.02
4.77 -0.017348 -174.04
4.776 -0.017352 -174.07
4.782 -0.017356 -174.09
4.788 -0.01736 -174.11
4.794 -0.017364 -174.14
4.8 -0.017368 -174.16
4.806 -0.017373 -174.18
4.812 -0.017377 -174.20
4.818 -0.017381 -174.23
4.824 -0.017386 -174.25
4.83 -0.01739 -174.27
4.836 -0.017394 -174.30
4.842 -0.017399 -174.32
4.848 -0.017404 -174.34
4.854 -0.017408 -174.36
4.86 -0.017413 -174.39
4.866 -0.017417 -174.41
4.872 -0.017422 -174.43
4.878 -0.017427 -174.45
4.884 -0.017432 -174.48
4.89 -0.017437 -174.50
4.896 -0.017442 -174.52
4.902 -0.017447 -174.54
4.908 -0.017452 -174.56
4.914 -0.017457 -174.59
4.92 -0.017462 -174.61
4.926 -0.017467 -174.63
4.932 -0.017473 -174.65
4.938 -0.017478 -174.68
4.944 -0.017483 -174.70
4.95 -0.017489 -174.72
4.956 -0.017494 -174.74
4.962 -0.0175 -174.76
4.968 -0.017505 -174.79
4.974 -0.017511 -174.81
4.98 -0.017516 -174.83
4.986 -0.017522 -174.85
4.992 -0.017528 -174.87
4.998 -0.017534 -174.90
5.004 -0.017539 -174.92
5.01 -0.017545 -174.94
5.016 -0.017551 -174.96
5.022 -0.017557 -174.98
5.028 -0.017563 -175.01
5.034 -0.017569 -175.03
5.04 -0.017576 -175.05
5.046 -0.017582 -175.07
5.052 -0.017588 -175.09
5.058 -0.017594 -175.11
5.064 -0.017601 -175.14
5.07 -0.017607 -175.16
5.076 -0.017613 -175.18
5.082 -0.01762 -175.20
5.088 -0.017626 -175.22
5.094 -0.017633 -175.24
5.1 -0.01764 -175.27
5.106 -0.017646 -175.29
5.112 -0.017653 -175.31
5.118 -0.01766 -175.33
5.124 -0.017667 -175.35
5.13 -0.017674 -175.37
5.136 -0.017681 -175.39
5.142 -0.017688 -175.42
5.148 -0.017695 -175.44
5.154 -0.017702 -175.46
5.16 -0.017709 -175.48
5.166 -0.017716 -175.50
5.172 -0.017723 -175.52
5.178 -0.017731 -175.54
5.184 -0.017738 -175.56
5.19 -0.017745 -175.59
5.196 -0.017753 -175.61
5.202 -0.01776 -175.63
5.208 -0.017768 -175.65
5.214 -0.017775 -175.67
5.22 -0.017783 -175.69
5.226 -0.017791 -175.71
5.232 -0.017798 -175.73
5.238 -0.017806 -175.76
5.244 -0.017814 -175.78
5.25 -0.017822 -175.80
5.256 -0.01783 -175.82
5.262 -0.017838 -175.84
5.268 -0.017846 -175.86
5.274 -0.017854 -175.88
5.28 -0.017862 -175.90
5.286 -0.01787 -175.92
5.292 -0.017879 -175.94
5.298 -0.017887 -175.96
5.304 -0.017895 -175.99
5.31 -0.017904 -176.01
5.316 -0.017912 -176.03
5.322 -0.017921 -176.05
5.328 -0.017929 -176.07
5.334 -0.017938 -176.09
5.34 -0.017947 -176.11
5.346 -0.017955 -176.13
5.352 -0.017964 -176.15
5.358 -0.017973 -176.17
5.364 -0.017982 -176.19
5.37 -0.017991 -176.21
5.376 -0.018 -176.23
5.382 -0.018009 -176.26
5.388 -0.018018 -176.28
5.394 -0.018027 -176.30
5.4 -0.018036 -176.32
5.406 -0.018045 -176.34
5.412 -0.018055 -176.36
5.418 -0.018064 -176.38
5.424 -0.018073 -176.40
5.43 -0.018083 -176.42
5.436 -0.018092 -176.44
5.442 -0.018102 -176.46
5.448 -0.018111 -176.48
5.454 -0.018121 -176.50
5.46 -0.018131 -176.52
5.466 -0.018141 -176.54
5.472 -0.01815 -176.56
5.478 -0.01816 -176.58
5.484 -0.01817 -176.60
5.49 -0.01818 -176.62
5.496 -0.01819 -176.64
5.502 -0.0182 -176.67
5.508 -0.01821 -176.69
5.514 -0.018221 -176.71
5.52 -0.018231 -176.73
5.526 -0.018241 -176.75
5.532 -0.018251 -176.77
5.538 -0.018262 -176.79
5.544 -0.018272 -176.81
5.55 -0.018283 -176.83
5.556 -0.018293 -176.85
5.562 -0.018304 -176.87
5.568 -0.018315 -176.89
5.574 -0.018325 -176.91
5.58 -0.018336 -176.93
5.586 -0.018347 -176.95
5.592 -0.018358 -176.97
5.598 -0.018369 -176.99
5.604 -0.01838 -177.01
5.61 -0.018391 -177.03
5.616 -0.018402 -177.05
5.622 -0.018413 -177.07
5.628 -0.018424 -177.09
5.634 -0.018436 -177.11
5.64 -0.018447 -177.13
5.646 -0.018458 -177.15
5.652 -0.01847 -177.17
5.658 -0.018481 -177.19
5.664 -0.018493 -177.21
5.67 -0.018504 -177.23
5.676 -0.018516 -177.25
5.682 -0.018528 -177.27
5.688 -0.018539 -177.29
5.694 -0.018551 -177.31
5.7 -0.018563 -177.33
5.706 -0.018575 -177.35
5.712 -0.018587 -177.37
5.718 -0.018599 -177.39
5.724 -0.018611 -177.41
5.73 -0.018623 -177.43
5.736 -0.018636 -177.45
5.742 -0.018648 -177.47
5.748 -0.01866 -177.49
5.754 -0.018673 -177.51
5.76 -0.018685 -177.53
5.766 -0.018697 -177.55
5.772 -0.01871 -177.57
5.778 -0.018723 -177.59
5.784 -0.018735 -177.61
5.79 -0.018748 -177.63
5.796 -0.018761 -177.65
5.802 -0.018774 -177.67
5.808 -0.018787 -177.69
5.814 -0.0188 -177.70
5.82 -0.018813 -177.72
5.826 -0.018826 -177.74
5.832 -0.018839 -177.76
5.838 -0.018852 -177.78
5.844 -0.018865 -177.80
5.85 -0.018878 -177.82
5.856 -0.018892 -177.84
5.862 -0.018905 -177.86
5.868 -0.018919 -177.88
5.874 -0.018932 -177.90
5.88 -0.018946 -177.92
5.886 -0.01896 -177.94
5.892 -0.018973 -177.96
5.898 -0.018987 -177.98
5.904 -0.019001 -178.00
5.91 -0.019015 -178.02
5.916 -0.019029 -178.04
5.922 -0.019043 -178.06
5.928 -0.019057 -178.08
5.934 -0.019071 -178.10
5.94 -0.019085 -178.12
5.946 -0.0191 -178.14
5.952 -0.019114 -178.16
5.958 -0.019128 -178.18
5.964 -0.019143 -178.19
5.97 -0.019157 -178.21
5.976 -0.019172 -178.23
5.982 -0.019186 -178.25
5.988 -0.019201 -178.27
5.994 -0.019216 -178.29
6 -0.019231 -178.31
